c NeuroCodeBench 2.0 CNF formula with verdict Sat
p cnf 100 505
25 95 27 10 61 60 57 51 26 82 8 18 65 32 79 22 54 45 83 29 58 38 75 7 2 77 35 50 67 84 48 56 62 98 43 33 90 91 37 40 52 81 97 87 96 70 23 68 39 4 -41 -74 -42 -14 -31 -71 -13 -44 -49 -59 -30 -9 -89 -78 -6 -3 -85 -72 -55 -76 -28 -63 -46 -64 -17 -100 -11 -66 -53 -73 -21 -69 -12 -88 -1 -99 0
3 66 64 95 45 42 10 40 -76 -22 -68 -74 0
5 87 89 69 59 57 16 98 74 54 48 96 24 29 75 34 66 86 99 13 19 46 64 47 62 100 50 42 90 60 9 35 -67 -30 -28 -6 -83 -26 -17 -4 -2 -33 -52 -91 -55 -20 -71 -77 -72 -63 -73 -22 -51 0
21 19 77 94 47 69 53 15 75 42 -5 -83 -93 -48 -86 -54 -66 -33 -7 -97 0
92 72 70 23 21 45 52 34 27 24 85 48 71 54 89 78 67 61 -97 -57 -62 -75 -36 -19 -33 -28 -39 -22 -96 -95 -49 -94 -38 -6 0
25 56 76 45 52 22 49 9 1 17 21 73 46 50 77 87 98 68 35 -6 -4 -5 -81 -42 -15 -83 -7 -70 -36 -84 -24 -2 -61 -43 -62 -13 -88 -80 -44 -82 -3 -69 -90 -55 -75 -47 -59 -54 -89 -23 -95 0
75 71 66 59 99 33 13 92 50 94 19 76 34 69 5 9 80 14 27 48 72 56 68 23 93 64 60 4 -79 -38 -77 -82 -61 -55 -62 -45 -6 -37 -74 -31 -86 -1 -54 -95 -67 -96 -85 -65 -30 -83 -2 -35 -90 -58 -20 -28 -41 -12 -3 -32 -40 0
67 54 37 86 100 46 28 48 79 30 19 10 70 22 91 24 31 59 47 57 69 32 88 -17 -16 -55 -45 -51 -61 -12 -85 -74 -90 -29 -21 -77 -6 -76 -87 -60 -50 0
90 47 -2 -88 -53 0
60 37 6 53 9 35 56 26 50 76 95 67 89 69 25 44 32 46 16 72 52 12 2 29 45 30 4 19 58 3 38 24 62 -10 -81 -91 -41 -17 -87 -82 -40 -92 -98 -54 -93 -80 -8 -94 -5 -28 -63 -18 -31 -100 -55 -48 -83 -59 -43 -90 -14 -47 -74 0
54 74 78 83 84 2 24 42 48 86 52 46 26 21 11 69 13 90 14 -34 -44 -29 -66 -98 -82 -88 -75 -23 -10 -80 -22 -15 -89 -53 -35 -65 -96 -45 0
84 34 99 49 39 20 47 40 17 43 89 78 70 71 2 19 16 87 83 46 12 72 22 50 18 44 69 66 77 15 32 64 58 59 95 25 63 9 60 65 11 57 91 26 31 -52 -93 -68 -53 -6 -33 -79 -45 -82 -7 -81 -42 -80 -90 -41 -73 -48 -13 -30 -75 -100 -96 -36 -37 -67 -76 -1 -94 -4 -29 -92 -28 -51 -14 -85 -62 -38 -8 -23 -10 -21 -86 -98 -3 -35 -88 0
15 8 67 21 54 90 53 75 77 43 36 50 78 12 28 46 20 92 79 24 98 38 51 82 68 41 3 25 -45 -76 -14 -49 -34 -29 -57 -55 -47 -85 -39 -99 -69 -71 -81 -83 -87 -97 -72 -13 -60 -31 -84 -93 -19 -4 -48 -35 -37 -95 -89 -66 -94 -64 -52 -65 -59 -6 -22 -62 -40 0
100 58 53 95 16 84 33 5 10 59 47 7 72 20 66 44 48 3 4 38 64 28 37 24 55 15 26 94 43 11 9 83 35 29 13 30 88 75 -77 -90 -68 -54 -19 -74 -12 -85 -14 -46 -82 -27 -40 -97 -1 -25 -56 -41 -32 -18 -65 -70 -60 0
91 11 87 44 62 35 28 71 1 67 45 64 -95 -5 -3 -20 -50 -55 -14 -17 -2 -51 -58 -56 -85 -81 -63 -22 -16 -60 -43 -61 0
62 54 53 75 84 15 48 80 19 71 56 38 94 46 33 35 -67 -59 -65 -21 -60 -77 -2 -8 -51 -83 -32 -28 -12 -16 -63 -36 -6 -29 -45 -66 0
81 94 84 55 51 67 83 8 29 4 58 25 21 37 93 32 38 5 69 44 10 30 96 19 57 88 64 65 23 36 6 71 53 72 50 41 33 39 26 13 80 2 52 74 -9 -86 -7 -22 -18 -17 -97 -15 -20 -90 -31 -40 -95 -87 -27 -28 -45 -43 -59 -75 -100 -89 -34 -99 -47 -35 -79 -63 -42 -73 -66 -82 -77 -14 -16 -54 -46 -60 -24 -12 -61 -68 -1 -48 -85 -78 0
21 53 41 91 90 37 7 -19 -68 -78 -61 0
16 26 83 37 18 23 14 82 86 72 73 68 38 55 75 47 81 78 42 71 27 39 15 -89 -69 -5 -6 -61 -87 -88 -77 -63 -4 -30 -54 -95 -60 -58 -13 -64 -45 -76 -29 -99 -17 -59 -74 -48 -9 -51 -67 -65 -93 -24 -70 -3 0
29 96 67 63 15 -54 -69 -64 -46 -91 -49 -75 0
84 56 6 70 78 12 47 2 5 53 75 30 85 -100 -48 -49 -19 -38 -39 -18 -41 -63 -86 -62 -54 -51 -43 -25 -9 -83 0
70 9 66 -51 -93 -19 0
49 83 41 48 47 43 90 65 54 88 8 19 82 10 66 24 100 61 68 62 70 60 67 44 86 80 79 56 31 89 97 6 7 23 37 99 -96 -26 -16 -46 -94 -20 -12 -92 -4 -14 -45 -30 -51 -74 -28 -58 -85 -27 -87 -59 -76 -50 -36 -72 -13 -11 -84 -55 -17 -42 -52 -98 -34 -71 -5 0
94 91 52 13 2 85 89 -60 -99 -16 -90 -71 -64 0
79 66 41 71 6 100 42 37 19 72 28 60 31 21 39 48 23 85 -12 -26 -93 -4 -5 -67 -22 -3 -82 -69 -52 -43 -76 -53 -59 -80 -61 -49 -10 0
29 18 92 97 59 20 12 83 40 81 66 7 63 44 71 70 96 21 47 69 -68 -34 -90 -98 -52 -48 -13 -1 -6 -64 -41 -42 -88 -49 -75 -84 -10 -39 -27 -45 -17 -54 -28 -31 -58 -35 -25 -15 -43 -87 -76 -30 -65 -23 -36 0
27 43 -68 -41 -77 0
18 69 62 17 99 84 51 64 72 68 59 94 -61 -95 -85 -16 -52 -58 -34 -9 -3 -45 -37 -24 -97 -81 -14 -5 -88 -29 -19 -90 0
27 12 41 10 57 88 19 69 98 35 1 33 97 52 65 62 32 38 49 55 96 22 63 78 71 40 29 54 42 30 68 7 83 44 21 73 90 87 20 77 92 85 95 -16 -15 -45 -58 -86 -18 -6 -67 -31 -51 -64 -36 -5 -76 -53 -43 -80 -93 -48 -84 -74 -91 -47 -99 -75 -94 -37 -79 -72 -59 -9 -61 -25 -26 -39 -50 -81 -8 -24 -17 -82 0
13 71 29 40 16 80 15 31 60 8 55 1 33 69 73 10 99 24 43 56 32 47 63 12 42 34 25 79 52 51 6 95 100 85 65 17 45 88 87 67 94 36 58 78 83 -14 -22 -75 -57 -97 -46 -93 -70 -54 -4 -90 -76 -98 -50 -74 -91 -26 -96 -66 -23 -64 -72 -92 -5 -18 -49 -9 -41 -39 -30 -19 -68 -21 -82 -7 -2 -86 -28 -59 -11 -62 -81 -44 -38 -89 -61 -84 0
50 43 6 19 48 51 15 28 57 82 7 65 91 81 10 8 68 75 94 49 52 74 29 25 79 70 76 84 56 87 -14 -46 -17 -4 -55 -11 -73 -12 -86 -92 -35 -26 -45 -77 -96 -71 -61 -59 -58 -34 -63 -54 -83 -32 -67 -38 -44 -27 -100 -23 -37 -62 0
41 77 87 100 6 30 27 72 16 22 84 85 74 47 37 25 5 75 33 53 52 7 64 40 11 3 23 19 24 20 49 31 55 1 99 38 71 39 91 58 15 8 98 59 66 26 -60 -28 -86 -81 -79 -96 -18 -61 -48 -80 -42 -57 -21 -97 -94 -34 -50 -88 -45 -13 -43 -10 -62 -67 -89 -29 -92 -14 -36 -70 -12 -32 -65 -51 -83 -9 -90 -95 -44 -69 -73 -93 -35 -56 -17 -78 -54 -63 -68 0
89 88 37 100 55 4 79 85 58 9 75 80 36 63 93 7 91 15 22 27 19 40 82 70 31 13 53 25 44 51 16 14 32 87 41 5 64 59 43 29 21 2 42 50 17 6 3 90 57 -92 -54 -1 -46 -71 -60 -52 -56 -61 -30 -98 -96 -34 -10 -73 -8 -26 -39 -62 -94 -86 -33 -28 -84 -24 -65 -68 -72 -20 -81 -18 -67 -69 -99 -49 -83 -76 -23 -35 -48 -74 -66 -47 0
87 51 67 92 88 82 35 96 63 52 36 17 70 73 1 85 -48 -60 -68 -79 -26 -9 -77 -75 -47 -74 -27 -12 -14 -89 -13 -10 -15 -32 -99 -62 -90 -2 0
31 75 81 90 98 50 93 64 16 72 87 19 88 7 26 70 66 8 10 65 37 91 17 13 46 96 80 18 63 99 51 34 5 74 2 60 55 56 89 33 79 27 6 15 41 39 4 -68 -92 -38 -44 -42 -73 -52 -69 -9 -77 -29 -83 -76 -86 -61 -11 -36 -24 -20 -12 -58 -35 -53 -71 -49 -62 -21 -67 -95 -28 -100 -43 -47 -85 -30 -94 -23 -40 -32 -97 -57 -45 -3 0
32 95 92 49 3 11 88 42 96 47 100 45 -5 -18 -76 -40 -20 -69 -55 -8 -27 -70 -60 -59 -13 0
100 40 44 22 -76 -36 -59 -72 -24 0
56 51 34 12 14 29 94 10 48 99 95 70 96 69 57 86 -77 -83 -85 -38 -46 -50 -60 -65 -6 -100 -74 -61 -89 -58 -8 -32 -91 -35 -36 -42 -79 -30 -37 -9 -82 -87 -33 -92 -52 0
99 46 73 49 98 23 16 67 28 -52 -94 -26 -72 -47 -75 -33 -86 -83 -96 -8 0
6 75 22 2 56 16 94 20 11 47 23 32 51 62 45 27 95 15 34 89 82 59 24 9 60 26 77 36 53 73 90 14 96 10 76 93 50 97 58 19 74 28 38 92 3 17 29 57 91 70 79 -100 -87 -83 -84 -66 -8 -7 -43 -54 -55 -42 -44 -98 -63 -61 -18 -49 -78 -99 -31 -39 -40 -86 -65 -25 -5 -71 -46 -67 -52 -12 -85 -13 -48 -81 0
14 8 2 28 12 39 71 24 80 100 59 90 68 44 31 34 84 26 79 57 81 9 37 61 20 65 32 43 6 36 53 69 70 42 56 45 91 -97 -78 -55 -11 -27 -89 -94 -52 -73 -93 -92 -33 -58 -7 -38 -74 -41 -3 -47 -10 -63 -88 -62 -85 -40 -25 -86 -1 -67 -66 -4 -95 -5 -16 0
52 66 4 97 44 58 50 83 8 29 31 63 9 80 100 41 27 54 98 92 43 59 38 81 65 39 45 78 93 35 6 30 1 -26 -40 -86 -33 -95 -53 -36 -2 -47 -76 -91 -70 -10 -94 -64 -25 -37 -18 -82 -85 -34 -71 -15 -51 -28 -61 -32 -99 -14 -68 -60 -72 -90 -57 -12 -89 -67 -42 -23 -7 -13 0
81 16 95 59 63 45 12 31 78 27 41 72 4 55 85 46 34 39 28 33 79 87 54 91 64 89 76 17 32 26 11 53 93 80 52 56 14 10 1 25 50 5 62 92 43 77 -57 -96 -36 -66 -7 -73 -6 -99 -29 -20 -94 -82 -42 -37 -67 -83 -47 -15 -65 -60 -51 -40 -74 -38 -98 -75 -2 -30 -49 -21 -9 -71 0
55 74 58 15 31 25 36 73 29 88 14 7 93 27 85 70 17 46 22 -68 -65 -26 -64 -11 -62 -28 -19 -38 -41 -3 -40 -75 -35 -100 -20 -72 -2 0
36 17 6 9 12 93 81 33 71 20 25 64 10 51 69 95 28 38 53 14 7 79 90 94 68 40 42 30 91 73 23 -26 -83 -92 -98 -96 -61 -85 -2 -35 -56 -74 -31 -21 -75 -87 -3 -66 -13 -43 -86 -27 -54 -46 -18 -47 -45 -76 -99 -89 -5 -52 -78 -57 -24 -84 -29 -55 0
24 3 84 100 -68 -87 -38 -63 -78 -76 -71 -46 -30 -41 -56 0
33 76 30 90 70 99 6 -81 -58 -78 -94 -92 -72 0
13 77 -70 -45 -59 -15 -86 -65 -9 -46 -57 -37 -23 -97 -44 -64 -20 -92 0
29 2 79 71 69 9 15 44 55 -1 -63 -92 -93 -18 -21 -78 -14 -51 -49 -33 -45 -75 -67 0
16 35 56 62 42 5 14 48 21 25 44 86 53 50 15 84 29 85 68 37 9 57 58 11 40 2 64 32 65 97 76 70 63 28 100 26 60 88 77 99 8 73 49 23 33 41 24 20 1 93 10 75 -18 -98 -67 -12 -38 -90 -79 -87 -96 -45 -80 -69 -13 -78 -39 -89 -91 -72 -30 -71 -66 -51 -4 -6 -19 -55 -95 -52 -27 -43 -54 -61 -47 -92 -36 -3 -22 -83 -94 -59 -82 -81 -34 -74 -31 0
54 35 11 90 16 22 63 52 32 34 61 81 39 67 99 73 3 -14 -55 -31 -76 -77 -75 -69 -29 -96 -74 -88 -33 -9 -46 -18 -64 -85 -57 -10 -21 -6 0
19 43 18 -21 -7 -23 -27 -63 -48 -8 -5 0
66 11 87 79 20 23 78 1 13 58 22 84 12 4 99 63 44 32 47 16 75 24 43 67 92 -19 -81 -55 -39 -42 -25 -56 -80 -86 -51 -76 -31 -46 -95 -73 -68 -33 -3 -65 -90 -100 -30 -28 -50 0
36 65 -51 -40 -88 0
58 38 3 96 41 -88 -53 -7 -2 0
43 70 15 20 8 82 30 95 63 60 80 55 98 90 85 27 -9 -62 -1 -12 -53 -54 -48 -24 -76 -69 -67 -41 -40 -37 -88 -32 -71 -25 -16 0
97 12 54 56 -2 -20 -35 -37 -95 -47 0
55 68 67 38 66 85 29 7 43 69 58 14 82 -46 -11 -89 -27 -83 -51 -78 0
19 86 7 23 3 42 87 81 12 49 51 28 61 57 25 69 50 26 38 -48 -46 -75 -35 -22 -52 -97 -4 -91 -14 -80 -58 -32 -37 -41 -16 -15 -30 -99 -45 -60 -88 -96 -63 -73 -72 -83 0
16 42 1 29 13 7 86 2 95 96 22 40 4 34 20 57 61 56 92 -59 -75 -14 -51 -11 -84 -100 -50 -53 -69 -36 -54 -38 -87 -72 -66 -37 -98 -73 -67 -5 -89 -23 -49 -32 -65 -63 -12 0
2 51 7 79 19 85 23 61 31 20 28 13 96 44 80 52 70 41 63 100 95 54 17 49 57 48 66 75 -86 -94 -73 -92 -38 -55 -15 -82 -40 -58 -36 -24 -6 -22 -3 -39 -72 -81 -27 -88 -71 -43 -14 -90 -5 -99 -42 -26 -21 -93 -29 -47 -98 -56 -10 -50 -65 -64 -1 -11 -25 -18 -62 -8 -12 -45 0
16 23 55 49 65 43 59 75 96 25 73 46 34 21 76 90 31 4 2 7 92 64 70 45 -32 -88 -44 -80 -38 -20 -42 -36 -95 -87 -3 -13 -81 -22 -40 0
59 2 100 42 29 57 24 61 13 43 51 4 -50 -79 -74 -44 -82 -21 -68 -38 0
21 35 36 23 80 76 10 85 84 34 9 92 82 79 53 90 95 91 96 7 24 49 88 64 3 100 66 77 81 38 50 43 29 16 52 62 1 94 12 83 4 19 -98 -22 -11 -20 -69 -65 -8 -14 -25 -75 -37 -27 -70 -97 -57 -17 -71 -44 -51 -78 -47 -33 -13 -55 -60 -68 -59 -28 0
42 8 87 19 24 84 79 56 91 -68 -78 -45 -23 -98 -89 -75 -11 -96 0
63 94 43 88 6 37 99 2 58 42 76 7 95 91 86 82 28 4 72 83 20 92 11 54 32 79 14 21 12 84 13 38 70 57 15 60 61 31 19 71 -17 -51 -93 -66 -40 -65 -69 -30 -75 -25 -5 -56 -78 -80 -90 -55 -98 -9 -53 -67 -36 -47 -24 -8 -23 -16 -1 -46 -52 -34 -29 -68 -73 -26 -45 -74 -62 -97 -81 -48 -35 -96 -59 -22 -85 -100 -49 -44 -50 -77 0
16 0
53 10 26 9 72 45 5 82 28 19 46 92 -62 -20 -32 -30 -14 -87 -18 -16 -57 -85 -84 -71 -83 -67 -43 0
84 60 67 90 55 24 3 82 26 98 25 94 5 31 61 79 76 47 85 18 97 50 100 -62 -19 -40 -21 -32 -96 -46 -37 -39 -17 -86 -74 -70 -8 -71 -81 -68 -59 -27 -12 -34 -95 -54 -75 -51 -11 -93 -2 -30 0
1 33 20 100 14 22 48 58 67 76 11 12 35 40 85 15 75 -44 -92 -10 -46 -53 -32 -96 -94 -69 0
93 86 41 14 26 69 60 42 65 34 27 31 59 61 79 90 22 46 64 39 67 62 36 1 70 76 -12 -8 -32 -72 -100 -49 -25 -10 -55 -97 -38 -45 -71 -18 -21 -94 -54 -57 -81 -19 -9 -11 -47 -5 -16 -33 -53 0
12 83 21 -52 -70 -91 -68 0
83 88 57 91 16 34 12 37 68 28 58 54 47 55 2 7 38 5 50 75 77 -35 -79 -89 -74 -18 -30 -4 -51 -49 -71 -46 -73 -100 -78 -3 -90 -62 -92 -66 -15 -29 -97 -81 -86 -39 0
73 84 36 11 20 79 91 5 31 62 43 1 14 94 23 40 99 65 35 68 47 86 4 -93 -37 -22 -55 -33 -34 -66 -8 -97 -78 -92 -9 -38 -42 -29 -96 -87 -61 -58 0
84 85 63 72 53 59 79 52 33 41 9 70 54 14 75 30 87 32 34 55 83 21 89 18 22 29 77 78 47 61 68 57 36 23 58 73 71 39 -91 -13 -98 -99 -28 -74 -15 -67 -82 -93 -26 -35 -60 -12 -81 -3 -50 -45 -51 -64 -90 -20 -95 -17 -62 -56 -96 -4 -8 -66 -16 -76 -5 -69 -11 -27 -24 -1 -37 -10 -92 -80 -97 -43 -44 -2 0
10 6 12 46 85 -96 -48 -29 0
60 40 83 46 3 90 91 15 74 88 71 29 98 19 53 54 30 32 68 35 23 41 -99 -62 -52 -70 -79 -12 -94 -16 -58 -61 -4 -66 -55 -18 -45 -17 -22 -97 -85 -76 -10 -27 -11 -56 -86 -47 -73 -75 -87 -37 -33 -34 0
98 50 23 12 18 32 -20 -69 -25 -89 -76 -8 -96 -45 -4 0
64 29 -78 -98 -58 -18 -43 -46 -83 0
58 51 11 81 52 5 45 75 50 59 70 99 89 94 88 32 21 14 93 55 65 12 69 24 6 3 57 27 64 36 28 33 90 87 -30 -16 -42 -37 -1 -10 -77 -47 -68 -44 -34 -85 -46 -86 -62 -76 -79 -95 -61 -23 -49 -9 -40 -66 -48 -20 -91 -97 -15 -29 -60 0
47 86 90 73 33 81 29 84 24 31 7 49 72 55 -13 -27 -76 -79 -87 -32 -46 -37 -98 -38 -66 -11 -15 -6 -14 -34 -9 -54 -28 -35 -59 -89 -52 -58 -12 -36 0
7 25 59 9 46 51 35 55 5 15 99 70 43 89 58 28 95 14 31 80 81 19 4 66 37 29 45 34 40 13 73 56 1 -2 -60 -20 -87 -50 -47 -32 -67 -12 -83 -62 -26 -75 -41 -17 -36 -97 -3 -18 -96 -8 -91 -71 -74 -72 -44 -42 -22 -54 -21 -30 -10 -53 -52 -23 -85 -86 -38 0
14 2 38 82 60 71 9 28 21 59 8 68 83 17 66 64 10 94 -36 -62 -93 -44 -50 -84 -80 -63 -77 -34 -32 -57 -13 0
51 63 12 33 91 65 45 49 42 36 34 72 66 21 67 90 28 38 88 19 75 35 3 40 2 32 15 79 16 -25 -29 -17 -11 -100 -64 -37 -92 -53 -99 -1 -95 -50 -98 -61 -59 -6 -4 -89 0
45 85 77 99 14 98 32 62 38 4 83 70 18 39 93 92 16 50 8 28 22 72 57 30 69 -44 -3 -26 -59 -55 -61 -97 -31 -58 -1 -89 -94 -25 -41 -9 -54 -13 -6 -10 -78 -33 -23 -7 -84 -64 -79 -81 -48 -65 -90 -37 -87 -19 0
44 24 71 70 46 28 19 96 99 67 -94 -42 -92 -43 -10 -91 -52 -53 -64 -15 -97 -77 0
31 67 7 46 80 93 92 43 41 16 59 51 50 75 87 54 15 36 98 68 8 2 86 20 14 82 56 -13 -100 -42 -35 -17 -3 -85 -52 -94 -78 -55 -96 -57 -48 -22 -84 -39 -60 -29 -9 -81 -33 -83 -45 -66 -34 -19 -65 -10 -53 -1 -38 -49 -25 0
49 12 87 51 44 98 3 47 41 72 76 4 70 46 15 13 92 58 78 21 36 85 38 66 -32 -39 -54 -74 -22 -75 -5 -29 -20 -64 -100 -96 -69 -97 -61 -73 -23 -94 -95 -14 -79 -86 -34 0
72 87 11 57 59 69 79 2 46 29 81 86 10 25 50 68 77 39 14 5 18 95 -64 -41 -83 -62 -84 -52 -99 -44 -88 -48 -1 -13 -89 -47 -51 -34 -6 -80 -45 -96 -37 -23 -92 -28 -58 -54 -67 0
91 -79 -6 -77 -99 -21 0
94 93 -49 -52 0
16 24 73 37 43 82 35 97 87 49 86 2 3 68 76 -42 -6 -91 -5 -26 -94 -51 -59 -25 -69 -52 -77 -84 0
93 55 51 30 65 62 48 41 97 24 49 50 26 63 81 82 45 23 68 99 27 31 88 32 7 15 72 86 83 69 79 92 98 36 90 61 91 75 -59 -76 -20 -44 -35 -89 -40 -17 -73 -37 -11 -5 -19 -39 -6 -22 -2 -95 -9 -57 -4 -67 -56 -96 -47 -14 -46 -66 -18 -77 -28 -100 -12 -21 -53 -84 -87 -29 -78 -33 -71 -52 -38 -60 -64 -8 0
17 26 94 7 35 32 6 60 89 46 71 15 43 80 93 66 48 77 62 2 75 8 81 36 -29 -74 -53 -38 -50 -78 -68 -99 -92 -12 -79 -47 -28 -5 -69 -11 -83 0
89 34 62 38 14 69 76 51 82 1 100 75 47 31 40 17 41 -39 -98 -81 -83 -67 -29 -22 -56 -88 -80 -7 -68 -32 -26 -55 -96 -94 -59 -73 -12 -36 -20 -42 -66 -11 0
34 17 13 72 10 98 92 55 65 90 94 23 38 71 67 44 81 35 36 69 56 89 45 6 91 76 62 19 41 9 70 33 7 51 50 -15 -96 -54 -73 -58 -11 -59 -49 -47 -8 -3 -80 -74 -31 -97 -86 -32 -77 -27 -4 -64 -24 -84 -30 -40 -78 -61 -46 -21 -57 -93 -95 -53 -14 -75 -88 -42 -37 -85 -12 -18 -5 -22 0
92 37 49 52 97 28 67 1 23 8 98 76 72 11 9 13 94 40 55 18 78 63 -58 -5 -91 -65 -80 -21 -61 -85 -88 -56 -66 -16 -26 -29 -90 -43 -17 -38 -73 -60 -27 -86 -71 -19 -10 -64 -45 0
77 58 14 89 2 -60 -67 -65 -87 -91 -49 -40 0
97 60 17 65 88 62 3 86 10 84 38 25 70 96 35 63 91 93 77 55 61 78 57 54 34 43 11 44 -36 -49 -58 -16 -99 -28 -45 -33 -51 -98 -95 -6 -71 -46 -100 -94 -27 -85 -56 -42 -9 -32 -29 -73 -79 -22 -15 0
11 8 13 5 54 84 29 43 77 21 95 30 68 50 69 40 36 78 49 24 72 96 25 59 17 37 55 12 16 70 56 83 10 65 87 80 7 46 18 1 82 4 47 94 19 6 41 71 -89 -26 -97 -60 -52 -86 -74 -76 -61 -51 -38 -79 -15 -39 -57 -53 -81 -45 -90 -62 -34 -48 -93 -35 -75 -91 -63 -14 -28 -67 -58 -2 -9 -32 -92 -99 -88 -27 -100 -23 -3 -66 -64 -73 0
1 36 69 68 7 32 72 93 29 87 30 9 26 23 19 74 27 33 90 8 53 49 24 17 64 45 91 96 50 -48 -55 -3 -58 -10 -47 -4 -43 -40 -6 -73 -51 -62 -65 -13 -25 -56 -82 -95 -75 -35 -98 -16 -59 -71 -15 -38 -31 -57 -42 -54 -80 0
90 78 73 3 91 27 10 13 24 23 56 18 66 34 100 43 99 80 11 83 2 31 -95 -63 -30 -94 -14 -68 -53 -71 -76 -21 -42 -79 -16 -8 -28 -97 -84 -86 -54 -47 -46 -74 -5 -59 -70 -75 -9 0
59 49 83 35 43 97 17 22 1 89 72 44 60 91 46 100 26 62 40 33 -51 -54 -73 -4 -68 -85 -24 -70 -20 -90 -80 -93 -14 -5 -84 -57 -21 -2 -74 -69 -28 -82 -58 0
53 63 65 97 87 46 67 91 21 15 59 22 88 69 99 24 40 77 31 30 19 86 -83 -52 -54 -84 -95 -68 -89 -7 -12 -70 -48 -71 -34 -8 -14 -4 0
62 52 80 48 46 60 79 61 51 24 20 33 92 44 71 58 27 13 45 78 9 32 68 42 74 19 26 84 10 -65 -81 -64 -54 -95 -93 -94 -4 -28 -7 -41 -38 -89 -5 -2 -49 -40 -29 -98 -17 -3 -73 -8 -85 -97 -55 -67 -66 -77 -56 -83 0
73 33 4 16 23 31 95 91 76 29 18 59 78 -60 -77 -6 -34 -11 -58 -28 -49 -50 -67 -88 -89 0
56 49 3 13 1 36 70 20 25 72 41 35 45 61 44 -100 -48 -59 -24 -84 -93 -40 -52 -37 -23 -66 -29 0
59 75 15 44 85 79 27 66 64 5 24 26 20 74 37 72 65 8 12 83 96 30 58 90 22 4 -93 -10 -21 -45 -55 -7 -39 -28 -32 -70 -62 -78 -54 -18 -81 -11 -9 -69 0
85 69 93 100 32 26 88 83 67 12 27 57 46 47 1 98 87 95 7 75 2 64 91 90 65 48 58 66 77 61 38 10 3 89 36 80 11 35 74 21 55 5 42 73 84 -4 -34 -20 -45 -49 -29 -78 -97 -81 -39 -24 -43 -70 -76 -8 -60 -18 -96 -17 -86 -71 -13 -23 -94 -72 -16 -62 -92 -41 -28 -37 -30 -15 -79 -59 -68 -50 -54 -33 -9 0
54 78 88 53 11 31 73 77 59 30 2 44 57 50 32 82 97 26 58 25 90 38 95 52 66 14 61 72 41 3 5 20 68 91 86 24 15 64 49 45 75 62 -10 -84 -35 -74 -28 -100 -99 -51 -65 -71 -34 -47 -43 -22 -39 -37 -69 -63 -27 -83 -85 -9 -23 -29 -56 -96 -87 -98 -55 -93 -92 -79 -94 -70 -12 -40 -18 -19 -1 -60 -76 0
76 58 95 1 66 92 48 39 42 5 12 25 54 56 19 94 30 4 98 87 93 44 77 68 51 88 29 86 9 71 8 14 46 18 43 69 28 80 82 26 78 -47 -22 -20 -62 -60 -36 -16 -49 -45 -52 -74 -70 -41 -6 -13 -79 -59 -15 -55 -97 -3 -7 -67 -73 -11 -2 -72 -57 -64 -50 -99 -23 -31 -83 -17 -63 -40 -100 -53 -32 0
51 2 86 4 50 42 43 28 39 58 -6 -84 -76 -34 -38 -36 -79 0
83 56 29 58 65 32 81 3 82 39 63 30 26 75 99 52 85 78 2 89 76 53 95 -55 -8 -69 -67 -38 -1 -17 -37 -57 -68 -70 -41 -25 -88 -49 -20 -74 -62 -40 -93 -91 -51 -10 -42 -72 -66 0
78 96 48 66 71 3 5 33 11 59 34 74 61 7 26 68 46 81 76 64 28 77 15 20 91 14 10 70 82 51 -56 -79 -21 -27 -24 -58 -23 -86 -95 -43 -65 -36 -98 -9 -32 -12 -67 -80 -19 -39 -100 -31 -73 -69 -88 -2 -8 -53 -16 -6 -55 -92 -42 0
92 37 61 89 88 82 25 29 20 76 21 42 51 58 97 91 62 -86 -31 -77 -45 -67 -19 -6 -99 -50 -80 -15 -40 -5 -90 -11 -81 -93 -33 -79 -73 -68 -52 0
64 52 87 27 47 89 72 80 15 19 40 43 95 49 30 44 46 38 61 39 83 14 65 26 2 18 79 4 50 20 58 96 12 98 48 51 66 92 85 54 23 9 82 13 71 16 62 73 90 99 28 -68 -74 -75 -21 -45 -57 -29 -1 -81 -10 -24 -34 -97 -77 -36 -94 -32 -91 -76 -41 -42 -88 -7 -70 -5 -93 -59 -63 -25 -35 -53 -84 -86 -78 -33 -67 -56 -31 -60 -69 -11 -37 0
54 8 88 18 65 37 72 63 40 9 6 83 100 2 51 61 89 49 81 64 59 74 58 21 56 13 69 27 34 85 25 -38 -35 -33 -96 -36 -48 -62 -30 -43 -4 -75 -92 -70 -91 -10 -45 -97 -39 -86 -79 -7 -11 -20 -22 -78 -28 -44 -50 -99 -90 -73 -1 -32 0
62 98 87 34 25 14 72 35 9 64 11 18 74 93 41 1 63 26 59 75 85 67 83 5 55 7 2 56 82 66 46 52 -16 -76 -3 -97 -43 -31 -57 -68 -69 -47 -27 -95 -19 -50 -39 -32 -24 -60 -78 -44 -20 -17 -80 -84 -71 -45 -15 -100 -37 -23 -48 -53 -81 -22 -70 -30 -33 -42 -99 -6 0
90 -19 -63 -95 -68 0
53 79 1 50 5 68 59 13 33 44 92 88 17 61 67 7 48 14 36 84 89 41 8 40 90 97 66 55 80 6 16 58 29 72 56 -82 -93 -91 -60 -69 -63 -57 -10 -52 -25 -51 -47 -34 -77 -98 -38 -2 -35 -83 -9 -85 -74 -27 -43 -70 -18 -46 -37 -81 -4 -23 -22 -32 -20 -15 -100 -30 -11 -31 -94 -62 -19 -49 0
67 3 22 61 35 13 98 72 37 85 29 65 59 1 56 80 60 63 96 31 45 -87 -54 -82 -44 -34 -43 -49 -33 -57 -27 -46 -53 -12 -62 -25 -69 0
88 62 78 96 11 34 37 65 79 70 89 40 23 51 -32 -95 -24 -21 -60 -56 -57 -67 -22 -73 -25 -38 -97 -14 -8 -86 -74 0
25 3 36 52 96 47 40 68 31 61 45 62 79 53 17 66 88 22 58 46 92 16 30 94 19 69 28 2 59 6 18 60 24 27 5 49 29 -67 -97 -42 -11 -95 -34 -51 -72 -8 -1 -23 -75 -20 -32 -43 -71 -93 -83 -35 -44 -12 -39 -41 -84 -90 -98 -37 -74 -9 -14 -65 -64 -38 -4 -48 -85 -55 -10 -26 -57 -89 -56 0
98 56 52 28 99 -54 -43 -65 0
12 61 78 50 9 83 1 6 13 76 11 -95 -57 -30 -34 -66 -33 -93 -25 -52 0
63 44 42 23 76 5 95 80 31 9 14 32 60 92 27 73 39 11 70 84 19 34 17 93 2 64 -6 -82 -91 -22 -65 -16 -56 -40 -94 -55 -68 -28 -49 -54 -72 -89 -61 -77 -81 -8 -46 -1 -10 -7 -36 -62 -53 -12 0
21 64 40 7 68 62 74 39 60 79 71 9 73 41 32 94 11 31 30 44 24 85 19 37 23 14 82 4 89 86 6 13 17 65 63 56 36 26 46 43 67 20 50 15 45 92 -93 -55 -96 -81 -16 -52 -27 -70 -61 -57 -38 -51 -10 -8 -76 -97 -42 -98 -100 -59 -49 -88 -84 -99 -80 -3 -25 -28 -5 -58 -22 -77 -34 -53 -12 -66 -29 -1 -75 -83 -33 -54 -90 -18 -78 -95 -87 -48 -91 -35 -69 -47 -2 0
26 76 74 83 96 44 33 90 28 56 35 32 70 51 95 45 16 29 81 46 53 47 25 94 100 39 98 62 93 84 11 92 30 31 71 77 15 19 50 9 7 97 79 5 -66 -12 -48 -18 -72 -73 -67 -8 -23 -27 -36 -59 -52 -65 -85 -6 -13 -75 -3 -91 -58 -49 -24 -55 -42 -43 -57 -99 -17 -86 -61 -22 -68 -54 -37 -88 -20 -21 -1 -4 -10 -60 -80 -69 -14 -89 -38 -34 -64 -2 -40 -87 -63 -78 -82 0
31 70 95 84 85 97 13 34 57 100 47 15 68 36 67 54 89 16 71 82 -24 -63 -17 -37 -66 -41 -55 -39 -2 -62 -44 -65 -51 -28 -30 -6 -27 -21 -76 -33 -90 0
30 78 82 31 69 84 40 12 49 68 16 42 58 97 94 2 32 37 100 48 88 59 24 4 85 33 35 18 25 29 -47 -95 -70 -57 -39 -46 -36 -72 -38 -28 -9 -89 -26 -8 -6 -3 -14 -90 -79 -22 -15 -99 -55 -5 -98 -17 -93 -10 -56 -75 -1 -7 -20 -86 -80 -19 -45 -62 -77 -81 0
25 72 4 27 81 15 70 56 29 89 26 24 20 75 92 8 73 11 60 21 9 -18 -37 -98 -7 -99 -74 -30 -28 -96 -10 -87 -90 -48 -47 -16 -86 -67 -61 -64 -22 -76 -82 -1 0
41 60 56 2 36 92 17 35 24 67 34 99 30 21 8 1 71 55 72 10 54 93 29 89 31 78 42 84 63 53 28 88 75 95 44 46 -6 -70 -76 -83 -79 -64 -81 -19 -48 -18 -62 -59 -22 -7 -50 -57 -66 -16 -13 -20 -69 -45 -9 -80 -49 -15 -32 -98 -61 -90 -86 -97 -47 -37 -38 -85 -43 0
17 69 50 76 63 28 95 36 92 86 32 30 82 35 58 96 80 90 22 26 51 -4 -72 -78 -33 -1 -68 -2 -47 -45 -62 -65 -49 -7 -42 -39 -16 -18 -75 -41 0
91 94 62 67 75 69 24 3 57 80 15 76 9 100 33 55 72 43 1 17 92 14 74 27 95 12 83 25 58 89 26 16 34 96 19 82 56 29 54 65 87 86 61 23 46 42 64 22 8 98 90 18 36 88 -97 -28 -48 -93 -60 -31 -51 -45 -66 -71 -41 -50 -7 -59 -6 -49 -30 -85 -99 -73 -79 -77 -2 -4 -38 -81 -63 -35 -32 0
96 48 26 6 14 32 70 22 23 75 98 10 67 41 19 24 58 80 29 44 89 45 66 30 3 99 64 38 100 61 86 52 79 9 88 21 -91 -5 -37 -68 -87 -50 -49 -82 -81 -63 -97 -71 -11 -1 -59 -62 -25 -92 -77 -74 -55 -35 -51 -20 -27 -34 -43 0
16 69 35 42 100 9 67 37 96 25 95 1 40 28 99 13 2 85 43 68 33 18 71 50 22 74 98 -7 -49 -30 -20 -15 -81 -46 -11 -27 -66 -39 -36 -3 -93 -51 -75 -45 -63 -73 -90 -4 -24 -31 -38 -53 0
1 2 45 5 87 11 9 86 88 66 42 72 40 61 76 8 35 68 81 50 12 14 73 97 77 69 89 4 57 82 65 13 91 29 15 84 20 54 70 52 33 37 95 83 -30 -7 -51 -62 -79 -67 -24 -63 -78 -43 -53 -59 -23 -10 -25 -47 -34 -93 -94 -56 -90 -74 -27 -71 -3 -38 -32 -22 -46 -64 -80 -26 -18 -28 -49 -92 -48 -96 -41 -31 -6 -98 -17 -58 -44 0
13 35 44 24 34 64 92 8 -20 -57 -22 -96 -41 -46 -95 0
35 86 44 6 54 28 5 72 -88 -22 -66 -67 0
18 58 3 -37 -93 0
41 12 28 35 99 92 3 94 61 45 29 -17 -32 -55 -66 -93 -59 -27 -2 -6 -33 -51 -43 0
25 32 91 21 59 -45 -13 -2 -6 -96 -73 0
70 57 44 95 15 76 92 19 88 39 90 85 34 98 40 22 7 55 38 80 1 11 50 86 59 -28 -25 -13 -82 -35 -96 -75 -49 -71 -6 -43 -69 0
66 44 61 22 100 98 99 3 77 83 79 15 -13 -4 -12 -40 -73 -17 -50 -46 -11 -19 -33 -94 -39 -47 -49 -84 -9 -34 0
12 65 93 18 78 61 27 48 77 62 50 59 7 38 89 40 76 6 52 -70 -80 -74 -53 -5 -87 -29 -41 -21 -4 -28 -49 -64 -46 0
49 79 82 0
100 86 64 34 9 22 36 73 46 93 95 57 87 85 48 41 49 68 23 89 37 35 54 63 81 17 6 88 65 12 74 66 75 96 8 1 47 82 13 60 19 24 80 84 97 90 44 -42 -83 -18 -16 -40 -61 -25 -29 -7 -45 -14 -58 -21 -98 -3 -30 -62 -51 -78 -92 -27 -70 -2 -72 -26 -31 -55 -56 -20 -5 -53 -79 -28 -39 -33 -71 -77 0
39 30 58 72 44 23 71 4 97 11 64 8 20 26 33 96 -17 -66 -68 -38 -62 -61 -91 -85 -87 -48 0
74 89 58 77 6 29 54 36 86 25 23 12 91 57 1 30 51 84 19 80 63 3 59 38 44 24 67 21 94 78 -2 -64 -76 -68 -69 -50 -93 -17 -60 -18 -31 -9 -47 -65 -28 -73 -52 -95 -45 -43 -81 -14 -46 -10 -61 -97 -88 -75 -71 -90 -13 -39 -99 -62 -96 0
5 41 71 8 62 85 14 56 28 34 86 82 37 79 99 47 60 31 45 2 91 26 53 18 73 15 76 51 52 90 78 96 100 48 97 -98 -61 -84 -81 -70 -65 -20 -43 -29 -87 -93 -42 -27 -59 -13 -23 -3 -55 -94 -35 -9 -57 -21 -40 -50 -25 -67 -38 -4 -16 -95 -46 -32 -64 -6 -66 0
100 48 4 70 25 74 18 6 91 8 73 60 47 51 99 37 14 68 89 2 5 96 44 12 87 54 50 92 76 23 94 49 77 61 93 33 53 9 3 79 34 24 32 21 42 31 72 45 95 65 19 66 -20 -52 -29 -30 -57 -86 -27 -39 -75 -41 -85 -63 -62 -11 -64 -15 -16 -80 -35 -38 -22 -84 -7 -67 -17 -78 -83 -28 -88 -90 -1 -40 -98 -59 -46 -55 -36 -26 -71 0
64 18 78 48 99 95 20 63 15 50 33 75 68 58 96 28 14 27 23 29 46 2 32 73 92 40 12 16 3 90 7 39 71 86 -66 -76 -77 -89 -31 -61 -52 -83 -34 -11 -30 -53 -88 -13 -17 -9 -47 -45 -44 -26 -56 -19 -62 -81 -74 -5 -24 -59 -70 -67 -72 -22 -79 -85 -100 -54 -41 -35 -60 -21 0
20 53 21 65 89 38 5 39 12 34 27 82 7 43 66 3 56 83 74 33 85 96 32 13 81 15 70 68 49 79 37 97 22 31 61 50 84 80 67 8 60 57 55 73 63 35 -40 -36 -29 -99 -2 -1 -90 -11 -54 -28 -51 -9 -44 -93 -47 -88 -75 -87 -48 -24 -52 -64 -71 -95 -77 -59 -26 -16 -23 -62 -25 -86 -41 -30 -4 -78 -58 -19 -94 -17 -76 -18 -91 0
34 46 9 3 51 28 67 49 62 27 68 75 64 100 14 80 55 7 6 60 41 54 86 47 30 32 95 52 85 87 72 35 26 53 -57 -77 -8 -38 -74 -96 -1 -23 -63 -11 -17 -66 -4 -24 -79 -39 -29 -69 -37 -99 -20 -97 -5 -81 -94 -40 -22 -10 -2 -82 -93 -16 -88 -90 -61 -12 -48 -36 -73 -31 -78 0
13 8 54 56 38 91 9 75 5 50 57 62 84 36 21 71 80 63 12 15 46 37 77 6 55 81 95 39 52 53 24 29 66 82 -86 -28 -97 -32 -76 -23 -96 -35 -41 -49 -65 -61 -27 -17 -7 -60 -10 -40 -44 -11 -42 -34 -22 -83 -85 -78 -45 -59 -33 -26 -19 -72 -92 -79 -93 -73 -100 -51 -94 0
11 67 83 0
82 64 54 11 36 38 21 83 94 1 47 89 72 59 10 46 55 80 58 13 86 76 -61 -8 -26 -95 -69 -62 -32 -6 -9 -15 -48 -3 -81 -70 -67 -19 -5 -27 -60 -100 -90 -93 -77 -73 -29 -85 0
47 31 77 66 100 80 7 65 20 59 26 45 23 92 16 74 82 4 54 3 19 57 33 58 -69 -88 -11 -18 -35 -71 -32 -38 -79 -29 -22 -43 -85 -46 0
31 36 72 42 28 1 78 4 87 18 83 82 54 56 97 86 15 89 5 33 93 63 24 41 32 13 47 91 98 90 75 48 12 30 62 43 39 22 96 44 76 73 35 55 37 38 21 -70 -95 -69 -16 -49 -60 -68 -10 -61 -9 -46 -52 -3 -27 -84 -99 -11 -34 -80 -85 -74 -100 -17 -64 -53 -6 -14 -19 -77 -2 -81 -50 -71 -29 -79 -94 -65 -45 -67 -92 -7 -66 -20 0
54 42 52 46 79 60 68 82 30 100 55 80 59 14 29 18 78 66 47 7 57 48 15 77 35 72 37 -94 -86 -58 -74 -1 -99 -95 -92 -96 -62 -2 -91 -88 -56 -11 -98 -39 -3 -76 -38 -8 -81 -67 -33 -4 -12 -36 -45 -25 -83 -85 -40 -16 -50 -89 -65 -5 -24 -23 -44 0
3 62 81 47 70 96 82 60 25 53 94 66 58 18 99 1 51 7 21 89 85 4 13 54 23 37 69 35 8 68 15 10 95 61 78 30 28 50 83 2 79 40 22 -90 -43 -100 -91 -80 -44 -45 -67 -65 -49 -6 -92 -17 -88 -33 -14 -77 -46 -75 -38 -74 -64 -42 -52 -36 -93 -86 -57 -34 -97 -72 -12 -9 -84 -41 -16 -39 -71 -19 0
91 21 42 94 58 60 40 72 36 100 59 1 6 37 57 76 22 87 51 86 25 61 83 18 81 41 85 32 -53 -31 -10 -78 -47 -38 -49 -48 -20 -70 -3 -11 -80 -8 -67 -93 -9 -56 -16 -7 -28 -92 -46 -2 -74 -50 -62 -17 -45 -69 -24 -15 -97 -89 -5 0
28 5 23 37 90 25 100 54 7 96 17 31 87 65 63 75 70 52 68 49 80 2 21 58 93 53 46 48 41 77 27 97 76 20 40 19 57 62 83 12 86 33 18 88 92 -35 -42 -36 -74 -3 -85 -51 -59 -11 -30 -22 -81 -56 -55 -98 -99 -44 -94 -13 -26 -9 -61 -72 -4 -6 -66 -82 -67 -39 -43 -14 -24 -64 -15 -78 -32 -34 -79 -1 -84 -95 -69 -16 -29 -38 0
49 81 33 9 22 34 92 74 3 100 5 27 43 35 47 97 95 44 50 85 96 30 15 7 87 55 79 93 89 84 -51 -21 -76 -61 -63 -13 -29 -57 -69 -83 -23 -32 -10 -60 -86 -18 -68 -64 -40 -59 -66 -88 -16 -12 -78 -41 -56 -91 -54 0
18 87 93 11 1 5 70 34 29 72 59 69 13 48 51 84 63 57 38 35 56 100 91 61 55 83 -85 -37 -23 -28 -20 -97 -26 -8 -44 -6 -41 -42 -73 -64 -15 -86 -32 -43 -99 -33 -82 -53 -9 -54 -31 0
20 65 5 37 76 84 75 89 73 36 96 18 55 4 38 64 72 35 48 49 32 44 68 63 82 26 10 15 57 53 17 9 91 43 19 93 3 70 69 42 66 78 11 1 -81 -71 -80 -12 -77 -31 -22 -60 -62 -34 -45 -85 -74 -41 -47 -59 -54 -87 -28 -7 -86 -58 -95 -98 -6 -33 -52 -39 -14 -94 -92 -29 -97 -23 0
82 1 14 81 23 61 86 -79 -72 -97 -30 -51 -24 -54 -27 0
26 97 86 25 48 79 73 85 75 66 67 57 99 42 64 74 83 82 28 7 65 43 89 87 93 24 20 27 4 90 60 63 18 70 46 91 59 11 54 58 38 94 40 15 19 76 13 12 -49 -84 -9 -1 -95 -80 -31 -71 -36 -5 -17 -3 -45 -14 -29 -6 -55 -35 -22 -37 -98 -81 -51 -96 -68 -50 -8 -44 -21 -78 -56 -16 -10 -34 -62 -23 -47 -52 -77 -100 -30 -61 -53 -39 0
24 82 29 40 54 5 26 42 52 94 13 -93 -39 -47 -31 -62 -41 -17 -84 -18 -36 -77 -74 -11 0
39 20 50 24 91 72 19 9 56 18 29 32 16 96 49 60 83 33 78 75 42 68 61 97 64 4 55 53 41 59 92 8 95 73 90 1 93 71 48 62 65 -3 -82 -26 -74 -37 -17 -80 -13 -81 -30 -70 -27 -34 -23 -69 -67 -15 -79 -38 -100 -11 -77 -86 -98 -51 -5 -87 -85 -88 -28 -94 -46 -10 -44 -52 -25 -31 -43 0
94 14 42 33 82 76 99 72 41 85 37 58 30 23 24 36 32 18 69 27 15 40 17 66 -34 -97 -49 -62 -25 -81 -43 -80 -20 -9 -98 -31 -16 -63 -19 -64 -45 -44 -61 -7 -21 -100 -56 -79 -10 -11 -87 -46 -54 -29 -8 -13 -78 0
4 22 67 13 58 75 74 60 53 -14 -59 -1 -34 -8 -39 -3 -64 -85 0
22 9 94 100 46 84 14 74 96 26 64 63 12 92 93 1 79 -78 -62 -97 -44 -89 -95 -39 -38 -4 -21 -27 -6 -71 -23 -58 -70 -29 -42 0
66 92 28 27 49 87 40 20 55 69 100 52 93 37 34 23 4 21 43 6 36 26 29 96 75 14 72 35 -57 -1 -54 -60 -86 -19 -7 -12 -30 -33 -5 -56 -99 -11 -89 -15 -70 -94 -84 -82 0
72 29 44 71 6 23 27 17 15 82 16 94 61 18 64 99 87 59 20 35 90 95 31 12 47 60 85 58 38 52 11 7 37 43 21 28 14 2 57 50 51 46 8 -93 -26 -53 -9 -54 -63 -81 -19 -89 -92 -98 -96 -100 -24 -62 -49 -75 -86 -56 -1 -55 -91 -65 -79 -3 -73 -83 -84 -41 -32 -80 -34 -77 -33 -5 -25 -22 -10 -40 -30 -66 -13 -76 -67 -48 -4 0
94 29 99 79 87 17 62 73 56 61 8 89 65 12 55 37 68 98 100 92 63 14 95 35 90 33 83 39 51 15 70 -22 -59 -53 -74 -26 -43 -66 -44 -64 -32 -76 -71 -54 -4 -47 -25 -69 -77 -2 -30 -48 -34 -85 -88 -75 -3 -5 -24 -78 -42 -86 -45 -20 -72 -41 -58 -19 -11 -36 0
85 3 21 52 89 46 26 11 73 77 8 31 51 81 10 100 25 79 20 -94 -88 -6 -13 -66 -71 -27 -12 -55 -43 -16 -98 -75 -36 -87 0
70 52 2 93 98 25 43 76 11 37 9 28 68 26 58 90 86 33 49 16 91 13 24 67 99 -44 -92 -18 -54 -82 -97 -22 -63 -34 -47 -59 -7 -85 -74 -79 -15 -69 0
94 85 67 11 79 10 12 41 19 42 99 28 89 72 55 66 77 50 76 52 29 32 16 91 81 24 37 40 -84 -44 -22 -20 -71 -86 -98 -93 -60 -73 -70 -31 -68 -4 -2 -82 -57 -5 -75 -61 -18 0
57 67 45 66 48 20 26 64 80 27 34 14 95 21 37 15 55 39 74 5 33 78 43 3 68 50 59 41 38 98 56 18 12 92 71 76 91 9 84 36 24 96 89 44 63 2 87 70 19 -94 -75 -58 -51 -62 -77 -47 -11 -99 -93 -53 -42 -6 -1 -10 -52 -85 -54 -88 -73 -49 -7 -69 -8 -81 -83 -13 -16 -25 -23 -82 -30 -29 -35 -86 -32 -40 -4 0
34 46 10 14 95 15 74 53 51 3 -96 -39 -11 -72 -17 -35 -75 -1 -99 -5 -56 -94 -12 -69 -28 0
9 53 42 24 30 99 82 71 7 93 66 23 20 50 94 75 72 89 13 8 45 67 51 4 96 21 27 64 68 11 2 47 19 61 57 37 84 70 87 92 5 25 22 60 49 -80 -65 -63 -88 -40 -14 -74 -15 -86 -79 -31 -41 -78 -12 -39 -32 -29 -62 -52 -35 -81 -69 -16 -18 -90 -26 -28 -85 -100 -91 -73 -34 -38 -10 -3 -36 -33 -54 -6 0
70 9 84 75 61 66 17 8 -36 -29 -52 -68 -20 -1 -83 -57 -18 -6 -64 0
72 75 8 47 73 88 39 64 96 53 55 9 10 40 68 79 23 98 29 77 44 21 99 67 18 97 81 11 43 2 38 51 45 57 85 32 66 36 63 83 86 54 90 15 84 35 16 12 80 -58 -82 -93 -95 -70 -50 -92 -56 -49 -52 -13 -34 -61 -7 -20 -78 -59 -62 -6 -91 -5 -31 -46 -71 -27 -87 -42 -48 -22 -30 -69 -89 -28 -19 -14 -4 -17 -3 -25 -1 -60 -100 -94 -65 -76 -74 0
8 83 23 19 36 59 66 98 42 45 1 14 47 4 26 33 12 84 81 51 46 20 -5 -96 -37 -92 -99 -43 -10 -82 -16 -41 -86 -77 -90 -7 -27 -97 -80 -39 -62 -88 -17 0
12 59 49 58 78 89 23 66 41 74 32 65 34 15 98 87 -73 -92 -67 -31 -94 -100 -60 -56 -93 -88 -17 -18 -72 -14 -25 -36 -81 -13 -99 -90 -64 -77 -10 0
53 15 14 34 -92 -84 -37 -80 -94 -90 -60 -41 0
35 74 92 72 -16 -60 -54 -52 -29 -47 -77 -38 -34 -70 0
92 17 59 30 74 11 94 57 77 51 76 24 63 68 47 50 88 65 44 75 16 100 14 81 53 98 48 58 70 91 45 89 5 7 35 9 73 6 79 23 39 64 83 33 67 22 87 80 18 56 90 19 -96 -8 -84 -99 -71 -72 -42 -55 -93 -36 -97 -37 -78 -29 -61 -21 -49 -46 -10 -31 -15 -27 -12 -95 -13 -2 -66 -25 -60 -34 -69 -28 -82 -41 -32 -3 -38 -52 -40 -26 -43 -54 -1 -85 -62 -86 0
77 65 59 72 45 2 97 15 50 92 79 39 24 33 31 96 43 1 29 37 17 48 44 27 55 68 81 22 -41 -3 -36 -61 -18 -85 -75 -76 -54 -14 -30 -9 -35 -73 -21 -20 -47 -66 -12 -25 -4 -53 -28 -95 -19 0
60 85 15 73 68 5 23 2 82 96 79 20 58 16 84 74 64 53 71 50 61 3 37 34 28 49 100 55 56 29 76 26 13 62 95 81 10 44 66 -87 -39 -90 -65 -46 -12 -78 -48 -75 -47 -41 -70 -24 -21 -92 -93 -18 -7 -43 -67 -63 -11 -80 -35 -31 -69 -30 -17 -1 -94 -36 -97 -98 -91 -40 -59 -6 -86 0
31 99 41 47 15 46 30 23 95 78 81 54 26 48 20 12 56 64 55 42 27 89 37 40 83 86 77 35 50 -87 -53 -19 -8 -65 -74 -6 -11 -82 -72 -60 -79 -63 -76 -68 -13 -24 -93 -22 -58 -4 -91 -2 -94 -66 -71 -73 -70 -33 -25 -85 -36 -1 -97 -38 -90 -28 -100 -18 0
75 85 16 58 61 94 99 21 86 60 27 31 5 100 92 52 34 37 87 89 95 91 71 78 69 1 83 57 65 72 93 39 36 43 64 13 67 55 80 22 6 30 9 20 11 -3 -41 -12 -35 -98 -25 -62 -63 -32 -46 -77 -17 -73 -74 -68 -54 -23 -45 -96 -56 -28 -42 -59 -90 -47 -84 -7 -26 -38 -24 -51 -15 -79 -40 -97 -18 -76 -50 -33 -19 -82 -8 -4 0
80 1 77 21 64 91 35 48 67 94 78 83 87 74 33 58 79 25 29 51 41 6 8 31 90 47 88 59 81 -38 -2 -11 -92 -52 -23 -10 -65 -99 -9 -44 -28 -97 -12 -85 -30 -50 -84 -32 -98 -40 -36 -96 0
5 9 42 25 55 99 84 41 53 45 85 80 73 48 21 19 22 16 64 2 56 86 24 95 10 74 60 -34 -43 -57 -62 -66 -13 -40 -6 -91 -52 -8 -61 -72 -68 -7 -69 -32 -71 -97 -50 -14 -36 -26 -49 -79 -46 -17 0
28 91 92 84 31 8 48 51 78 10 34 74 94 5 7 17 -11 -32 -20 -97 -37 -2 -1 -58 -89 -4 -41 -64 -60 -43 -77 -55 0
98 70 85 93 12 59 83 25 38 18 64 22 67 51 39 45 5 -29 -56 -82 -10 -9 -4 -95 -73 -92 -15 -36 -43 -68 -94 -99 -31 -48 0
-86 -54 -14 -61 -98 0
81 46 26 34 15 65 37 27 89 6 91 57 28 7 87 97 67 52 64 30 77 92 25 19 49 100 82 76 79 21 94 55 73 59 74 58 31 42 36 95 2 83 68 84 10 80 16 51 75 -71 -93 -38 -48 -69 -17 -3 -61 -90 -44 -14 -99 -32 -85 -8 -62 -18 -1 -33 -43 -98 -11 -35 -5 -60 -70 -56 -24 -47 -41 -4 -78 -88 -39 -9 -86 -72 -29 -63 -12 -66 -40 -20 0
92 35 42 13 46 98 7 67 25 39 68 9 90 77 6 32 71 54 55 97 69 82 87 5 63 99 74 15 44 14 48 88 20 33 30 86 66 40 79 34 60 51 18 36 21 26 29 1 -57 -58 -24 -45 -80 -95 -93 -78 -76 -17 -41 -70 -28 -11 -47 -2 -75 -72 -43 -65 -94 -64 -89 -91 -4 -16 -81 -52 -27 -31 -22 -100 -23 0
91 60 18 96 85 24 39 3 76 38 72 32 98 92 73 37 6 63 59 34 75 56 12 79 77 42 51 54 46 84 48 43 19 7 93 45 55 29 67 66 36 11 9 -8 -86 -41 -71 -53 -68 -47 -13 -30 -57 -10 -58 -62 -94 -61 -65 -70 -17 -90 -50 -78 -16 -83 -87 -5 -52 -28 -99 -88 -40 -4 -21 -49 -26 -22 -89 -1 -80 -33 -64 -35 -95 -15 -74 -100 -14 -69 -31 -25 0
1 71 9 61 38 60 51 19 63 31 47 98 100 59 57 72 95 78 18 75 48 12 2 26 11 45 85 5 39 64 52 29 33 81 6 41 82 92 21 17 27 7 79 30 77 42 -90 -32 -53 -88 -86 -69 -89 -62 -43 -24 -46 -70 -93 -22 -80 -91 -37 -23 -67 -13 -10 -99 -94 -4 -25 -34 -76 -50 -40 -55 -54 -20 -96 -73 -56 -15 -87 -58 -68 -8 -14 -66 -97 -44 -83 -84 0
65 99 17 94 7 84 70 47 53 5 74 73 86 18 98 61 6 34 69 51 81 23 39 21 63 1 57 19 46 75 35 -79 -87 -85 -8 -38 -96 -64 -44 -95 -40 -48 -26 -29 -13 -72 -67 -31 -49 -91 -89 -66 -58 -56 -59 -12 -28 -54 -77 -60 -37 -42 -76 -10 -36 -9 0
14 73 33 28 97 36 96 16 10 82 54 61 60 75 78 32 7 26 45 99 49 44 53 47 63 29 5 92 17 56 39 42 70 9 59 85 52 18 15 66 -24 -83 -35 -72 -40 -74 -62 -21 -77 -1 -68 -69 -67 -13 -6 -86 -43 -30 -65 -71 -41 -12 -90 -48 -91 -79 -93 -3 -64 -94 -84 -38 -4 -31 -80 -81 -23 -89 -27 -76 -58 -25 -22 -51 -50 -2 0
85 22 31 16 68 10 64 88 86 17 36 52 11 79 78 92 93 97 63 91 95 84 14 94 90 20 15 96 49 57 75 82 7 76 5 47 32 8 1 70 2 39 26 100 -42 -45 -69 -53 -98 -34 -27 -12 -66 -74 -67 -46 -50 -99 -30 -72 -73 -59 -6 -3 -33 -24 -87 -48 -77 -21 -89 -58 -55 -41 -38 0
91 73 40 53 3 35 17 67 97 15 77 6 68 31 56 34 92 8 30 22 14 -75 -23 -45 -5 -54 -85 -9 -52 -57 -84 -59 -42 -95 -65 -33 -79 -87 -4 -11 -98 -12 -37 0
21 8 93 36 97 76 79 70 26 27 72 96 17 75 94 -64 -56 -84 -2 -62 -68 -37 -46 -3 -87 -39 -53 -69 -25 -86 -71 -24 -90 -5 -23 -31 -98 0
86 65 66 10 52 81 49 41 12 43 69 100 78 75 19 9 96 99 26 5 18 56 84 71 80 77 76 55 2 38 50 88 22 32 85 36 51 -30 -64 -7 -91 -98 -39 -20 -60 -28 -54 -53 -74 -23 -73 -35 -31 -24 -68 -67 -42 -63 -44 -33 -21 -37 -59 -45 -95 -17 -4 -48 -25 -97 -47 -3 -89 -1 0
87 50 9 30 35 93 97 14 45 56 1 11 74 39 27 88 18 69 29 85 63 78 32 82 66 73 3 15 65 42 83 17 -54 -100 -52 -37 -33 -19 -59 -48 -99 -90 -55 -72 -21 -10 -47 -25 -94 -26 -13 -77 -7 -36 -22 -12 -46 -53 -34 -60 -86 -81 -79 -76 -41 -67 -70 -61 -8 0
52 42 28 68 59 69 37 15 94 62 80 41 98 -17 -83 -82 -1 -91 -58 -75 0
30 65 1 0
66 -15 0
22 30 51 8 91 28 32 20 48 55 80 74 3 87 100 2 50 99 92 27 46 33 61 84 79 26 97 77 44 56 71 65 42 81 14 1 63 37 40 43 83 4 66 72 17 70 6 19 96 7 95 13 -85 -90 -53 -86 -9 -52 -11 -94 -88 -47 -25 -21 -57 -93 -75 -18 -69 -73 -82 -10 -59 -98 -76 -34 -68 -15 -45 -89 -64 -78 -29 -36 -12 -31 -62 -49 -39 -23 -58 -41 -38 -24 -35 -54 -16 -67 0
12 61 83 9 -50 -14 0
46 33 74 8 86 3 37 78 84 81 80 53 36 70 26 92 91 10 66 100 16 71 62 49 82 2 43 48 41 96 59 51 25 -67 -90 -50 -58 -15 -22 -94 -29 -97 -56 -87 -64 -77 -83 -89 -57 -1 -32 -42 -73 -7 -28 -40 -93 -63 -34 -27 -13 -95 -85 -9 -19 0
100 15 37 22 67 -35 -83 -25 0
40 12 9 66 56 82 53 30 35 80 51 69 85 99 58 52 20 49 48 21 60 42 81 89 65 96 50 88 72 46 -63 -34 -28 -36 -100 -6 -44 -25 -78 -74 -97 -5 -77 -71 -39 -26 -61 -76 -47 -62 -14 -27 -17 -43 -57 -83 -2 -86 -73 -15 -67 -59 -68 -75 -64 0
86 99 64 21 42 3 92 31 59 49 50 84 80 54 24 39 95 70 37 61 72 -56 -9 -33 -2 -41 -11 -79 -51 -16 -8 -68 -75 -17 -1 -60 0
19 77 82 10 64 33 66 43 70 84 75 39 65 1 80 88 27 78 -85 -95 -25 -28 -41 -54 -100 -5 -50 -23 -24 -3 -74 -26 -16 -22 0
56 42 18 21 57 82 23 38 36 6 96 33 39 20 -9 -76 -84 -72 -37 -80 -63 -67 -30 -14 -64 -99 -40 -66 -54 -73 -4 -52 -90 -41 -94 0
72 44 36 -11 -97 -63 -37 0
90 10 65 56 31 74 16 71 45 88 54 30 52 36 53 91 83 27 -68 -9 -1 -4 -41 -84 -5 -67 -28 -12 -20 -15 -25 -38 0
4 23 80 82 84 43 98 73 45 52 85 12 95 55 81 61 6 63 79 57 30 9 53 68 69 27 75 74 77 25 49 50 -47 -42 -66 -19 -41 -86 -87 -90 -99 -14 -58 -26 -46 -7 -93 -39 -36 -89 -100 -56 -71 -34 -96 -10 -60 -24 -3 -70 -18 -13 -37 -8 -44 -67 -83 -54 -33 -29 -59 -22 -65 0
97 8 51 26 30 3 28 56 58 1 59 90 10 68 99 50 96 84 57 5 53 17 89 81 -94 -4 -62 -48 -63 -41 -61 -13 -19 -29 -98 -71 -47 -52 -67 -82 -27 -92 -12 -43 -79 -15 -21 -24 -37 -6 -40 -65 -22 -93 -88 -55 -86 -20 -31 -75 0
92 46 -74 -76 0
65 41 30 88 3 70 -49 -56 0
94 36 65 64 35 100 66 7 19 67 75 89 34 -10 -38 -62 -69 -61 -63 -77 -90 -96 -52 -56 0
43 40 51 100 21 91 5 95 64 10 82 50 48 19 7 36 44 8 30 26 67 38 -9 -92 -83 -18 -78 -61 -1 -20 -74 -2 -57 -23 -77 -14 -24 -29 -71 -68 -34 0
19 29 30 32 75 15 93 11 78 5 56 55 95 65 12 41 2 90 45 31 16 23 82 80 66 64 28 100 44 49 27 24 58 68 -69 -70 -35 -76 -22 -51 -74 -71 -37 -1 -60 -38 -39 -86 -85 -72 -59 -21 -87 -52 -77 -98 -57 -20 -47 -8 -26 -91 -25 -34 -81 -42 -13 -36 -61 -96 -43 -92 -89 -4 -79 -83 -94 0
25 27 86 43 35 78 17 75 29 40 7 12 41 49 2 55 54 8 -37 -57 -58 -66 -59 -79 -60 -67 -30 -44 -61 -36 -80 -70 -94 -31 -19 -39 -95 -4 -98 -53 -68 -22 -32 0
-78 0
26 86 35 23 98 47 99 12 93 6 25 44 79 60 100 49 16 51 67 53 91 64 82 40 57 63 85 73 43 -34 -68 -29 -69 -59 -41 -88 -78 -80 -3 -24 -54 -92 -39 -31 -36 -84 -37 -83 -18 -27 -45 0
24 95 67 11 65 54 85 100 78 4 3 39 69 44 43 12 70 38 -88 -51 -87 -84 -94 -64 -91 -10 -62 -25 -52 -22 -80 -96 -28 -49 -53 -1 0
22 68 37 11 66 17 19 85 64 78 4 48 56 27 82 65 100 20 58 45 3 89 49 23 87 39 6 34 -93 -38 -2 -99 -14 -16 -13 -50 -90 -92 -96 -91 -79 -33 -24 -44 -7 -75 -88 -54 -18 -15 -77 -97 0
92 98 73 34 78 16 23 64 52 3 47 39 71 49 14 43 50 42 17 55 45 74 8 25 76 56 21 9 35 1 95 79 99 18 68 38 91 36 31 40 6 27 60 62 90 13 82 5 -20 -63 -30 -15 -41 -93 -33 -88 -59 -29 -77 -86 -24 -10 -97 -32 -58 -4 -28 -11 -81 -100 -48 -94 -80 -22 -65 -67 -75 -66 -89 -46 -7 -53 -84 -19 -96 -69 -37 -61 -85 -83 -72 -54 -2 0
2 92 9 67 77 -30 -10 0
75 82 21 62 38 72 31 14 35 94 50 36 18 10 70 13 58 22 89 24 83 88 32 4 53 52 15 86 -85 -71 -42 -9 -27 -30 -45 -65 -40 -33 -48 -69 -47 -81 -64 -5 -80 -78 -77 -2 -8 -67 -87 -90 -76 -46 -96 -59 -57 -44 -12 -55 -93 -54 -91 -73 -97 -99 -100 -19 -41 -3 -34 -68 -49 -25 -11 -16 -6 -17 -29 -61 -95 0
92 35 22 34 97 53 40 10 98 -71 -59 -76 -46 -3 -55 -62 -8 -68 -56 -73 0
77 30 13 100 -63 -67 -21 -3 0
72 94 9 57 99 45 87 74 67 68 18 95 89 78 24 22 39 88 36 43 92 4 16 75 71 42 17 50 5 64 61 41 38 14 12 34 -10 -81 -48 -96 -83 -49 -70 -20 -31 -25 -59 -2 -32 -47 -100 -26 -62 -29 -60 -3 -6 -13 -7 -46 -93 -54 -44 -63 -19 -28 -86 -23 -98 -1 -21 0
13 59 28 22 52 40 -3 -74 -16 -25 -87 0
13 75 36 -50 -96 -7 -67 -23 0
11 90 33 41 6 57 21 43 42 38 54 32 62 20 36 87 78 45 27 2 16 58 65 -97 -7 -13 -72 -98 -59 -70 -39 -46 -64 -71 -18 -49 -48 -94 -92 -44 -3 -24 -37 -25 -28 -76 0
23 88 96 22 92 50 56 64 40 44 67 13 2 39 71 3 42 68 41 46 85 24 11 10 82 100 58 31 -15 -59 -43 -30 -16 -25 -29 -93 -98 -62 -97 -45 -28 -65 -87 -36 -84 -78 -73 -33 -89 -80 -18 -90 -53 0
65 96 45 75 71 76 68 48 7 11 80 -69 -22 -94 -61 -90 -53 -17 -15 -59 -23 -52 -6 -10 -49 -42 -41 0
84 16 35 12 36 9 2 50 80 51 39 11 76 70 38 53 63 10 29 46 43 56 -69 -34 -87 -30 -57 -14 -44 -37 -71 -95 -24 -58 -40 -86 -75 -67 -61 -97 -52 -27 -6 -18 -92 -19 -15 0
29 24 77 30 33 14 76 40 70 43 15 45 46 5 31 75 96 94 74 67 63 17 79 36 61 91 84 12 62 97 9 82 44 21 53 41 69 2 1 71 -87 -48 -3 -72 -90 -35 -81 -28 -54 -47 -52 -27 -89 -73 -25 -23 -22 -50 -26 -95 -10 -19 -65 -88 -34 -7 -39 -37 -11 -93 -56 -99 -20 -16 -38 -92 -85 -51 -98 -18 -68 -64 0
69 57 9 3 92 -47 -29 -26 -49 -8 -97 -37 -2 -83 -31 0
29 100 2 10 1 54 -87 -21 -20 -38 -23 -73 -85 -6 -91 0
69 6 84 79 88 2 97 85 10 67 53 40 31 15 30 34 29 61 64 52 95 43 82 5 59 93 48 12 -26 -46 -25 -4 -58 -20 -1 -55 -51 -8 -100 -86 -41 -39 -83 -87 -44 -76 -80 -19 -62 -73 -71 -28 -27 -89 -11 -54 -16 -74 -33 -22 -68 -94 -9 -60 -36 -49 -98 -91 -65 0
49 87 82 93 34 37 4 -16 -47 -45 -30 -8 -70 -2 0
76 30 3 32 10 85 87 16 63 -57 -82 -21 -79 -65 -2 -9 -13 -95 -98 -67 0
25 82 39 30 41 17 84 -20 -49 -19 -29 -1 -57 -62 0
26 17 11 8 49 32 57 70 77 99 90 52 100 40 69 94 58 39 29 37 78 61 -65 -1 -53 -71 -54 -46 -86 -95 -31 -9 -97 -98 -41 -3 -36 -24 -23 -51 -60 -20 -6 -75 -67 -82 -28 -25 -15 -81 0
83 75 34 56 59 1 92 8 21 15 78 14 37 85 11 71 9 53 30 55 23 45 43 42 86 31 49 93 29 4 91 2 40 36 80 68 -18 -5 -73 -94 -63 -3 -82 -88 -58 -62 -60 -6 -13 -33 -98 -25 -70 -77 -22 -17 -87 -96 -79 -61 -54 -20 -57 -24 -28 -100 -44 -48 -16 -64 -89 -12 -74 -27 -66 -95 -50 -10 -46 -52 -72 0
87 48 17 39 27 69 52 46 70 49 92 80 40 19 20 4 -36 -77 -54 -85 -60 -3 -63 -26 -81 -73 -21 -57 -79 -75 -1 -24 -86 -76 -30 -100 0
-86 -97 -67 0
50 92 63 19 10 55 82 68 75 80 65 61 97 81 23 35 78 32 64 98 -27 -85 -51 -22 -24 -67 -34 -72 -5 -90 -79 -18 -70 -93 -15 -96 -25 -3 -91 -76 -84 -7 -47 -95 0
95 42 78 34 59 97 37 80 71 35 50 17 69 22 63 76 -72 -39 -86 -57 -32 -40 -6 -7 -16 0
72 55 61 14 50 54 92 86 62 70 5 68 98 74 40 79 89 88 32 73 28 13 96 46 36 17 35 19 39 47 41 20 8 12 4 71 91 25 33 93 69 44 95 43 -82 -15 -6 -67 -31 -57 -64 -84 -10 -24 -56 -83 -3 -58 -1 -65 -53 -100 -11 -30 -18 -37 -66 -78 -29 -9 -59 -85 -99 -38 -52 -42 -16 -97 -26 -34 -94 -80 -48 -21 -90 -75 -60 -87 -7 -51 -76 -45 -27 -23 -63 0
60 30 53 67 42 33 90 32 55 44 50 46 3 4 78 62 18 84 15 28 51 74 20 12 40 79 -99 -36 -65 -68 -97 -91 -1 -66 -98 -6 -11 -70 0
56 86 68 30 6 96 73 50 95 65 83 38 89 1 49 66 22 80 59 14 48 29 63 9 32 2 20 88 72 33 79 58 99 70 27 3 12 60 19 47 69 90 5 82 -11 -39 -97 -87 -67 -45 -25 -52 -36 -7 -37 -42 -53 -91 -76 -57 -92 -35 -41 -94 -55 -15 -98 -100 -62 -28 -81 -4 -10 -34 -40 -13 -31 -75 -93 -61 -85 -51 -78 -46 -84 -26 -43 -8 -16 -18 0
69 96 68 58 75 56 43 29 31 90 73 64 83 49 41 63 80 5 78 85 95 3 65 70 98 87 35 8 97 1 7 94 13 17 66 -18 -88 -71 -34 -27 -59 -61 -22 -52 -14 -33 -81 -24 -12 -55 -77 -46 -60 -19 -4 -36 -89 -67 -11 -39 -53 -32 -72 -76 -100 0
6 94 68 13 90 71 55 4 93 5 66 48 97 8 20 31 69 34 67 65 84 12 21 3 16 18 53 82 88 79 26 47 59 -42 -33 -27 -11 -63 -50 -52 -75 -80 -62 -72 -28 -61 -35 -23 -70 -9 -89 -25 -45 -73 -38 -15 -29 -95 -99 -41 -58 -91 -10 -49 -76 -32 -40 -77 -81 -54 -56 -43 -39 -19 -92 0
34 67 48 18 90 70 25 13 56 31 63 43 10 44 49 85 73 74 20 87 7 36 72 21 -58 -15 -30 -57 -89 -97 -14 -88 -96 -71 -92 -47 -83 -33 -22 -17 -12 -78 -86 -1 -79 -59 -54 -4 -9 -38 -62 -66 -26 -23 -64 -77 -61 0
82 97 71 49 13 65 15 20 22 76 28 10 53 57 61 75 50 47 73 2 90 86 68 43 45 11 -66 -6 -12 -80 -8 -88 -27 -98 -9 -39 -84 -46 -32 -92 -70 -35 -14 -91 -21 -29 0
2 62 59 60 48 95 1 24 33 50 7 98 14 9 28 16 46 70 85 58 45 15 21 47 87 42 38 3 27 8 89 34 11 72 56 36 69 23 17 55 92 65 68 64 75 54 51 83 100 66 18 -31 -41 -63 -77 -12 -20 -61 -53 -79 -25 -93 -39 -86 -5 -84 -44 -71 -91 -43 -49 -10 -76 -88 -96 -19 -29 -35 -90 -73 -80 -82 -81 -37 -26 -57 -74 -94 -32 -13 -22 -52 -67 -4 -6 -78 -97 -30 0
48 46 42 11 65 76 85 2 -6 -15 -90 -26 -69 -43 -35 -52 -21 -62 -10 -16 -28 -8 -22 -41 0
97 40 1 50 83 55 34 14 88 17 73 77 39 95 11 79 87 24 38 -44 -84 -74 -20 -4 -19 -57 -47 -93 -90 -33 -65 -98 -75 -62 0
66 13 59 1 49 69 58 3 51 100 11 97 55 79 48 90 40 4 35 28 32 12 62 85 22 31 20 19 8 21 44 67 14 24 38 93 60 33 10 39 7 53 89 30 75 36 5 71 94 92 45 43 87 -18 -47 -84 -61 -9 -2 -57 -96 -74 -16 -82 -29 -77 -17 -46 -86 -41 -73 -80 -81 -56 -37 -52 -25 -34 -68 -63 -88 -54 -15 -50 -95 -99 -78 -23 -26 -76 -42 -6 0
91 6 31 14 90 38 74 33 22 11 28 61 85 27 26 51 29 17 7 5 1 3 84 92 23 30 71 44 10 70 19 2 86 59 40 78 89 75 -54 -46 -50 -37 -12 -95 -81 -94 -66 -68 -18 -13 -16 -79 -69 -41 -83 -77 -99 -65 -25 -56 -43 -57 -87 -4 -100 -45 -72 -34 -76 -97 -32 -88 -67 -8 -36 -64 -80 -49 -35 -55 -47 -62 -98 -20 -15 0
29 72 18 22 100 13 64 88 93 65 46 25 89 53 35 20 91 32 39 78 38 69 85 70 9 79 12 74 4 94 49 30 11 51 52 73 68 95 42 59 57 8 86 3 96 -45 -62 -81 -17 -82 -71 -60 -54 -47 -80 -33 -21 -10 -55 -36 -23 -48 -84 -41 -19 -90 -75 -26 -7 -37 -14 -66 -16 -83 -5 -87 -76 -6 -99 -44 -40 -56 -92 -63 -67 -43 -34 -58 -61 -15 -77 0
78 62 88 24 1 15 85 91 66 10 45 57 29 43 70 73 2 63 4 23 64 36 22 98 42 52 9 84 40 69 83 -55 -99 -28 -56 -82 -65 -13 -53 -25 -6 -31 -41 -18 -21 -67 -87 -17 -33 -100 -90 -59 -35 -26 -71 -75 -48 -60 0
21 64 72 4 30 10 91 92 7 9 6 55 83 40 52 5 34 86 31 75 37 44 25 69 38 76 -22 -96 -62 -1 -29 -2 -71 -50 -33 -13 -93 -39 -43 -12 -17 -8 -3 -51 -60 -16 -27 -100 -61 -84 -56 -66 -59 -80 -57 -58 -42 -41 -26 -65 -20 -54 -46 0
35 57 36 41 94 19 86 39 58 34 92 87 48 72 74 46 12 28 61 78 81 26 40 38 88 79 50 20 95 11 14 4 85 24 99 2 37 18 59 89 -10 -98 -9 -29 -97 -22 -91 -17 -30 -55 -84 -83 -100 -31 -13 -51 -70 -69 -42 -77 -63 -32 -27 -82 -3 -93 -90 -67 -96 -60 -53 -43 -25 0
38 100 76 2 3 44 8 61 58 7 68 28 99 34 1 80 74 96 67 11 73 55 49 35 94 40 79 89 60 33 25 70 54 92 82 62 84 18 31 20 65 39 -63 -56 -51 -85 -16 -72 -52 -17 -45 -24 -29 -90 -97 -77 -41 -13 -14 -93 -42 -88 -43 -5 -69 -6 -48 -27 -4 -66 -78 -36 -46 -32 -57 -19 -98 -83 -91 -22 -21 -64 -37 -26 -81 -30 -71 -59 -23 -15 0
21 54 29 53 88 98 58 40 89 46 93 12 3 73 1 2 85 48 60 39 64 77 42 5 63 -79 -22 -61 -66 -43 -74 -18 -33 -67 -76 -75 -91 -56 -87 -19 -68 -94 -23 -28 -78 -96 -20 -65 -9 -50 -6 -30 -24 0
59 65 2 30 46 98 64 17 7 3 70 50 10 12 79 29 51 23 19 57 42 47 66 67 21 73 60 44 62 15 81 96 36 76 97 55 20 48 24 68 25 14 32 91 -39 -54 -37 -4 -13 -40 -69 -27 -94 -16 -89 -45 -53 -84 -22 -75 -83 -31 -5 -72 -34 -18 -1 -100 -58 -85 -52 -87 -71 -38 -28 -11 -8 -9 -63 -78 -56 -95 -43 -93 -88 -35 -90 -41 -77 0
19 66 87 79 59 28 6 97 30 64 18 23 86 41 12 1 24 22 100 76 48 33 -49 -68 -9 -81 -25 -99 -54 -55 -58 -17 -2 -20 -8 -35 -36 -3 -78 -40 -91 -72 -45 -5 -14 -7 -13 -42 -89 0
49 100 63 3 31 11 30 18 41 77 35 7 96 44 86 85 68 54 32 92 9 70 72 57 87 4 21 36 16 -83 -24 -43 -26 -28 -74 -40 -93 -48 -29 -62 -65 -2 -10 -90 -46 -94 -25 -67 -79 -81 -38 -50 -53 0
37 75 69 18 88 46 85 12 87 81 54 29 76 78 83 6 47 38 26 15 68 91 55 36 77 72 44 8 28 40 48 39 95 20 50 79 60 43 84 1 53 -93 -35 -66 -5 -61 -96 -19 -92 -62 -3 -64 -9 -86 -82 -90 -13 -32 -98 -99 -70 -25 -2 -34 -100 -63 -41 -21 -31 -16 -73 -10 -14 0
47 72 42 13 11 53 81 43 22 54 62 52 38 8 79 85 16 29 26 89 69 93 87 33 36 9 68 35 48 73 60 58 18 -71 -7 -25 -6 -91 -50 -88 -66 -84 -5 -90 -37 -10 -67 -40 -1 -63 -30 -94 -78 -41 -46 -44 -56 -86 -75 -32 -23 -82 -65 -61 0
7 50 70 98 57 93 68 55 97 43 24 53 90 87 8 42 46 31 66 44 10 54 12 28 99 20 80 88 62 64 56 34 82 40 27 18 71 45 91 74 -58 -81 -72 -59 -26 -3 -89 -19 -21 -75 -22 -39 -61 -16 -1 -25 -94 -85 -30 -100 -76 -2 -52 -60 -29 -14 -67 -35 -73 -96 -36 -17 -9 -51 -5 -69 -37 -47 -6 -49 -78 -84 -86 -33 0
76 40 33 25 37 100 28 67 55 74 81 -3 -35 -15 -70 -91 -41 -77 -57 -96 -75 -88 0
54 38 8 41 18 7 13 70 95 42 50 12 71 79 35 66 -37 -88 -59 -26 -2 -73 -49 -4 -99 -34 -60 -19 -3 0
3 2 52 14 7 56 9 99 78 29 27 45 64 19 87 73 28 90 8 76 12 97 51 32 57 55 88 60 58 37 91 82 68 -48 -74 -13 -24 -53 -33 -50 -100 -83 -77 -35 -93 -80 -30 -6 -34 -26 -54 -47 -94 -95 -20 -4 -92 0
5 26 8 76 71 49 67 34 4 69 100 99 74 95 33 73 24 75 88 94 63 41 56 20 28 58 13 70 93 22 79 61 82 97 87 9 45 62 -55 -7 -27 -96 -40 -50 -48 -38 -31 -90 -86 -65 -98 -81 -42 -29 -16 -2 -30 -3 -32 -37 -85 -60 -25 -52 -36 -46 -89 -10 -78 -53 -57 0
16 34 1 85 17 7 5 45 77 87 50 89 94 81 83 10 75 32 24 65 72 35 38 97 100 27 37 86 26 98 99 12 93 13 14 33 66 69 76 54 22 92 55 70 64 90 23 29 18 91 2 44 4 42 48 30 -59 -68 -39 -84 -6 -53 -52 -61 -58 -71 -19 -49 -51 -46 -60 -74 -8 -41 -43 -28 -57 -3 -62 -78 -82 -73 -67 -40 -80 -11 -88 -47 -63 -96 -31 -25 -36 -21 -56 0
63 51 66 93 54 99 91 92 6 48 19 57 10 37 65 40 41 49 -52 -32 -88 -36 -78 -13 -98 -8 -3 -18 -74 -68 -56 -29 -11 0
64 56 70 38 49 22 93 99 82 24 9 48 8 33 55 89 37 15 75 2 86 31 81 21 18 80 17 77 23 74 27 84 19 69 16 25 59 95 20 78 57 40 1 71 -32 -79 -94 -63 -67 -45 -87 -97 -11 -52 -96 -91 -90 -98 -60 -44 -66 -3 -46 -6 -35 -29 -43 -30 -47 -26 -13 -68 -62 -50 -65 -76 -42 -4 -36 -92 -14 -34 -7 -61 -58 -12 -88 -72 -73 -5 -85 -10 -28 -53 -83 -54 0
38 53 32 14 21 77 93 82 94 50 22 5 84 26 6 43 92 11 59 78 96 46 76 61 34 48 20 65 73 75 18 64 29 45 100 54 72 57 15 2 86 52 24 3 19 68 47 -69 -17 -74 -35 -49 -36 -66 -33 -62 -80 -10 -25 -99 -27 -56 -13 -88 -16 -4 -89 -55 -9 -39 -7 -58 -97 -90 -41 -67 -28 -8 -83 -12 -37 -40 -70 -95 -1 -30 -60 -42 -79 0
47 83 52 97 36 81 86 69 53 73 9 45 25 27 84 23 90 67 75 93 20 -40 -12 -44 -39 -55 -22 -42 -63 -34 -68 -89 -91 -26 -16 -79 -50 -14 -5 -59 -49 -13 -32 -56 0
69 42 3 85 77 15 24 55 73 70 84 75 16 33 86 93 21 95 8 66 83 50 36 -39 -7 -58 -46 -25 -79 -90 -35 -32 -49 -27 -82 -91 -34 -72 -28 -96 -45 -61 -78 -31 -52 -74 -71 -48 -17 -64 -43 -68 -44 -57 -23 -94 0
84 57 46 15 95 98 68 59 91 26 32 79 22 21 52 48 93 58 20 7 88 36 55 97 28 82 30 29 100 14 24 62 -4 -35 -47 -51 -71 -81 -33 -39 -70 -69 -45 -1 -40 -85 -2 -75 -5 -63 -74 -83 -73 -13 -65 -99 -87 -77 -27 -38 -86 -76 -89 -6 -10 -54 -9 -42 -50 -94 -60 -16 0
69 38 10 93 58 100 25 24 40 77 49 61 42 53 80 39 7 67 66 74 31 92 48 14 96 81 72 43 28 41 83 51 18 70 13 -57 -94 -90 -19 -65 -35 -56 -5 -47 -95 -6 -60 -84 -62 -76 -12 -64 -46 -82 -17 -52 0
21 94 9 95 33 96 83 5 14 99 58 98 36 45 76 40 61 92 51 -44 -29 -35 -80 -86 -84 -42 -75 -97 -24 -90 -26 -11 -53 -28 -49 -54 -41 -73 -70 -77 -50 -82 -3 -18 0
55 64 60 84 28 10 57 79 46 93 98 96 95 30 61 65 9 75 29 19 51 80 8 58 38 91 86 -53 -16 -37 -50 -41 -74 -36 -73 -12 -68 -35 -39 -11 -13 -52 -90 -18 -89 -62 -14 -59 -100 -43 -26 -48 -24 -97 -3 -81 0
9 83 34 61 17 -4 -7 -12 0
41 3 33 59 30 84 72 51 86 67 73 19 83 6 89 35 90 81 93 70 74 -96 -66 -13 -52 -48 -32 -29 -39 -27 -57 -9 -8 -50 -98 -43 -97 -53 -10 -58 -75 -79 -69 -100 0
28 36 -12 -77 -55 0
46 61 59 99 92 7 98 88 34 19 31 8 66 1 41 25 55 77 30 21 62 43 36 67 58 96 27 52 15 72 95 57 47 73 87 26 32 71 11 17 18 16 68 20 100 6 56 -45 -38 -49 -22 -28 -53 -54 -24 -35 -81 -91 -29 -23 -44 -89 -40 -82 -70 -84 -10 -76 -33 -85 -3 -93 -4 -63 -9 -65 -37 -75 -51 -48 -94 -69 0
93 69 73 51 8 21 46 71 28 5 85 68 79 59 86 30 61 87 97 65 43 7 57 32 88 67 34 44 13 50 42 39 45 35 -63 -11 -33 -16 -3 -41 -36 -14 -31 -95 -12 -15 -26 -78 -6 -94 -9 -38 -18 -84 -74 -52 -70 -56 -25 -64 0
56 28 60 45 62 52 72 83 8 49 84 66 37 7 9 54 99 11 93 80 74 58 30 10 -2 -32 -100 -51 -46 -76 -55 -68 -33 -12 -90 -3 -1 -42 -14 -24 -85 -78 -98 -23 -57 -4 -96 -63 -89 -73 -81 -77 -35 -18 0
55 5 21 -83 -95 0
84 83 96 3 7 80 35 89 75 81 91 99 100 53 22 39 47 36 93 6 20 98 12 34 97 32 30 15 59 45 67 88 71 41 33 66 74 11 56 52 13 44 24 78 40 65 14 55 43 -69 -95 -38 -23 -18 -87 -10 -46 -21 -94 -26 -28 -19 -2 -29 -90 -77 -25 -82 -72 -1 -70 -51 -37 -73 -61 -5 -54 -27 -58 -64 -4 -85 -79 -50 -86 -57 -68 -17 -16 -31 -8 -62 -49 -42 -92 -9 -60 0
50 56 30 28 31 5 61 97 93 33 4 77 72 40 13 76 90 8 35 53 34 74 37 63 85 67 48 7 81 79 36 12 47 59 57 64 100 94 49 -82 -92 -78 -95 -69 -91 -1 -84 -22 -58 -10 -9 -83 -86 -23 -39 -99 -87 -75 -52 -24 -55 -60 -6 -44 -96 -18 -38 -20 -41 -17 -3 -14 -11 -19 -15 -51 -25 -21 -62 -46 -73 -70 -42 -71 -66 -29 -27 -98 -43 -54 -45 -2 -16 -26 -80 -68 -65 0
98 5 21 43 7 92 66 48 10 91 86 50 77 71 18 38 53 99 13 63 9 45 57 6 81 15 80 20 73 36 4 78 33 12 56 49 -68 -42 -93 -44 -75 -72 -41 -90 -14 -84 -60 -35 -79 -32 -76 -17 -11 -74 -62 -88 -40 -100 -26 -54 -51 -65 -2 -47 -58 -28 -52 -89 -37 -1 0
84 76 34 -75 -42 -66 -4 -47 -90 0
92 43 -41 -31 -50 -84 -94 -18 0
1 64 45 59 76 10 93 18 63 77 13 37 12 -41 -43 -5 -54 -35 -27 -29 -20 -95 0
39 64 21 81 33 85 100 52 42 67 77 -99 -30 -5 -91 -40 -20 -2 -70 -61 -24 -74 -55 -26 -88 0
99 79 22 52 77 51 47 27 8 28 80 5 50 78 94 34 35 20 44 96 14 11 49 62 25 60 7 76 17 61 54 21 -30 -97 -91 -2 -81 -71 -43 -66 -82 -13 -58 -48 -69 -16 -45 -32 -74 -1 -93 -33 -59 -26 -37 -63 -55 -42 -86 -88 -95 -84 -98 -23 -19 -29 -3 -9 -68 -72 -67 -92 -65 -83 -36 -87 -15 -41 -89 -57 0
3 49 28 59 65 83 8 81 86 9 54 77 91 20 98 67 5 7 74 18 1 51 85 63 25 100 38 15 6 34 94 89 4 52 95 97 82 32 56 17 41 23 90 55 75 45 24 61 39 58 84 37 -29 -71 -14 -10 -48 -73 -80 -26 -68 -47 -19 -76 -30 -22 -79 -57 -99 -88 -36 -27 -2 -66 -53 -21 -96 -78 -92 -60 -69 -43 -40 -35 -70 0
22 98 72 17 40 49 35 43 66 75 44 77 81 29 18 79 19 83 37 11 71 16 12 84 99 34 88 27 38 1 23 4 7 76 50 86 87 52 -94 -54 -24 -63 -26 -74 -9 -28 -70 -32 -65 -57 -97 -62 -36 -80 -96 -10 -73 -45 -91 -8 -93 -85 -33 -47 -67 -90 -2 -25 -42 -89 -39 -95 -69 -14 -56 -78 -5 0
3 25 51 74 56 72 34 94 37 98 33 42 93 52 41 63 59 75 65 81 20 5 12 36 68 -16 -26 -39 -13 -29 -97 -79 -28 -21 -91 -76 -6 -15 -66 -82 -57 -53 -64 -10 -44 -80 -86 0
55 52 92 56 58 82 59 61 30 17 83 35 19 1 18 54 64 3 11 7 45 75 81 42 23 50 87 43 73 9 -79 -14 -31 -6 -32 -67 -78 -72 -69 -38 -98 -2 -65 -76 -12 -77 -63 -53 -85 -22 -48 -90 -60 -41 -44 -27 -29 0
73 21 4 20 79 8 54 30 -23 -36 -33 -25 -51 -100 -70 0
20 99 93 34 26 95 61 21 28 96 59 76 94 77 87 2 69 45 92 81 88 73 74 38 41 27 31 97 30 57 6 56 83 19 65 -36 -66 -39 -13 -23 -16 -47 -63 -42 -67 -53 -50 -64 -68 -100 -98 -9 -72 -22 -40 -62 -75 -1 -82 -4 -55 -86 -58 -10 -25 0
65 88 89 42 86 78 38 57 33 41 51 17 9 70 67 87 5 2 39 72 83 15 1 68 22 30 74 66 26 10 25 73 13 96 24 84 14 29 64 11 93 32 76 -97 -37 -12 -36 -79 -3 -98 -81 -77 -91 -95 -90 -16 -80 -8 -53 -34 -6 -82 -69 -31 -44 -62 -54 -35 -92 -47 -28 -71 -4 -50 -21 -20 -52 -43 -7 0
5 27 11 24 62 97 10 95 83 15 63 60 56 79 90 22 30 38 91 68 2 85 12 -37 -84 -4 -70 -66 -18 -55 -61 -57 -78 -26 -59 -14 -75 -6 -19 -58 -45 -50 -43 -77 -34 0
33 70 75 68 56 97 37 69 26 45 54 30 9 80 47 86 57 63 49 13 73 44 82 90 64 2 6 100 91 51 62 32 94 36 -15 -42 -55 -96 -61 -88 -85 -23 -58 -65 -50 -21 -24 -67 -12 -5 -17 -59 -27 -46 -74 -20 -95 -39 -76 -99 -87 -93 -22 -10 -81 -16 -8 -66 -83 -98 0
78 43 21 76 64 31 -12 -2 -10 -3 -50 -55 -49 0
81 64 78 93 73 33 88 5 70 91 65 77 97 15 17 94 36 49 85 21 71 63 68 24 7 95 11 10 98 100 44 58 80 46 76 8 25 86 89 79 28 40 92 66 99 47 32 75 27 30 54 14 -23 -56 -3 -35 -53 -72 -22 -20 -19 -4 -41 -6 -34 -84 -39 -52 -96 -13 -18 -61 -48 -59 -42 -38 -67 -50 -26 -60 -69 -12 -74 -16 -87 -51 -62 -45 -1 0
37 49 72 41 75 43 95 70 48 8 64 82 4 71 1 31 57 77 62 79 81 15 84 23 27 85 100 20 63 46 32 93 12 73 11 50 35 18 -86 -45 -14 -24 -36 -3 -40 -55 -56 -33 -51 -66 -25 -74 -53 -17 -69 -5 -29 -83 -59 -13 -19 -9 -65 -7 -2 -10 -89 -97 -28 -78 -61 -94 -92 -68 0
-79 -8 -96 -88 -97 -14 0
1 24 43 19 65 56 33 3 92 97 55 12 20 23 74 32 93 49 77 100 50 6 99 75 42 67 57 -36 -18 -60 -66 -41 -48 -61 -59 -52 -35 -46 -86 -27 -58 -91 -39 -37 -54 -72 -71 -69 -16 -9 -13 -4 0
80 60 73 11 72 8 21 40 1 68 -63 -78 -61 -45 -3 -81 -100 -41 -37 -56 -29 -93 -30 -43 -89 -83 -48 -92 0
29 76 82 80 27 18 38 71 41 77 26 61 86 16 49 35 58 15 23 21 11 24 32 95 20 13 42 3 9 40 14 37 88 64 62 57 69 22 75 66 50 68 55 47 -93 -48 -81 -65 -90 -33 -10 -6 -70 -5 -19 -92 -51 -1 -91 -96 -87 -99 -46 -78 -67 -53 -2 -100 -79 -97 -84 -7 -17 -94 -36 -89 -31 -28 -8 -73 -12 -30 -85 -43 -25 -63 -56 -4 -45 -34 -54 -98 -60 -52 -59 0
60 84 28 35 19 59 92 96 21 79 71 29 22 51 64 90 10 53 33 62 49 4 8 38 50 6 15 39 52 61 83 11 69 57 24 65 14 67 72 54 80 16 -23 -58 -34 -91 -41 -63 -78 -100 -26 -88 -5 -99 -89 -70 -12 -66 -48 -30 -18 -37 -75 -20 -25 -98 -32 -77 -56 -85 -27 -42 -45 -74 -40 -17 -3 -68 -36 -95 -46 -13 -2 -93 -44 0
81 100 2 79 99 31 93 46 1 -87 -91 -89 -47 -25 -54 -95 -5 -74 -34 -12 0
36 64 78 93 57 4 66 17 10 97 13 16 47 26 23 40 25 83 59 91 19 38 29 44 80 73 37 -92 -88 -74 -30 -28 -8 -21 -90 -67 -95 -62 -9 -96 -6 -5 -22 -99 -70 -72 -65 -24 -14 -39 -32 -2 -60 -94 0
71 39 16 77 12 19 1 27 26 49 95 88 23 79 67 96 78 10 8 91 90 21 13 5 45 62 100 55 86 28 41 83 75 51 -22 -34 -37 -25 -44 -18 -48 -11 -50 -56 -40 -84 -89 -57 -24 -3 -74 -99 -9 -66 -14 -94 -65 -36 -93 -29 -58 -31 -46 -92 -98 -81 -70 -2 -4 -47 0
14 10 46 43 90 27 59 62 70 72 22 18 11 71 54 66 79 26 13 23 19 56 32 94 -42 -36 -87 -51 -81 -4 -86 -98 -76 -9 -88 -29 -44 -7 -12 -24 -83 -52 -41 -85 -30 -15 -16 -45 -6 -64 0
14 -70 -15 0
77 83 19 58 37 82 22 54 61 14 11 56 95 21 52 72 27 40 32 79 67 55 6 63 15 18 3 17 100 84 89 49 93 13 39 10 85 70 47 1 98 57 5 42 78 48 45 96 88 -43 -29 -44 -50 -91 -2 -23 -34 -30 -24 -36 -33 -62 -64 -31 -97 -46 -41 -68 -53 -99 -28 -25 -73 -90 -87 -80 -74 -9 -66 -75 -8 -7 -76 -69 -65 -4 -59 -12 -38 -60 -16 -81 -35 -94 0
6 10 99 34 77 3 17 19 30 22 74 4 85 100 78 75 83 39 79 54 41 43 89 62 7 63 50 -57 -40 -8 -65 -46 -11 -73 -36 -59 -45 -67 -66 -1 -80 -72 -61 -49 -47 -98 -5 -27 -38 -82 -64 -42 0
18 92 75 98 63 44 39 1 90 2 38 68 86 57 59 -33 -26 -24 -28 -65 -48 -77 -64 -10 -25 -72 -78 -32 -52 0
15 92 26 -70 -21 -22 0
96 49 14 63 32 6 56 28 57 86 24 44 10 25 48 89 60 99 -87 -74 -95 -98 -79 -61 -76 -30 -42 0
8 42 43 62 80 63 70 73 65 81 22 86 69 27 25 15 60 41 99 59 91 14 75 12 51 20 87 24 94 1 53 26 4 3 61 64 67 9 37 98 28 82 54 11 21 -36 -16 -68 -32 -47 -72 -74 -77 -57 -40 -85 -93 -46 -88 -44 -78 -83 -39 -29 -96 -71 -55 -35 -79 -50 -17 -10 -30 -92 -76 -90 -45 -95 -34 -97 -18 -48 -13 0
24 19 45 82 77 49 36 4 87 62 69 58 79 18 56 60 78 -5 -21 -76 -94 -8 -95 -50 -37 -63 -66 0
53 1 20 61 46 60 8 27 40 12 93 51 16 47 56 55 71 37 5 33 96 65 26 84 35 45 38 -3 -57 -14 -70 -48 -9 -22 -49 -41 -67 -25 -74 -90 -17 -36 -92 -43 -13 -32 0
71 90 50 -58 0
48 62 50 19 17 38 69 56 3 98 63 100 46 43 54 66 42 16 61 6 26 10 8 96 20 90 33 84 13 76 74 29 65 1 49 91 31 88 9 -85 -97 -58 -24 -18 -5 -36 -92 -59 -12 -79 -14 -64 -73 -77 -22 -89 -67 -68 -27 -82 -37 -30 -34 -94 -39 -71 -15 -32 -44 -11 -95 -53 -45 -87 -35 -93 0
44 56 25 10 91 63 92 32 15 42 78 11 55 9 14 74 17 1 43 87 53 4 36 90 12 38 97 67 39 70 21 52 95 29 50 19 68 71 66 100 60 61 93 8 51 34 46 30 31 99 57 94 69 26 76 33 24 65 6 73 45 -64 -47 -81 -84 -75 -23 -18 -72 -37 -48 -13 -96 -5 -86 -40 -89 -85 -98 -20 -16 -83 -28 -82 -54 -62 -7 -49 -27 -35 -59 -77 -2 -58 -80 -3 -79 -22 0
63 30 27 38 28 2 47 85 39 23 35 41 12 65 67 87 34 54 9 99 26 88 53 25 7 97 18 94 29 15 61 91 100 19 -72 -36 -10 -70 -5 -69 -56 -68 -79 -17 -50 -14 -89 -90 -43 -4 -21 -64 -93 -31 -81 -49 -76 -1 -24 -78 -6 -62 -96 -86 -3 -98 -37 -55 -33 -40 -84 -74 0
91 9 22 17 78 10 38 84 77 44 6 73 64 81 26 45 43 5 4 52 49 20 85 19 93 18 68 33 37 92 54 63 96 12 56 13 59 88 16 30 31 15 99 58 66 48 36 47 23 21 -80 -62 -57 -51 -46 -83 -42 -72 -98 -65 -2 -82 -41 -53 -97 -86 -70 -34 -100 -76 -11 -25 -71 -35 -61 -1 -40 -94 -7 -14 -74 -3 -75 -29 -69 -79 -87 -55 -32 -90 -67 -27 -89 -39 -60 -8 0
74 33 23 44 32 56 42 98 79 27 31 5 87 3 94 60 12 52 88 15 19 14 28 80 9 4 26 43 61 54 96 -53 -35 -72 -8 -76 -66 -78 -39 -16 -55 -10 -45 -7 -70 -6 -36 -69 -100 -48 -50 -67 -24 -21 -22 -57 -90 -59 -93 -34 -30 -62 -64 -63 0
83 68 17 7 96 75 2 35 56 1 6 92 53 88 11 31 30 79 90 34 43 9 89 57 93 -87 -60 -49 -26 -65 -20 -29 -99 -67 -33 -21 -58 -94 -59 -19 -28 -55 -24 -38 -48 -81 -95 -72 -12 -39 0
5 38 50 7 89 16 99 74 13 27 37 72 75 35 53 91 93 81 51 28 55 84 -46 -98 -73 -94 -64 -1 -68 -66 -96 -23 -83 -57 -18 -15 -25 -32 -21 -3 -59 -60 -40 -95 -100 -79 -29 -56 -12 -88 -19 0
23 99 7 62 6 80 17 46 58 48 85 78 86 74 25 30 90 32 83 31 26 28 84 53 87 34 1 45 77 18 93 16 56 75 -20 -33 -8 -22 -60 -92 -49 -88 -37 -57 -13 -52 -29 -63 -35 -98 -50 -66 -68 -5 -96 -41 -59 -10 -36 -9 -81 -100 -94 -11 -14 -15 0
73 71 35 5 20 63 62 65 33 60 30 12 91 85 3 68 17 1 22 31 74 41 76 70 98 99 75 10 -46 -11 -6 -80 -21 -28 -48 -59 -37 -52 -56 -2 -77 -16 -93 -45 -7 -96 -78 -97 -86 -34 -4 -89 -38 -40 -92 -14 -50 -25 -53 -100 0
13 23 78 100 33 50 64 72 85 58 82 19 74 70 18 89 83 94 3 -38 -12 -75 -29 -57 -63 -9 -37 -4 -90 -22 -56 -61 -97 -26 -28 -66 -48 -52 -7 -35 -14 -69 -95 -16 -24 -60 -88 -98 -91 -59 -21 -5 -20 -73 -42 -8 -36 0
55 33 64 100 16 11 52 18 4 34 35 -31 -96 -60 -91 -20 -67 -75 -41 -69 0
62 53 60 95 54 89 16 39 96 13 91 77 56 17 29 15 83 37 59 11 86 -68 -63 -28 -58 -25 -3 -24 -26 -34 -14 -78 -48 -98 -94 -6 -50 -87 -66 -30 -35 -82 -4 -38 -84 0
31 96 95 100 83 23 22 56 98 42 41 10 36 21 15 58 8 63 18 14 61 45 65 40 66 64 51 89 54 86 81 76 16 4 92 93 55 59 11 17 97 85 33 34 -38 -7 -6 -74 -87 -60 -2 -19 -28 -79 -39 -44 -78 -69 -90 -20 -5 0
64 85 5 48 86 44 72 38 97 76 59 53 74 45 95 4 22 1 2 19 81 -54 -94 -15 -49 -65 -52 -88 -27 -75 -78 -28 -58 -80 -37 -71 -68 -39 -91 -10 -21 -25 -24 -8 -98 0
29 57 20 45 79 23 56 77 11 9 19 60 90 -41 -85 -58 -5 0
40 3 61 -27 0
1 88 13 41 45 90 11 50 77 76 96 56 98 42 -28 -99 -68 -12 -66 -55 0
99 15 3 91 28 66 69 94 82 80 77 83 63 40 38 50 64 30 25 45 27 68 -84 -42 -46 -81 -75 -47 -60 -88 -54 -74 -90 0
67 14 94 81 -28 -59 -26 -100 0
57 67 97 59 55 85 71 36 15 22 60 2 38 40 78 68 64 96 16 89 7 47 82 37 94 29 26 73 49 98 56 65 77 21 83 80 69 34 39 1 90 99 31 28 54 14 17 46 12 42 32 100 52 -48 -45 -58 -18 -66 -44 -20 -87 -30 -33 -3 -35 -93 -51 -74 -6 -13 -70 -84 -91 -81 -43 -5 -76 -88 -86 -19 -79 -27 -61 -9 -92 -53 -8 0
41 32 4 47 18 16 88 -82 -73 -23 -64 -94 -40 -27 -60 -95 -21 -67 -72 -49 -12 -69 0
63 45 18 20 74 53 96 42 17 -51 -60 -81 0
-14 0
5 46 66 59 91 15 27 79 51 84 1 20 7 57 75 30 32 36 53 86 39 34 88 37 99 25 45 18 24 83 62 38 47 31 52 10 71 68 40 65 80 -54 -97 -28 -94 -70 -64 -100 -42 -96 -11 -92 -23 -48 -87 -77 -6 -26 -50 -78 -95 -44 -17 -90 -73 -22 -98 -60 -4 -43 -9 0
45 17 72 48 80 35 39 96 15 73 58 28 49 11 46 99 76 81 -84 -85 -30 -60 -83 -98 -4 -51 -33 -41 -47 -12 -77 -37 -78 -32 -22 -27 -43 0
93 73 25 33 6 62 23 45 61 51 42 59 5 81 24 16 1 50 74 98 70 80 12 3 43 40 63 75 100 14 65 79 30 -60 -32 -7 -4 -91 -69 -55 -26 -64 -8 -72 -71 -48 -53 -13 -95 -37 -34 -31 -41 -52 -88 -56 -90 -57 -2 -29 -49 -85 -89 -68 -83 -99 -76 -19 -58 -96 -86 -77 -44 -97 -67 -28 -10 0
7 1 33 -77 0
48 18 89 -23 -20 -46 -47 -50 -33 -29 0
27 89 14 2 12 48 49 45 88 66 10 77 84 60 78 34 46 15 13 95 99 28 93 80 38 35 75 87 31 68 -64 -71 -97 -11 -36 -44 -40 -63 -47 -62 -22 -51 -91 -24 -50 -96 -16 -61 -85 -59 -65 -52 -7 -17 -81 -29 -37 -43 0
93 95 84 85 83 63 6 86 100 26 69 41 62 94 20 68 5 79 11 13 52 50 -72 -2 -23 -16 -37 -77 -78 -24 -66 -74 -43 -59 -39 -48 -22 -56 -10 -81 -60 -87 -28 -36 -29 -3 -35 -91 -1 0
8 56 75 79 63 24 48 38 80 26 100 31 44 1 46 81 39 84 89 19 90 47 98 32 92 78 87 69 82 13 70 42 17 27 11 62 49 55 66 97 -15 -37 -99 -14 -6 -28 -88 -21 -25 -40 -34 -86 -51 -3 -91 -18 -65 -74 -95 -35 -61 -45 -4 -20 -29 -36 -83 -68 -12 -71 -85 -23 -9 -2 -10 -16 -43 -52 -60 -94 -67 -76 -93 -77 -53 -7 -30 -41 -33 -59 -72 -54 -5 -58 0
66 21 74 19 44 87 94 77 22 72 31 54 79 24 45 53 92 59 4 46 86 78 5 97 15 34 61 89 -39 -90 -9 -84 -1 -38 -27 -43 -32 -99 -12 -81 -23 -48 -50 -71 -95 -100 -8 -51 -65 -60 -80 -17 -13 -3 -62 -58 -41 -2 -88 -55 -75 -52 -7 -98 -26 -64 -93 -63 -20 0
1 -90 0
95 28 36 99 66 88 16 55 10 69 76 12 29 96 87 100 86 48 54 30 41 26 11 25 43 33 92 -38 -80 -74 -67 -46 -2 -93 -71 -53 -73 -35 -18 -60 -58 -39 -13 -72 -65 -7 -90 -78 -31 -37 -61 -77 -45 -49 -20 -40 -23 0
6 39 37 92 38 41 4 27 95 73 60 54 90 24 29 19 56 87 35 86 47 70 7 63 80 71 61 5 69 67 17 82 66 33 21 65 43 15 10 18 13 20 28 49 40 46 84 57 44 -9 -31 -23 -93 -64 -26 -98 -81 -12 -97 -16 -11 -3 -94 -89 -77 -52 -34 -74 -83 -8 -91 -99 -72 -42 -96 -79 -88 -78 -58 -68 -76 -30 -48 -100 -62 -53 -75 -2 -32 -22 0
73 40 38 24 39 13 58 84 22 44 34 6 77 23 95 52 33 31 86 89 -87 -49 -27 -14 -75 -8 -88 -1 -76 -35 -80 -53 -85 -15 -100 -28 -41 -90 -92 -94 -54 -99 -21 -56 -42 -9 -57 -78 0
43 4 94 9 29 14 32 61 46 50 66 6 30 78 13 80 -48 -93 -68 -76 -52 -31 -37 -17 0
5 59 39 88 25 71 2 61 57 84 18 10 78 73 16 26 67 24 77 93 66 51 91 79 -94 -34 -42 -45 -85 -50 -100 -29 -69 -46 -27 -31 -87 -81 -90 -98 -55 -47 -80 -40 -74 -43 -4 0
34 97 17 62 42 96 -69 -33 -11 -53 -68 -28 0
35 48 9 95 44 16 5 99 68 19 91 26 36 18 50 71 67 30 21 69 33 4 32 10 76 65 17 63 2 25 72 59 24 40 6 39 93 -80 -83 -82 -20 -100 -85 -23 -73 -66 -51 -12 -98 -81 -53 -56 -11 -90 -8 -22 -88 -34 -70 -29 -55 -54 -60 -58 -87 -64 -92 -75 -97 -62 -28 -96 -43 -47 -89 -78 -52 -84 -37 0
72 70 13 96 16 51 98 41 38 46 74 40 71 79 90 56 64 61 9 12 30 -8 -39 -49 -42 -5 -26 -24 -77 -31 -80 -85 -10 -58 -59 -36 -7 -22 -1 -23 -86 -55 -19 0
89 92 10 94 -28 -19 -50 -13 0
89 29 45 2 46 61 21 100 -28 -6 -33 0
41 81 63 18 15 97 74 46 19 6 1 96 44 94 9 64 23 69 34 89 75 73 29 14 52 4 93 35 40 76 48 2 5 43 33 7 11 58 84 70 36 71 30 78 56 85 -66 -59 -27 -8 -68 -42 -17 -28 -47 -26 -31 -12 -79 -99 -51 -53 -49 -65 -90 -62 -25 -83 -98 -22 -72 -57 -60 -16 -38 -3 -61 -88 -20 -91 -10 -86 -87 -24 -37 -50 -21 0
38 66 23 27 58 85 89 52 56 29 13 53 14 49 57 84 79 22 50 87 2 83 95 74 63 10 33 43 -99 -91 -86 -98 -67 -19 -26 -62 -31 -8 -42 -4 -88 -93 -3 -28 -12 -70 -71 -24 -40 -60 -17 -90 -47 -37 -41 -1 -18 -30 -16 -20 0
51 38 36 15 3 11 19 60 75 2 44 99 40 27 70 9 79 74 55 93 26 54 -24 -21 -89 -7 -52 -64 -96 -25 -50 -42 -12 -92 -97 -65 -53 -94 -5 -95 -87 -39 -57 -20 -91 -6 -98 -68 -81 -63 -61 -35 0
5 33 58 13 26 81 18 6 22 87 99 19 64 68 90 47 52 8 9 39 94 71 67 1 93 35 -97 -76 -60 -85 -83 -77 -36 -32 -88 -57 -28 -49 -16 -11 -72 -74 -27 -70 -14 -86 -46 -73 -53 -38 -34 -45 -80 0
26 93 71 78 95 37 46 96 80 54 92 44 56 98 45 58 -19 -3 -53 -51 -39 -32 -28 -52 -30 -69 -12 -75 -76 0
28 52 96 83 40 39 78 31 59 72 95 35 3 13 51 36 91 7 70 80 60 84 66 6 1 27 4 73 53 98 41 76 33 21 63 87 10 99 77 58 75 17 -61 -29 -49 -22 -8 -94 -56 -42 -82 -97 -26 -2 -37 -15 -14 -93 -18 -54 -88 -48 -57 -81 -19 -23 -12 -90 -43 -67 -24 -89 -65 -45 -79 -32 -86 -69 -92 -64 -68 -50 0
83 15 79 13 42 46 38 20 95 80 1 28 64 22 37 91 93 4 88 29 40 12 56 44 34 60 92 96 16 84 59 89 33 71 14 21 63 -31 -75 -11 -72 -9 -17 -6 -65 -32 -98 -78 -53 -36 -82 -77 -86 -85 -55 -90 -52 -66 -73 -57 -97 -68 -70 -43 -87 -81 -24 -5 -67 -49 -74 -26 -25 -3 -45 -7 -58 0
28 13 47 56 3 14 50 11 46 4 76 57 36 33 8 67 86 45 26 98 49 80 79 10 54 89 30 34 73 59 -66 -75 -15 -20 -9 -38 -19 -25 -82 -37 -77 -87 -62 -17 -65 -23 -42 -24 -40 -91 -41 -99 -7 -61 -31 0
7 11 50 98 62 79 77 3 28 36 20 35 81 -70 -29 -25 -87 -78 -45 -43 -56 -72 -61 -83 -82 -60 -93 -33 -1 -92 -76 -19 -14 0
18 58 98 55 34 20 40 59 68 1 71 32 51 12 100 90 72 74 24 78 15 36 66 65 28 29 39 46 91 26 62 83 70 81 73 47 77 2 63 10 60 35 11 94 93 -86 -3 -9 -19 -30 -17 -52 -85 -82 -79 -96 -84 -38 -53 -57 -48 -5 -7 -49 -54 -21 -43 -64 -33 -37 -95 -13 -80 -4 -41 -23 -88 -14 -75 -89 -76 -69 -87 -50 -42 -56 -99 -97 -67 -61 0
59 40 72 35 27 87 60 39 22 58 33 95 24 63 5 93 97 69 6 41 57 43 90 75 17 30 10 8 92 81 77 11 26 9 7 80 3 18 85 51 14 83 -34 -46 -2 -47 -88 -45 -32 -98 -20 -100 -86 -52 -70 -61 -73 -50 -55 -49 -42 -82 -37 -94 -25 -23 -71 -12 -62 -74 -96 -1 -89 -4 -48 -67 -91 -78 -16 -54 -28 -68 -99 -66 -44 -31 -65 -19 -79 -84 -21 -53 -64 -29 -56 0
35 29 47 15 5 18 13 9 94 19 6 30 40 43 37 69 71 17 44 82 88 84 60 95 98 79 92 24 11 73 89 23 90 27 39 2 32 62 4 22 -42 -54 -74 -93 -78 -91 -59 -57 -10 -16 -63 -86 -76 -56 -45 -46 -72 -61 -38 -58 -68 -3 -99 -7 -67 -20 -66 -70 -87 -96 -34 0
37 84 83 48 61 92 95 80 69 -72 -24 -76 -17 -19 -29 -47 -96 -42 0
48 80 77 25 75 87 30 13 53 56 83 42 7 90 62 85 64 40 6 89 71 35 74 58 -39 -20 -46 -16 -41 -17 -26 -37 -9 -44 -27 -69 -43 -93 -47 -36 -91 -2 -22 0
45 58 69 60 85 51 20 2 80 78 64 95 49 40 33 56 91 83 84 71 90 66 55 100 98 93 3 88 37 23 72 65 25 96 8 73 -36 -32 -24 -14 -52 -97 -86 -77 -42 -87 -22 -15 -31 -41 -62 -74 -11 -38 -18 -76 -12 -75 -39 -81 -19 -59 -16 -34 -5 -44 -6 -28 -63 -35 -43 -68 -30 -10 -29 -92 -46 -4 -26 -82 0
65 45 46 40 3 18 44 21 12 92 47 4 88 56 32 63 86 23 72 77 13 78 7 62 37 100 69 27 93 28 15 64 97 24 29 51 94 19 91 90 -53 -87 -99 -22 -35 -58 -49 -68 -41 -66 -89 -59 -70 -31 -75 -50 -81 -14 -61 -17 -54 -74 -36 -98 -52 -55 -71 -83 -57 -60 -85 -1 -16 -6 -5 -9 -8 -11 -10 -95 -20 -67 -80 -96 -30 0
39 12 64 21 86 72 76 7 25 43 99 56 85 96 11 10 59 97 73 74 4 82 9 41 -51 -54 -16 -88 -33 -75 -6 -79 -66 -65 -5 -69 -60 -93 -57 -46 -78 -35 -90 -38 -30 -31 -70 -42 -61 -55 -47 0
74 86 9 81 4 73 19 20 83 60 65 32 36 87 2 22 49 13 14 51 40 67 11 31 57 89 -16 -63 -47 -64 -79 -23 -76 -99 -7 -15 -90 -59 -91 -18 -61 -21 -42 -69 -46 -24 0
5 7 57 79 22 40 60 42 3 21 13 47 34 20 39 80 52 25 27 43 17 51 54 91 11 41 16 44 73 78 96 -35 -8 -69 -37 -62 -64 -30 -72 -66 -29 -90 -92 -46 -81 -93 -2 -53 -77 -12 -88 -24 -33 -15 -71 -31 -68 -14 -89 -48 -32 -55 -94 -83 -23 0
20 65 19 54 40 55 88 58 5 92 53 82 35 75 14 70 59 -100 -29 -98 -23 -86 -36 -4 -90 -11 -68 -22 -71 -84 -43 -66 -94 0
60 12 49 98 55 10 16 85 65 95 32 57 5 66 82 79 40 46 -34 -70 -81 -84 -87 -64 -54 -23 -48 -88 -63 -94 -22 -47 -4 -14 -76 -89 -2 -71 -3 0
79 58 37 43 14 11 83 35 67 89 36 7 73 29 63 66 76 96 80 -54 -88 -68 -93 -90 -71 -39 -25 -100 -26 -64 -65 -10 -86 -56 -53 -16 -12 -84 -5 -23 -1 -60 -44 -21 0
77 46 39 100 25 93 7 96 10 88 24 83 48 65 20 98 22 63 4 45 5 18 38 55 99 85 33 95 59 43 57 86 81 27 23 76 84 47 79 -94 -53 -54 -87 -91 -16 -41 -3 -62 -82 -8 -35 -1 -78 -6 -2 -58 -73 -72 -61 -37 -28 -36 -15 -74 -30 0
19 57 7 1 41 3 74 9 87 69 49 59 13 24 70 54 91 62 16 40 92 96 50 93 61 48 10 29 33 58 44 28 80 45 63 75 79 64 -43 -15 -26 -98 -84 -27 -11 -71 -95 -2 -60 -39 -20 -65 -25 -83 -4 -90 -32 -78 -36 -42 -100 -66 -31 -30 -8 -67 -99 -86 -94 -51 -22 -23 -89 -82 0
86 63 37 96 1 67 66 26 17 30 51 97 45 62 79 73 77 5 36 91 32 35 29 98 -7 -84 -46 -70 -2 -56 -9 -76 -12 -34 -65 -55 -93 -4 -68 -38 -21 -78 -71 -59 -94 -31 -13 -14 -40 -88 0
6 74 28 78 98 72 40 30 69 33 1 85 67 65 73 37 7 14 56 39 55 -86 -8 -24 -91 -15 -100 -71 -52 -53 -41 -94 -60 -42 -17 -3 -81 -97 -12 -84 -19 -61 -88 -57 0
28 67 6 88 80 94 9 46 43 31 5 99 24 54 85 77 16 47 58 37 79 91 81 57 96 50 69 87 39 53 84 65 89 27 97 33 76 20 1 74 52 -78 -61 -29 -62 -14 -22 -23 -93 -7 -17 -13 -44 -82 -59 -25 -32 -3 -75 -18 -48 -40 -10 -71 -26 -92 -73 -38 -49 -2 -95 -51 -64 -12 -83 -36 -21 -66 -8 -11 -86 -15 0
29 19 89 56 79 50 86 92 11 75 8 6 90 58 37 45 96 5 28 21 32 65 78 73 69 49 81 33 64 87 9 54 36 99 4 23 2 97 43 41 16 74 26 76 -18 -63 -70 -47 -80 -17 -30 -62 -10 -14 -3 -77 -53 -27 -91 -68 -13 -51 -52 -72 -15 -84 -55 -1 -38 -22 -98 -67 -48 -35 -12 -31 -94 -7 -59 -57 -20 -93 -40 -44 -82 -71 -24 -61 -95 -100 -25 -34 0
64 9 25 95 6 99 51 19 58 -89 -85 -86 -47 -90 -37 -69 -92 -94 -59 0
99 35 64 94 47 13 81 76 44 90 74 -100 -11 -68 -43 -32 -60 -15 -84 -78 -45 -57 -83 -67 -22 -20 -23 -70 -62 -51 0
12 67 39 94 87 81 -80 -55 -85 -86 -92 -97 -98 -13 -40 -27 0
99 -70 -32 0
43 78 64 59 3 49 20 38 -62 -74 -70 -99 0
24 28 56 100 46 5 14 99 21 78 37 27 22 30 49 66 1 63 29 77 84 75 72 26 62 60 58 47 82 -83 -50 -73 -15 -12 -94 -85 -97 -69 -88 -87 -38 -7 -43 -48 -13 -4 -59 -98 -34 -93 -68 -18 -20 -19 -3 0
61 100 6 16 55 11 64 82 31 60 19 88 44 39 3 63 14 50 23 45 4 9 81 52 53 48 76 24 94 18 57 10 46 29 17 41 68 79 -97 -86 -12 -59 -90 -84 -83 -69 -21 -93 -51 -70 -33 -62 -67 -98 -99 -7 -89 -28 -38 -36 -27 -43 -42 -73 -35 -32 -66 -15 -58 -65 -85 -26 -96 -40 -87 -75 -34 -95 -78 -92 -1 0
37 59 22 74 23 21 14 78 15 3 13 67 26 7 81 50 88 99 84 63 18 79 12 96 2 90 10 33 -30 -85 -83 -29 -16 -92 -57 -44 -27 -11 -62 -46 -1 -35 -72 -65 -19 -38 -5 -52 -71 -4 -32 -76 -66 -43 -42 -94 0
72 95 31 73 -49 -62 -94 -60 -48 -66 -8 -87 -1 -34 -93 -7 -50 -39 -22 0
21 19 58 2 49 22 14 61 57 3 86 59 24 70 11 18 27 73 81 31 97 87 5 76 6 67 94 54 52 42 71 84 75 82 69 41 85 8 88 80 -9 -72 -47 -53 -32 -39 -20 -77 -40 -48 -17 -46 -45 -23 -63 -65 -29 -79 -96 -33 -89 -36 -92 -43 -99 -1 -26 -12 -37 -60 -66 -10 -35 -38 -55 -16 -93 -13 -30 -95 -44 0
82 13 22 62 89 52 55 2 61 69 78 1 26 53 64 33 83 85 36 68 67 44 6 -40 -70 -74 -48 -38 -57 -60 -93 -75 -71 -56 -19 -49 -51 -99 -96 -18 -81 -72 -20 0
47 80 24 99 53 61 19 13 14 35 74 3 20 98 50 68 9 2 17 83 -42 -92 -1 -38 -70 -86 -65 -29 -93 -94 -25 -23 -89 -100 -44 -15 -41 -71 -77 -21 -73 -5 -48 -45 0
82 52 67 86 91 60 45 5 75 47 98 57 30 46 43 26 37 18 1 22 14 89 59 21 78 44 83 76 24 55 34 53 25 3 63 66 56 9 97 27 92 87 99 8 79 -74 -29 -69 -95 -4 -17 -28 -41 -31 -2 -40 -72 -39 -58 -19 -16 -12 -90 -20 -54 -48 -50 -94 -15 -88 -13 -11 -38 -33 -100 -68 -61 -73 -23 -81 -35 -80 -51 -64 -7 -85 -77 0
15 70 35 90 41 21 59 53 95 78 40 58 4 47 88 1 6 75 57 52 39 22 60 8 27 19 -77 -84 -37 -63 -24 -76 -62 -87 -61 -71 -50 -7 -38 -96 -23 -28 -54 -82 -51 -32 -94 -98 -33 -9 0
74 11 20 23 60 -92 -94 -80 0
63 67 77 64 17 94 88 10 38 3 68 87 27 45 13 97 49 47 84 91 7 95 33 96 62 53 22 -32 -14 -52 -8 -48 -2 -34 -98 -15 -66 -1 -61 -28 -36 -25 -37 -44 -11 -69 -19 -29 -60 -24 -16 -86 -5 0
55 39 21 88 46 80 90 42 -87 -96 -10 -19 0
3 92 32 88 97 80 35 58 8 -14 -43 -69 -37 -15 -57 -70 -21 0
83 89 52 38 1 12 96 64 91 56 31 32 93 34 79 -92 -25 -81 -7 -24 -78 -54 -76 -84 -74 -99 -85 -69 -15 -94 -95 -36 -8 -30 -60 -40 0
48 59 28 27 46 72 51 93 41 87 42 43 80 66 90 92 61 9 12 56 38 55 82 98 63 26 3 18 24 69 33 39 83 7 75 21 71 10 62 -79 -89 -40 -58 -95 -53 -84 -8 -34 -78 -13 -19 -15 -36 -70 -25 -6 -73 -2 -29 -1 -85 -65 -31 -60 -64 -88 -44 -74 -68 -99 -97 -100 -17 -4 -76 0
19 22 63 58 30 8 93 5 21 13 2 41 76 10 36 37 67 97 38 17 24 33 71 72 25 -23 -98 -90 -95 -77 -31 -74 -40 -81 -47 -54 -48 -66 -78 -11 -57 -4 -29 0
57 56 6 71 2 73 67 97 24 8 3 49 94 41 36 38 95 54 32 33 25 16 21 52 60 87 9 84 53 15 58 -42 -29 -55 -98 -1 -59 -99 -31 -93 -70 -89 -34 -91 -78 -43 -69 -90 -68 -72 -100 -40 -44 -48 -14 -27 -86 -92 -79 -47 -13 -4 -96 -30 -80 -81 0
51 6 75 97 100 34 10 87 25 93 24 88 35 58 72 2 30 54 77 76 78 73 8 23 -9 -45 -14 -67 -85 -31 -4 -16 -28 -7 -52 -12 -47 -40 0
51 91 53 23 52 4 61 33 65 9 15 38 50 35 10 26 5 57 60 56 -37 -14 -2 -82 -21 -27 -7 -96 -97 -71 -45 0
81 82 84 95 25 10 41 22 52 66 18 7 12 39 20 98 32 54 45 57 91 26 86 13 55 17 40 30 9 24 74 36 27 88 53 51 89 46 79 43 61 11 21 15 -73 -69 -65 -29 -56 -44 -87 -2 -14 -28 -59 -72 -37 -90 -97 -47 -99 -96 -93 -68 -48 -62 -16 -63 -75 -77 -6 -31 -49 -71 -80 -60 -58 -4 -33 -83 -5 -19 -94 -42 -92 -3 -78 -100 -35 -70 -85 -38 0
93 26 63 22 13 23 41 74 28 99 83 88 21 34 76 96 65 37 31 -89 -97 -69 -78 -73 -40 -67 -80 -7 -10 0
95 85 96 82 68 29 24 7 31 92 35 97 79 43 30 40 74 53 17 19 26 -62 -87 -94 -56 -4 -20 -34 -83 -2 -36 -51 -21 -9 -10 -42 -81 -32 -6 -41 -1 -28 -88 -22 -55 -45 -12 0
33 24 39 64 88 85 71 73 65 50 74 16 77 58 21 19 78 87 29 81 44 30 41 57 6 26 82 7 96 94 27 80 70 91 54 -68 -42 -3 -67 -45 -4 -79 -14 -20 -72 -11 -31 -40 -95 -51 -53 -35 -37 -47 -60 -25 -34 -92 -13 -1 -86 -93 -76 -18 -66 -38 -89 -59 -97 -99 -12 -9 -10 -100 -84 -23 -63 0
26 54 1 2 48 74 51 4 14 12 40 82 19 21 73 49 63 53 16 25 44 68 43 41 52 95 87 80 -50 -88 -31 -79 -97 -66 -84 -85 -72 -92 -59 -78 -24 -37 -18 -29 -86 -10 0
84 61 26 24 11 92 53 44 14 45 83 86 43 100 75 50 17 56 96 51 30 5 58 95 38 94 32 90 39 25 93 70 49 79 12 62 8 55 -54 -85 -27 -74 -76 -41 -34 -68 -52 -91 -40 -78 -31 -13 -67 -66 -16 -88 -33 -71 -73 -20 -69 -82 0
13 66 31 80 67 54 4 -92 -70 -77 -97 -5 -3 -42 0
34 30 52 8 64 62 60 97 46 42 92 49 -61 -73 -10 -69 -59 -20 -19 -90 -21 -43 -35 -33 0
7 18 80 54 59 9 71 78 44 68 28 37 64 72 63 84 87 -52 -92 -60 -62 -16 -14 -22 -70 -85 -31 -55 -66 -58 -36 -40 -67 -12 -82 -17 -49 -100 -45 -13 -89 -97 -77 0
69 11 35 82 86 9 92 39 43 44 32 15 93 25 38 1 57 12 83 85 50 59 48 31 78 28 94 90 4 81 75 17 40 100 21 56 30 76 37 89 45 -46 -41 -96 -60 -24 -34 -42 -77 -80 -91 -14 -26 -10 -99 -67 -98 -64 -6 -52 -66 -18 -29 -22 -71 -95 -97 -27 -54 -55 -62 -19 -49 -88 -33 -36 -70 -84 -23 -74 -68 -65 -63 0
24 21 53 92 75 32 78 40 23 46 26 94 71 97 54 20 38 12 19 80 88 57 17 81 79 61 56 43 28 7 90 62 52 70 47 34 76 49 22 98 58 5 72 30 -11 -96 -74 -36 -64 -69 -95 -67 -45 -37 -6 -60 -25 -59 -66 -18 -86 -2 -73 -15 -51 -13 -31 -50 -100 -3 -44 -14 -82 -91 -35 -10 -87 -68 -89 -9 -29 -99 -65 -77 -16 -8 -93 -33 -63 -39 -42 -83 -41 0
3 96 58 89 82 68 24 59 10 74 72 67 21 48 8 55 47 77 7 88 93 17 13 -94 -92 -20 -30 -60 -76 -12 -1 -33 -61 -32 -70 -86 -87 -71 -45 -65 -52 -16 -5 -85 -39 -27 -41 0
58 41 10 56 49 40 4 26 80 46 68 61 25 93 8 3 5 83 82 43 21 53 28 17 36 72 16 81 66 71 98 12 37 89 7 73 48 -99 -44 -67 -55 -90 -69 -85 -75 -59 -94 -92 -35 -52 -15 -39 -23 -13 -42 -63 -6 -14 -18 -62 -2 -64 -86 -79 -54 -70 -22 -60 -11 -87 -45 -95 -84 -20 -34 0
19 55 100 98 53 38 68 3 74 -45 -54 -52 -79 -16 -75 -2 -8 -22 -92 -80 0
69 23 1 32 94 64 3 83 27 34 16 4 72 28 -30 -33 -84 -47 -13 -61 -35 -19 -99 -80 -26 -11 -44 -59 -41 -68 -37 -67 -79 -17 -25 -7 -46 -62 -81 0
16 24 10 93 68 89 66 99 15 88 47 43 77 30 96 85 6 75 81 18 79 57 82 5 29 23 33 94 61 40 45 28 46 58 97 35 64 39 63 51 13 60 70 54 56 92 -9 -21 -65 -91 -36 -12 -44 -20 -78 -53 -69 -86 -98 -100 -95 -2 -41 -72 -17 -76 -8 -11 -37 -48 -25 -55 -22 -1 -31 -87 -7 -49 -90 -38 -34 -62 -80 -26 -3 -14 -52 -67 -4 -19 -32 -27 -84 -83 -71 0
44 31 5 14 65 59 72 8 1 16 78 46 10 75 41 35 57 39 88 42 48 91 54 85 62 45 79 68 20 4 11 28 95 64 53 -18 -27 -90 -7 -97 -99 -26 -19 -34 -15 -51 -86 -12 -82 -21 -38 -33 -89 -81 -37 -43 -22 0
28 70 73 50 71 12 3 100 74 4 55 83 44 31 59 61 15 93 17 -26 -54 -96 -27 -65 -53 -60 -77 -94 -57 -69 -36 -75 -42 -43 -13 -46 -88 -63 -99 -19 -7 0
58 99 44 73 63 57 7 10 55 24 28 49 39 96 35 70 91 87 -85 -69 -79 -33 -11 -84 -53 -52 -80 -71 -12 -61 -51 -2 -3 -67 -66 -43 -77 -36 0
4 45 34 37 100 63 35 17 55 64 16 8 96 81 98 58 75 84 48 87 67 -42 -41 -56 -65 -86 -97 -93 -20 -39 -3 -99 -85 -53 -19 -40 -43 -13 -77 -21 -89 -38 -79 -52 -30 -11 0
46 81 61 100 89 93 2 58 97 18 5 69 92 83 52 36 60 38 24 85 34 91 21 53 27 54 56 20 77 -28 -82 -57 -84 -39 -65 -78 -11 -6 -12 -45 -33 -80 -26 -8 -48 -49 -51 -4 -10 -1 -35 -43 -9 -87 -88 -67 -29 -37 -23 -98 -96 0
99 47 39 35 48 45 74 88 7 36 3 57 17 56 12 29 79 42 58 32 8 81 92 11 61 68 72 34 22 27 95 64 28 -33 -4 -13 -66 -10 -50 -77 -26 -24 -78 -97 -71 -23 -6 -63 -75 -90 -85 -16 -83 -91 -2 -37 -59 -93 0
36 38 97 53 95 29 45 12 51 88 54 48 94 15 69 44 1 3 28 56 49 17 21 40 2 47 10 84 14 85 75 26 5 91 32 4 -20 -76 -30 -81 -11 -46 -25 -86 -58 -71 -63 -74 -96 -62 -100 -98 -8 -23 -99 -61 -31 -79 -73 -42 -70 -34 -93 -57 -13 -27 -7 -80 -22 -67 -65 -68 -92 0
46 29 79 35 59 42 13 17 31 52 94 57 43 62 27 16 96 83 100 81 84 48 22 11 5 68 82 64 21 72 71 19 97 44 -47 -55 -28 -85 -56 -33 -50 -91 -65 -45 -8 -80 -36 -10 -20 -40 -4 -76 -37 -24 -26 -88 -41 -69 -74 -89 -54 -73 -9 -77 -90 -12 -51 -98 -53 -93 -6 -63 -15 -58 -23 -14 -66 -3 -18 -61 -60 -86 -75 -70 -34 -87 -67 -92 0
78 45 85 8 41 79 56 3 59 75 49 82 24 6 63 50 55 47 87 1 95 43 52 53 17 27 20 62 44 64 39 67 99 10 93 13 51 90 2 100 81 -36 -72 -80 -98 -96 -40 -4 -33 -30 -18 -48 -68 -16 -11 -84 -38 -7 -88 -42 -28 -91 -77 -9 -34 -57 -25 -71 -23 -31 -73 -97 -37 -26 -69 -32 -92 -5 -35 -58 -66 -89 -76 -83 -94 -12 -22 -65 -74 -46 -15 -14 0
18 100 13 1 77 91 12 81 57 28 95 88 80 51 27 32 24 89 73 -61 -50 -68 -70 -90 -9 -58 -36 -99 -19 -93 -23 -63 -92 -79 -78 -76 -52 -96 -84 -42 -10 -11 -67 0
78 25 -13 -20 -30 -7 -23 0
10 49 7 92 76 55 24 5 2 38 96 82 48 78 45 13 1 77 4 83 44 27 66 62 85 56 98 11 69 95 17 63 22 19 15 6 12 86 50 47 60 70 35 65 64 87 -18 -91 -81 -21 -89 -58 -26 -40 -74 -51 -59 -67 -57 -32 -25 -79 -36 -84 -99 -42 -75 -14 -8 -90 -30 -94 -100 -9 -29 -88 -93 -34 -61 -52 -41 -39 -28 -37 -73 -54 -97 -68 -46 -16 -3 -43 -71 0
56 15 34 95 21 36 6 19 65 38 27 74 46 63 29 14 53 1 86 -28 -22 -92 -64 -77 -2 -90 -100 -89 -48 -35 -87 -24 -62 -40 -84 -47 -71 -96 -72 -79 -57 -37 -98 -58 -7 0
74 43 78 97 49 71 98 2 15 19 30 10 81 67 65 27 42 45 33 9 35 82 94 22 51 64 60 40 69 25 100 31 4 46 -24 -23 -13 -76 -21 -55 -59 -11 -88 -16 -29 -95 -90 -20 -14 -5 -26 -54 -12 -32 -52 -86 -38 -79 -80 -84 -1 -87 -75 0
72 19 75 77 91 42 63 80 41 22 84 9 46 58 81 57 -35 -85 -89 -8 -23 -52 -49 -86 -68 -30 -98 -34 -16 -95 -27 -3 -78 -45 -93 -62 -47 -29 -67 -53 -44 0
8 43 50 78 59 31 23 15 56 86 69 75 66 36 64 25 58 7 24 67 26 18 60 65 -52 -68 -57 -28 -53 -13 -80 -17 -19 -6 -88 -38 -71 -93 -41 -81 -82 0
93 75 46 60 83 99 -50 -58 -31 -48 -62 -25 -7 -64 0
45 35 82 41 90 86 84 3 42 57 46 59 49 6 55 68 24 92 7 54 78 25 80 9 31 21 39 77 29 10 87 64 43 14 73 98 83 61 30 12 94 36 40 22 95 26 72 44 15 -97 -47 -85 -99 -100 -76 -81 -70 -37 -75 -91 -2 -66 -69 -63 -8 -65 -5 -52 -88 -32 -79 -17 -33 -4 -89 -60 -48 -50 -93 -11 -62 -53 -27 -28 -13 -96 -38 -16 -51 -1 -23 -19 -58 -56 -71 0
16 61 29 77 93 85 70 23 22 27 67 7 2 15 51 94 36 76 30 68 60 96 52 25 9 75 31 65 72 8 100 74 17 92 35 44 19 69 39 42 45 56 87 78 3 20 -26 -54 -84 -57 -71 -1 -97 -40 -21 -81 -18 -33 -63 -12 -55 -5 -24 -38 -88 -10 -43 -95 -80 -37 -50 -34 -6 -13 -90 -89 -49 -99 -59 -83 -73 -4 -86 -32 -41 -66 -46 -28 -11 -91 -82 0
68 50 20 48 14 89 67 18 76 51 6 28 98 1 41 42 91 52 40 22 64 82 31 55 57 23 9 87 8 80 34 5 12 29 -66 -83 -93 -97 -58 -13 -47 -37 -36 -15 -38 -46 -44 -27 -43 -56 -7 -71 -17 -24 -3 -21 -81 0
17 18 15 56 4 78 -61 -55 -70 -69 0
71 1 11 10 86 72 20 60 87 73 97 15 34 61 83 2 9 84 37 74 36 12 53 80 58 52 28 40 55 45 19 54 92 79 39 46 49 6 62 -14 -44 -26 -42 -30 -41 -50 -95 -33 -56 -21 -32 -78 -13 -31 -59 -35 -17 -65 -38 -81 -68 -8 -100 -22 -96 -89 -16 -63 -76 -24 -93 -57 -99 -94 -4 -43 -18 -51 -29 -3 -75 -91 -7 -64 -48 -67 -70 -85 -90 -69 -77 0
32 60 56 37 15 53 41 88 3 62 27 35 76 12 64 95 -31 -40 -48 -10 -19 -65 -78 -44 -47 -23 -74 -36 -81 0
62 15 27 51 35 1 64 77 41 20 94 80 49 65 9 78 60 46 11 70 97 -95 -38 -24 -75 -63 -48 -40 -22 -71 -93 -89 -54 -31 -76 -12 -55 -96 -61 -50 -16 -84 -66 -26 -29 -37 -6 -36 -59 -30 -3 -43 -33 -25 0
25 26 65 80 74 22 34 56 94 97 73 77 24 53 71 21 39 95 16 18 98 83 70 3 48 55 51 13 45 2 69 7 -90 -29 -1 -30 -62 -9 -38 -23 -4 -84 -72 -36 -8 -89 -20 -6 -46 -19 -59 -27 -31 -40 -85 -96 -60 -37 0
83 64 87 99 7 47 68 86 60 16 80 57 21 58 24 85 73 96 95 94 23 88 3 6 4 22 42 48 46 53 32 11 39 18 -8 -52 -31 -44 -98 -90 -12 -27 -67 -1 -81 -43 -34 -30 -17 -51 -14 -9 -89 -79 -74 -69 -75 -66 -37 -49 -5 -13 -65 -76 -56 0
9 30 12 58 91 40 51 74 48 60 45 98 86 6 71 47 63 21 66 80 17 42 14 85 19 18 44 100 82 99 13 5 84 81 90 70 1 55 96 41 31 59 46 54 15 69 10 77 57 93 -20 -79 -3 -72 -53 -43 -11 -27 -32 -24 -83 -56 -38 -35 -65 -26 -95 -7 -87 -2 -23 -4 -28 -52 -78 -16 -36 -89 -67 -34 -68 -75 -88 -37 -22 -76 -64 -61 -8 -97 -25 -62 -73 -50 -29 0
27 67 76 13 60 95 53 99 83 79 59 5 41 47 10 69 93 37 63 49 62 91 98 16 26 43 72 6 29 14 55 23 70 46 9 52 86 77 36 18 38 45 2 68 34 81 -87 -48 -4 -66 -11 -64 -73 -31 -7 -84 -24 -28 -54 -40 -25 -89 -22 -94 -51 -92 -65 -75 -58 -32 -19 -17 -3 -15 -57 -74 -8 -33 -82 -61 -39 -50 -80 -44 -96 -21 -35 -97 -20 -100 -71 -42 -56 -78 -88 -1 -85 -12 0
30 36 82 4 8 10 60 78 26 92 27 72 45 66 81 89 99 -87 -83 -80 -97 -24 -13 -68 -86 -28 -33 -40 -2 -69 -88 -42 -61 -59 0
20 63 42 67 93 7 53 69 48 8 68 64 45 59 89 90 36 11 47 100 55 50 58 77 28 60 88 65 19 -13 -80 -51 -96 -56 -61 -62 -16 -31 -27 -49 -52 -41 -37 -92 -32 -10 -17 -86 -30 -24 -15 -5 -14 -35 -2 -85 -57 -79 -40 -22 -9 -78 -21 -82 -76 -29 -72 -4 0
98 83 35 60 29 100 10 58 36 34 88 75 77 96 33 3 90 2 6 69 57 23 40 20 25 9 18 49 42 46 53 50 66 15 37 70 99 74 26 65 81 76 1 85 64 19 5 79 47 97 12 -92 -87 -95 -43 -56 -91 -94 -45 -59 -21 -27 -61 -8 -68 -16 -17 -54 -78 -30 -84 -72 -7 -71 -67 -4 -48 -24 -93 -38 -63 -39 -86 -73 -52 -51 -11 -13 -32 -55 -80 -82 -44 -62 -31 0
69 93 77 81 54 66 45 15 29 49 33 94 92 87 -41 -62 -35 -82 -53 -88 -75 -21 -57 -10 -70 -46 -55 -67 -59 -37 -74 -89 -8 -100 -96 -90 0
86 61 64 100 51 57 12 84 74 -28 -80 -26 -23 -45 -30 -89 -42 0
22 89 74 10 2 43 48 61 65 4 81 84 14 80 23 77 37 52 24 92 42 87 86 59 27 12 16 68 38 50 62 63 75 29 39 82 40 44 90 98 5 79 96 47 88 17 93 20 99 7 51 36 18 97 34 73 -49 -35 -41 -15 -13 -71 -45 -70 -57 -66 -25 -69 -26 -94 -3 -85 -30 -6 -31 -58 -19 -76 -9 -55 -72 -60 -28 -95 -91 -78 -21 -64 -11 -8 -56 -32 -100 -1 0
17 55 82 29 56 21 57 32 86 95 71 39 97 22 62 72 11 92 27 94 40 54 96 37 98 15 26 59 100 64 74 52 3 44 8 99 30 80 12 89 81 23 43 88 46 85 49 63 2 67 5 78 77 33 -84 -75 -6 -7 -70 -18 -79 -45 -91 -65 -66 -13 -1 -31 -9 -25 -28 -68 -34 -48 -10 -51 -50 -47 -90 -60 -24 -93 -61 -69 -83 -41 -42 -35 -20 -58 -87 -4 -16 -19 -73 -53 -38 -36 -14 0
50 5 28 79 59 40 60 69 48 33 63 99 21 96 91 81 16 3 71 23 57 46 95 25 72 64 58 89 41 10 86 83 11 34 62 18 78 49 8 35 77 26 24 12 -82 -31 -1 -55 -14 -90 -87 -38 -80 -66 -2 -75 -70 -47 -39 -100 -22 -74 -32 -68 -84 -15 -53 -27 -52 -56 -65 -67 -6 -97 -7 -73 -19 0
93 23 96 77 48 73 11 61 56 59 10 19 81 79 78 -49 -24 -94 -88 -95 -47 -16 -51 -5 -37 -43 -83 -60 -6 -69 -100 -20 -68 -92 -71 0
13 2 5 82 17 29 28 10 54 23 90 11 98 35 21 45 46 77 24 1 12 93 6 -25 -7 -3 -30 -92 -72 -38 -87 -37 -52 -43 -4 -86 -64 -22 -68 -67 -73 -31 -88 0
11 82 89 58 53 66 7 62 84 28 75 2 14 17 67 96 73 47 -88 -20 -13 -8 -59 -6 -98 -24 -46 -26 -93 -16 -71 -74 -77 -21 -37 -23 -79 -50 -43 -33 -90 0
83 65 75 50 36 9 23 40 87 69 15 3 52 34 -57 -76 -4 -68 -80 -56 -79 -13 -11 0
71 2 83 60 31 13 15 50 30 78 84 52 49 80 93 99 68 67 26 95 73 16 43 81 40 76 44 91 19 36 33 86 97 56 66 22 39 21 64 77 92 88 29 65 14 94 41 -75 -74 -53 -24 -62 -51 -25 -59 -90 -55 -38 -4 -72 -11 -6 -89 -28 -61 -79 -48 -3 -23 -98 -45 -69 -63 -85 -96 -32 -12 -35 -37 -5 -100 -47 -57 -1 -10 -46 -34 -7 -87 -82 -18 -54 -9 -20 -70 0
62 78 71 91 4 69 47 36 11 33 1 51 67 9 86 65 18 38 61 84 58 45 73 74 20 24 100 89 76 39 25 42 6 30 48 99 43 96 97 28 53 57 3 7 35 19 -95 -90 -56 -79 -21 -14 -80 -82 -13 -32 -83 -5 -31 -10 -23 -8 -64 -70 -85 -98 -41 -59 -72 -22 -26 -68 -40 -37 -49 -46 -27 -88 -34 -44 -12 -77 -17 -55 -2 -63 -15 -93 -81 -60 -87 -54 -94 -16 -50 0
29 6 25 64 66 43 94 87 24 2 65 8 32 73 28 27 -86 -15 -77 -18 -34 -55 -62 -58 -63 -31 -45 -82 -33 -92 -37 -19 -38 -85 0
49 33 83 97 70 38 62 5 72 16 7 47 75 19 68 17 45 54 22 6 96 57 34 18 1 58 32 39 98 27 66 88 90 92 79 9 24 59 21 -87 -53 -77 -84 -91 -25 -76 -73 -100 -94 -26 -8 -80 -81 -31 -50 -12 -14 -3 -15 -85 -30 -23 -64 -13 -51 -10 -69 -42 -36 -43 -44 -93 -60 -11 -35 -61 -52 -48 -78 -71 -40 -86 -46 -89 -65 0
36 18 84 17 1 62 63 23 65 92 43 93 100 91 46 58 99 8 33 52 32 -25 -4 -48 -53 -88 -55 -11 -16 -27 -56 -49 -77 -26 -60 -70 -40 -72 -7 0
99 19 47 40 97 86 59 54 23 92 62 7 77 79 29 64 69 45 46 20 31 91 84 2 94 75 42 12 61 56 6 26 68 4 80 -100 -36 -78 -11 -18 -76 -21 -44 -67 -22 -82 -93 -38 -14 -63 -65 -17 -50 -51 -70 -13 -3 -98 -58 -33 -28 -55 -53 -95 -32 -87 -96 -90 -83 -66 0
94 50 45 79 25 82 62 55 87 54 83 98 17 59 37 60 3 68 100 85 13 91 67 90 75 72 33 73 27 19 -89 -96 -86 -80 -12 -31 -5 -35 -56 -70 -20 -34 -18 -2 -65 -53 -46 -11 -36 -84 -14 -16 -4 -99 -49 -30 -15 -77 -57 -24 -88 -63 -97 -64 -40 -26 -58 0
17 1 57 64 93 71 87 15 59 54 6 51 98 35 9 96 94 86 14 37 46 63 99 22 25 16 24 73 66 29 43 -4 -42 -79 -68 -32 -55 -61 -31 -19 -3 -48 -81 -77 -75 -44 -23 -34 -7 -26 -65 -38 -2 -88 -56 -5 -12 -74 -62 -50 -91 -97 -49 -83 -58 -28 -78 -95 -69 0
9 37 53 39 83 60 59 57 -91 -67 -78 -47 -85 -8 0
54 0
28 75 60 9 12 17 87 21 23 64 2 16 73 53 99 83 39 25 85 6 36 37 38 90 44 15 89 -63 -27 -76 -74 -47 -71 -91 -5 -4 -97 -51 -31 -54 -92 -18 -61 -40 -96 -100 -95 -70 -32 -1 -35 -55 -34 -41 -58 -82 -3 -29 -68 -49 -50 -84 -46 -72 -66 -67 -52 0
