c NeuroCodeBench 2.0 CNF formula with verdict Sat
p cnf 11 45
4 6 -5 -8 0
5 3 -10 -11 -6 0
3 6 2 1 5 -9 -4 -7 -11 0
5 10 6 2 4 8 1 11 -7 -9 0
5 11 3 6 7 0
6 7 -11 -8 -10 -4 -1 -9 0
9 6 2 -3 0
6 11 7 1 4 -8 -10 -2 -9 0
2 -11 -1 -4 0
8 7 3 -1 -11 -10 0
-5 0
7 10 9 2 -8 -4 -3 -1 -11 -5 0
2 1 10 9 8 -4 0
5 7 4 -6 -3 -1 -2 0
10 9 1 -11 -7 0
11 7 -5 0
9 8 -10 0
4 10 -2 0
2 3 5 11 -9 -7 0
10 8 6 3 7 -9 -2 0
1 -9 -4 -7 -3 -10 0
3 1 -2 0
6 8 3 2 10 1 -7 -11 -9 0
2 5 1 6 7 4 -9 -11 -3 0
1 8 2 -10 -7 -11 -5 0
11 7 0
3 10 7 -2 -8 -6 0
6 -8 0
3 1 8 2 10 6 11 -7 -5 0
3 9 2 7 4 8 -6 -1 -11 0
5 10 3 7 9 1 -6 -4 0
4 6 7 2 -8 -11 -5 0
10 5 11 1 6 -7 -4 -8 -2 -3 0
2 10 -5 0
8 1 3 -7 -6 -4 0
9 0
5 6 3 -10 0
1 3 5 9 -2 -10 -11 0
3 2 4 11 7 -6 0
3 5 7 -9 -2 -11 -10 -4 -6 0
3 11 9 1 8 -4 -7 -6 -2 0
3 8 -4 0
7 3 2 6 -4 -1 -9 -5 0
5 2 -1 -9 -3 -10 0
11 5 3 -6 -7 -8 -1 0
