c NeuroCodeBench 2.0 CNF formula with verdict Sat
p cnf 32 226
18 23 3 31 15 1 14 29 21 5 2 13 22 11 10 9 32 30 24 25 -7 -6 -16 -27 -19 -4 -26 -8 -20 0
2 8 3 10 15 24 5 -17 -22 -26 -27 -32 -18 -11 -6 0
9 30 12 3 18 14 27 10 1 32 13 -15 -2 -20 -7 -5 0
10 32 22 21 14 23 30 29 16 26 8 -5 -1 -3 -6 -2 -12 -25 0
31 13 8 5 28 -22 -11 -30 -25 -6 -14 0
3 11 27 17 22 21 32 8 18 14 10 23 -9 -20 -4 -12 -2 -7 -1 -6 -29 0
32 27 2 12 13 29 30 3 4 16 14 -1 -17 -26 -19 -11 -6 -24 -9 -15 -18 -31 -7 -10 0
31 1 30 10 23 16 17 28 15 20 -11 -13 -2 -6 -8 -19 -27 -21 -4 -7 -18 -12 -14 0
17 10 32 19 5 13 27 14 29 11 23 28 -18 -25 -6 -7 -26 -21 -31 -12 -20 -2 -24 -8 -3 -30 -9 -1 0
7 -4 -24 -16 -5 0
20 7 -32 -16 0
31 32 20 15 10 4 7 -21 0
15 17 18 9 -8 -6 -13 -22 0
6 -16 0
15 29 9 5 27 6 19 2 20 31 -25 -24 -12 -1 -22 -16 -11 -7 -13 -30 0
23 28 8 15 4 27 22 18 20 25 12 32 6 10 13 2 -16 -3 -24 -1 -11 -5 -30 -21 -31 -17 -14 -7 -26 0
29 32 6 7 31 -17 -13 -30 -1 -18 -11 -28 -8 -12 -19 -16 0
10 2 14 29 15 25 7 20 12 16 6 21 -18 -4 -27 -28 -8 -32 -9 -13 -5 0
19 22 12 25 5 14 21 4 7 20 24 32 11 -3 -13 -18 -26 -27 -17 -10 -2 -15 -1 -31 -28 0
19 1 7 16 20 3 27 5 29 10 6 22 -31 -4 -8 -23 -14 -21 -26 -18 0
12 10 5 31 21 13 26 1 17 -11 -22 -14 -20 -8 -9 -18 -3 -28 0
14 1 26 12 32 -7 -29 -31 0
2 22 25 30 26 -3 -4 -24 0
28 16 31 30 17 5 6 -4 -23 -1 -15 -21 -9 -25 -24 -8 -18 0
15 5 13 29 3 9 -24 -20 -25 -10 -11 -6 -2 -28 -31 -14 -27 0
20 2 19 3 -22 -12 -8 -15 0
9 24 4 1 17 14 -32 -26 -18 -7 -12 -3 -19 -25 -10 0
24 18 5 19 30 32 21 1 11 -3 -17 -12 -25 -4 -9 -7 -27 -31 -15 -6 0
12 -13 -25 0
6 -5 0
2 12 27 -11 -16 -13 0
23 28 24 30 14 16 2 18 11 9 -12 -26 -1 -31 -17 -25 -32 -29 0
3 29 20 26 18 27 30 4 -1 -11 -5 -32 -13 0
23 21 -22 -25 0
24 28 9 20 7 -25 -15 -11 -16 -8 -2 -6 -27 -18 -14 0
30 6 29 -5 -27 -24 -23 -20 -4 0
26 25 29 20 32 6 30 7 -16 -14 -22 -15 -31 -4 -21 -2 -27 0
7 18 3 10 12 5 13 26 19 9 21 1 -14 -32 -31 -23 -4 -28 -17 -11 -29 -8 -2 0
19 5 -9 -24 -15 -11 -27 -29 -12 -23 -1 -30 0
17 22 31 7 3 9 21 10 11 29 16 25 23 -4 -8 -14 -20 -2 -1 -13 -27 -32 -24 -30 -26 -19 0
-27 -1 0
6 0
11 14 5 22 24 7 -25 -15 -4 0
2 12 20 -32 -8 -18 -4 -19 -23 0
4 5 21 9 16 15 13 7 23 1 10 30 18 31 26 -27 -24 -12 -19 -6 -14 -20 -17 -22 -8 -28 -25 -3 -29 -11 0
-8 -4 0
13 30 32 27 25 11 7 5 19 21 20 23 3 8 -1 -24 -28 -17 -2 -31 -26 0
8 4 23 25 -2 -15 -7 -27 -32 0
23 32 18 27 19 10 1 28 6 25 4 15 24 -17 -14 -22 -30 -16 -29 -21 -26 -2 -11 -13 -31 0
17 31 18 3 28 -21 -12 -8 -15 -24 -11 -23 -13 -30 -19 -25 0
10 -28 -26 -16 -12 -31 -9 0
1 15 23 8 24 17 -31 -26 -19 -14 -20 -29 -22 0
21 15 17 22 8 31 19 11 -30 -23 -28 -1 -18 -14 -4 0
5 10 28 27 3 21 8 30 18 17 20 24 25 7 1 26 22 29 -23 -14 -31 -6 -13 -11 -4 -16 -19 -15 0
19 27 12 4 15 11 -28 -9 -23 -6 -24 -5 -16 -29 -18 -7 0
13 3 22 6 -18 -29 -16 -19 -10 0
5 32 1 30 -11 -26 -22 -13 -23 -10 -6 0
19 22 10 28 13 8 -15 -9 -23 -12 -11 -24 0
17 31 23 -24 -1 -30 0
8 32 20 11 3 27 2 28 9 6 17 22 4 24 23 19 14 -16 -5 -31 -18 -30 -21 -12 -25 -7 -26 -29 0
10 28 17 12 26 7 2 24 3 11 -15 -13 -25 -4 -16 -30 -22 -5 -29 -21 -9 -23 -8 -14 -6 -32 0
28 21 3 18 24 11 9 17 23 -12 -32 -1 -14 -6 -20 -19 -15 -4 -13 -27 -7 0
3 14 16 28 24 7 9 27 19 13 1 6 15 5 21 30 23 25 -26 -31 -18 -32 -22 -11 -10 -20 -17 -12 -29 -8 -2 0
23 13 30 14 16 8 15 22 29 11 24 21 9 19 -12 -3 -25 -6 -31 -5 -4 -17 -20 -18 -27 -1 0
7 6 13 -27 -20 0
21 25 1 20 8 6 30 -2 -26 -10 -14 -13 -24 -17 -15 -19 0
12 29 4 5 26 8 3 18 31 24 7 20 2 -11 -30 -1 -32 0
6 18 19 11 31 20 5 25 21 12 28 22 27 30 7 -24 -8 -17 -15 -2 -23 -1 -26 -13 -32 -4 -3 0
18 4 30 27 5 2 28 20 29 7 21 19 16 32 15 13 -10 -17 -12 -14 -22 -26 -6 -3 0
8 31 29 26 25 16 20 19 30 32 23 6 15 -4 -7 -1 -5 -11 -13 -3 -12 0
18 12 25 23 20 6 31 26 21 5 28 2 1 15 13 9 -3 -30 -27 -24 -10 -8 -16 -22 -4 0
28 14 31 15 32 11 24 9 -18 -17 -7 -26 -21 -27 -30 -6 -22 -2 -16 -3 0
27 30 8 5 10 14 20 11 -2 -22 -24 -15 -31 -1 -7 0
12 27 16 -18 -6 -30 -22 -9 0
10 14 8 6 5 -30 -7 -2 0
29 -9 -28 -10 -23 -21 -31 -5 -7 -20 -1 -27 -17 0
7 28 12 1 31 6 17 4 5 -9 -29 -25 -23 -3 -10 -15 -22 -8 0
26 22 -30 0
13 15 27 7 28 25 -12 -3 0
6 17 2 10 9 26 25 24 19 16 21 8 1 7 14 11 22 -23 -27 -28 -4 -31 -15 -29 -13 -30 -18 -20 0
22 16 -21 -28 0
11 24 29 17 10 12 -1 -22 -26 -16 -20 -31 -32 -15 -2 -3 -18 -14 -25 -19 0
18 26 29 5 21 0
19 5 26 16 14 2 15 32 31 20 8 13 -27 -25 -12 -7 -30 -23 -6 -4 -3 -21 0
-11 -15 0
24 16 0
16 2 13 26 11 31 17 25 22 24 3 9 15 6 -23 -5 -8 -20 -10 -27 -7 -14 -12 -1 -30 -18 -4 -32 -28 -21 0
5 9 12 1 28 17 3 26 14 27 32 8 30 6 21 10 -23 -15 -19 -4 -7 -29 -16 -31 -20 -25 -24 -13 -2 -22 -11 0
26 27 29 12 1 20 25 31 7 9 23 10 -3 -13 -19 -18 -14 -4 -6 -21 -24 -17 0
-27 -14 0
1 22 21 6 13 5 15 23 8 14 19 31 25 -17 -12 -16 -18 -32 -27 -11 -20 -2 -26 -28 0
1 19 27 23 10 12 3 4 22 -32 -9 -11 -28 -13 -25 -8 -6 -18 -5 -15 -21 -30 -26 -17 -16 0
21 9 26 22 24 15 19 23 7 10 11 13 25 20 -1 -8 -6 -2 -18 -29 -12 -16 -32 -4 -5 -27 -3 -17 -31 -28 -14 0
25 30 27 13 20 14 15 28 16 21 -5 -24 -32 -8 -11 -29 0
7 3 1 16 -19 -4 -28 -29 0
12 26 0
18 28 21 15 -8 -24 0
7 18 26 2 27 4 20 1 -28 -19 -31 -9 -11 -32 -3 -5 -23 -24 -16 -15 0
9 14 5 16 15 23 8 6 31 22 17 21 20 -4 -32 -12 -30 -10 -2 -25 -1 -24 0
20 15 31 25 9 29 13 21 2 -12 -7 -6 0
14 20 12 23 24 30 8 17 13 31 3 16 -15 -6 -25 -29 -9 -27 -19 -4 -11 -21 0
9 26 -15 0
12 13 26 -8 -7 -21 -18 -2 0
6 18 26 9 20 13 29 11 -16 -12 -3 -4 -10 -19 -1 -24 -32 -5 -30 0
14 22 32 31 28 5 29 9 17 25 3 2 27 -20 -12 -7 -19 -23 -8 -16 -10 -21 -13 0
27 4 18 3 5 17 28 -9 -16 -14 -12 -32 -1 0
30 23 7 22 6 10 8 20 16 4 18 11 28 32 -14 -3 -5 -29 -13 -19 -17 -1 -2 -27 0
30 10 26 9 -2 -18 0
30 26 6 27 16 2 11 9 28 18 10 17 12 31 24 -20 -5 -21 -22 -13 -1 -8 -4 -7 -29 -3 -14 -15 -23 -19 -25 0
5 2 -12 -20 -10 0
12 30 -27 -10 0
2 25 21 3 28 -11 -20 -18 0
12 14 5 -19 -10 -3 0
26 18 27 6 30 14 25 5 15 1 3 20 31 -28 -13 -4 -19 -16 -22 -2 -10 -29 -11 -9 -7 -17 -23 -21 -32 0
8 6 12 -32 -17 -14 -2 -24 -23 -11 -19 -27 0
12 18 27 7 25 26 3 28 11 10 22 23 17 -15 -9 -8 -20 -30 -14 -19 -13 -32 -2 0
6 22 25 13 30 23 18 5 -15 -14 -20 -32 -12 -27 -17 -8 -11 -9 -31 -28 -26 -29 -3 0
12 5 14 25 23 24 15 10 1 11 29 2 -28 -3 -7 -30 -19 -16 -31 -4 -9 -26 -6 0
3 31 -21 -5 0
6 16 9 27 19 7 11 -4 -20 -12 -24 -1 -29 -14 -30 -25 -10 -26 -3 0
16 8 9 27 4 19 18 3 22 -23 -31 -32 -21 0
30 21 29 31 14 -19 -13 -1 -17 0
2 13 7 16 -5 0
19 21 18 31 5 7 8 3 25 26 16 11 2 -24 -15 -23 -4 -10 -17 -29 -20 -13 -12 -30 -6 0
13 18 7 5 27 17 20 23 4 8 -21 -25 -26 -24 -15 -6 -12 0
23 15 24 4 19 22 14 16 11 9 5 8 -30 -6 -2 -13 -25 -32 -17 0
12 2 7 20 21 16 28 1 27 17 14 -23 -24 -29 -32 -5 -3 -30 -10 -11 -19 -13 -9 -26 -4 -31 -25 -6 -15 -8 -22 0
9 12 6 20 -11 -17 -4 -7 -15 -16 -23 -29 0
3 15 16 23 21 24 8 2 17 30 -11 -5 -9 -13 -28 -10 -27 -19 0
15 24 6 -11 0
20 30 17 -15 -21 -26 -9 -18 -22 -29 -10 0
27 3 24 -7 -28 0
17 3 5 12 11 18 9 -27 -6 -1 -13 -15 -4 0
7 26 12 23 17 4 18 3 5 1 31 -6 -20 -28 -27 -24 -21 -14 -19 -8 -9 -30 -32 -29 0
6 30 16 10 18 17 29 5 19 2 32 1 21 3 -25 -14 -31 -22 -28 -20 -4 -11 -26 -9 -27 -24 -12 -7 -8 0
25 6 -19 -28 -18 0
3 19 32 30 25 24 28 21 22 9 26 -5 -1 -20 -18 -7 -11 -12 -13 -29 -16 -27 -8 -10 -31 -4 -2 -6 -17 -23 0
29 21 4 30 27 25 15 17 14 13 3 12 16 10 6 18 -9 -31 -22 -24 -2 -20 -1 -8 -26 -23 -19 0
9 25 18 7 29 22 15 21 -3 -16 -14 -10 -2 -13 0
23 32 26 28 6 7 -4 -9 -20 0
6 32 26 -29 -25 0
3 10 19 30 27 20 22 28 18 9 11 -21 -29 -8 -31 -26 -12 -15 -23 0
15 32 22 5 28 3 7 -11 -18 -1 -6 -26 -21 -16 -27 -23 -2 -12 -17 -31 -30 0
18 17 24 4 2 6 14 23 12 21 16 5 -3 -9 -29 -13 -11 -1 -25 -20 -15 -10 -7 -31 -22 -8 -27 -30 0
7 10 17 31 32 20 18 30 2 12 -15 -22 -3 -9 -21 -19 -5 -28 0
24 25 28 26 3 -31 -22 -29 -1 -8 -30 0
12 19 15 11 10 24 1 28 -6 -27 -31 0
24 5 23 26 -2 -28 -19 -30 -25 0
20 22 12 23 -5 -7 -25 0
22 3 19 13 18 7 24 5 -15 -14 -30 -29 -6 -21 -31 -27 -32 -12 -17 -8 -28 -4 -20 0
2 12 7 21 22 0
18 23 27 4 2 13 21 9 6 10 -3 -26 -28 -16 -31 -20 -7 0
17 12 7 13 26 6 22 32 29 11 24 2 19 30 27 8 -25 -15 -21 -18 -20 -28 -5 -23 0
24 3 6 25 29 27 19 14 15 9 -20 -4 -16 -26 -7 -22 -10 -30 -18 -12 0
23 3 4 13 24 -27 -21 -10 -16 -15 0
19 2 3 10 30 7 20 9 17 23 31 15 1 16 -27 -5 -32 -25 -22 -4 -8 -28 -13 -11 -21 -18 -6 -26 0
31 9 18 16 10 -5 -1 -17 -26 -7 -2 0
8 6 29 1 7 18 22 -16 -27 -9 0
9 27 8 21 28 6 31 11 29 -25 -22 -24 -17 -20 -2 -13 0
22 8 1 6 -21 -17 -23 -24 -28 -18 -11 -26 -31 -4 -19 -5 -32 -20 -25 -14 0
14 31 30 9 3 19 2 15 1 25 8 17 5 4 22 -23 -24 -32 -11 -18 -16 -12 -26 -29 0
1 -18 -13 0
-16 0
20 25 5 2 18 26 30 6 32 28 13 12 27 -23 -21 -11 -17 -3 -24 -31 -8 -19 -4 -29 -16 0
28 12 2 4 32 6 30 25 7 1 22 11 5 -3 -24 -31 -17 -19 -26 -21 -23 -18 -29 -16 -14 0
28 19 21 15 30 23 24 31 9 13 2 7 25 5 16 -26 -17 -10 -27 -18 -6 -11 -8 -1 0
31 20 10 -13 -7 -4 -25 0
23 20 4 26 16 6 19 18 7 22 32 -24 -5 -30 -15 -25 -2 -3 -10 -31 -21 -9 -28 0
31 14 10 28 1 22 23 30 15 11 24 25 13 4 26 2 19 -5 -29 -27 -16 -18 -17 -6 -32 -21 -20 -9 -8 -12 -7 0
20 19 11 15 8 6 9 2 22 18 -30 -4 -13 -31 -29 -25 -1 -21 0
22 4 -10 -16 -7 0
23 25 13 3 27 5 18 28 17 20 8 24 15 11 14 7 6 16 -31 -1 -30 -9 -2 -12 -32 -21 -4 -29 -19 0
28 20 29 -27 -4 0
2 24 3 17 20 18 25 12 -15 -19 -4 -13 -14 -8 -30 -26 -10 -6 -31 -11 -29 -16 -27 -21 0
21 7 17 12 27 13 16 23 15 14 18 4 10 9 3 28 -29 -5 -2 -11 -26 -24 -19 -6 -30 -31 -32 -22 -20 -1 -25 0
4 8 3 21 20 6 2 32 -5 -16 -14 -1 -18 -12 -30 -28 -29 -17 -27 0
6 1 32 18 25 9 11 29 19 10 -3 -27 -12 -16 -17 -24 0
1 3 10 4 21 28 25 19 30 22 6 15 14 -24 -17 -32 -27 -12 -7 -20 -5 -11 -13 0
6 8 12 24 -30 -10 -29 -14 -26 -3 0
15 3 2 24 18 30 31 29 11 10 22 1 23 -9 -13 -20 -6 -16 -7 -14 -8 -26 -27 -5 -19 0
9 16 10 30 -18 -21 -23 -19 -25 -13 -2 0
15 12 4 8 11 13 -22 -6 -2 -9 -26 -1 0
32 11 29 19 18 -20 -9 -7 -24 -6 -21 -17 -13 -5 -22 -8 0
6 12 14 31 30 1 15 27 2 11 5 -28 -19 -7 -18 -17 -32 -23 -22 -29 -4 -25 -16 -20 -9 -13 -24 0
24 9 31 29 12 14 25 26 4 -8 -32 -28 -22 -6 -20 -7 0
5 4 20 32 14 2 19 13 30 29 -18 -24 -10 -27 -1 -26 -6 -17 -22 0
11 23 -5 -18 -14 -9 -30 0
4 16 12 14 20 18 30 22 8 3 1 5 24 31 -15 -6 -25 -21 -17 -29 -23 -7 -27 -28 -11 -2 -10 -13 -9 -26 0
21 13 11 10 16 2 5 -32 -15 -30 -17 -22 0
29 8 20 22 28 4 24 15 -30 -27 -17 -2 -19 -5 -13 -3 -16 -18 -6 -32 0
18 28 19 7 15 -29 -27 -26 -25 -30 -32 -11 -3 0
-7 -31 -12 -29 0
6 27 28 7 22 9 19 10 13 18 24 16 21 32 5 3 -23 -29 -14 -8 -25 -31 -17 -11 -12 -20 -2 -15 -1 -30 0
10 18 17 27 7 16 -23 -30 -4 -9 -26 -1 -19 -11 -28 -12 -2 0
28 15 23 5 13 25 4 2 18 -6 -12 -1 -31 -10 -30 -16 -21 0
24 27 6 28 19 22 11 -9 -21 -3 -1 -13 -17 -20 -18 -30 -2 -32 -15 -16 0
31 4 28 7 21 6 3 30 24 13 29 20 22 -17 -8 -2 -5 -16 -12 -19 -26 -14 -10 -9 -32 -25 -11 -1 -27 -15 -18 0
32 19 24 28 26 22 -29 -4 -8 -12 -21 -10 -18 -3 -20 -2 -14 -5 0
25 4 5 26 18 -27 -22 0
10 24 2 4 18 22 31 5 30 11 7 16 26 -8 -12 -27 -23 -20 -6 -32 -21 -14 -19 -25 0
7 14 25 6 -1 -17 -15 -8 0
13 3 24 -11 -26 -10 -19 0
23 11 31 9 28 20 16 30 2 7 5 27 1 12 3 -32 -18 -10 -4 -8 -14 -19 -21 -13 -15 -17 -24 -22 -6 -26 0
22 9 17 3 10 24 27 8 16 14 6 12 26 30 11 -2 -5 -32 -18 -7 -31 -15 -29 0
22 24 -4 -20 -6 -31 0
24 15 30 16 3 -26 -20 -10 0
25 18 17 8 29 9 3 30 23 19 20 6 10 22 2 1 16 -13 -27 -32 -15 -11 -26 -24 -31 -4 -5 0
27 21 20 13 3 10 7 23 9 26 -29 -15 -19 -2 -17 -22 -18 -28 0
29 15 2 18 16 -6 -11 -14 -3 -19 -8 -9 -7 -30 -25 0
24 13 2 20 5 15 8 27 22 26 12 18 9 32 -6 -28 -31 -11 -21 -29 -30 -23 -14 -25 -1 -10 -16 -3 0
4 3 13 18 26 8 1 15 14 -19 -23 -22 -5 -10 -9 -24 -16 -29 -25 -31 -21 -30 -11 -17 -6 -7 -2 0
2 27 15 32 21 10 26 9 25 19 14 8 31 -7 -1 -30 -20 -6 -16 -3 -28 -23 -18 0
18 -27 -24 0
13 4 31 21 22 28 32 24 1 26 -30 -6 -20 -12 -29 -16 -11 -8 -7 -19 -15 -3 -5 0
30 17 21 5 19 15 -9 -7 -8 -27 0
20 28 15 11 1 19 17 12 24 13 6 2 3 25 30 18 -23 -31 -29 -21 -5 -9 -14 -10 -32 -4 -27 -16 -7 -22 -8 0
22 15 4 -24 0
18 15 32 13 19 -7 -6 -27 -2 0
16 30 17 28 11 1 14 27 25 -26 -8 -5 -18 -4 -31 -24 -23 -7 -12 -3 -32 -10 -2 -15 -20 -29 -13 0
11 18 9 -7 -29 -13 0
27 13 29 11 22 1 18 26 4 8 25 30 3 -24 -17 -21 -20 -9 -28 -2 -14 -15 -6 -19 -12 0
-28 0
32 1 29 13 9 -14 -17 0
24 9 27 25 13 5 30 1 20 17 -23 -3 -6 -11 -28 0
25 21 5 15 11 19 29 27 31 6 22 13 4 -32 -3 -26 -12 -18 -10 -17 0
9 23 27 26 22 18 19 2 13 21 30 -11 -8 -32 -5 -28 -10 -6 -1 -24 -16 -31 -17 0
