c NeuroCodeBench 2.0 CNF formula with verdict Sat
p cnf 100 649
19 18 50 6 100 55 14 62 81 22 8 26 2 85 72 93 52 15 12 77 54 16 69 58 61 35 95 41 65 34 71 74 57 31 78 89 24 36 97 96 68 82 47 21 87 -84 -30 -11 -9 -46 -32 -83 -56 -64 -86 -80 -88 -48 -53 -44 -51 -73 -29 -70 -63 -98 -49 -13 -90 -66 -91 -43 -60 -92 -75 -4 -94 -10 -33 -3 -37 -67 -59 -27 -25 -1 -42 -20 -79 -5 -38 -28 0
96 87 99 35 37 55 46 45 82 12 94 81 43 42 39 48 15 100 7 59 66 67 95 54 63 77 11 61 75 20 79 73 80 44 71 16 28 62 31 1 90 64 58 34 29 92 10 8 84 38 -4 -88 -9 -3 -76 -85 -86 -65 -97 -91 -22 -56 -30 -51 -32 -13 -6 -83 -98 -60 -69 -68 -50 -23 -14 -21 -17 -24 -27 -5 -25 -70 -89 -41 -57 -2 0
49 87 16 8 83 32 66 47 46 81 89 90 43 19 80 25 61 85 94 17 40 22 12 30 -7 -86 -2 -44 -27 -70 -33 -6 -64 -45 -9 -68 -24 -55 -92 -48 -67 -10 -31 -15 0
77 6 33 66 86 2 96 75 32 71 -17 -25 -49 -22 -1 -68 -24 -83 -94 -56 -85 -15 -19 -93 0
67 41 68 39 48 26 58 59 35 12 80 36 20 93 77 47 72 27 61 52 46 23 74 78 92 10 29 40 2 4 83 21 65 15 81 30 89 96 -45 -99 -18 -87 -91 -84 -73 -54 -70 -62 -56 -66 -34 -97 -3 -37 -85 -57 -60 -71 -95 -22 -8 -24 -55 -33 -88 -90 -94 -82 -100 -44 -28 0
32 48 26 33 96 53 41 20 11 88 46 30 17 40 27 89 49 8 7 90 35 85 92 22 72 59 64 -97 -50 -52 -18 -67 -73 -44 -16 -28 -31 -19 -65 -93 -81 -69 -87 -1 -66 -55 -6 -38 -60 -3 -45 0
91 86 32 18 100 84 52 73 51 36 7 34 64 27 66 89 23 55 71 24 21 45 22 25 14 19 37 94 93 90 4 59 85 49 42 10 -31 -35 -88 -87 -30 -17 -44 -26 -82 -81 -83 -65 -58 -78 -6 -8 -28 -43 -48 -77 -40 -63 -46 -96 -92 -3 -53 -50 -29 -16 -80 -9 -70 -57 -12 -95 -13 -15 -68 -62 -54 0
10 35 94 44 1 38 12 39 48 96 50 53 62 80 42 78 82 37 84 59 56 69 45 43 3 67 66 18 23 68 46 49 31 88 47 52 72 61 17 4 79 92 73 77 90 76 -100 -55 -30 -6 -15 -2 -70 -95 -13 -19 -40 -74 -97 -29 -32 -83 -9 -64 -98 -16 -24 -27 -26 -93 -25 -14 -7 -65 -11 -36 -86 -8 -33 -99 -87 -89 -85 -57 -91 -71 -81 -54 -58 0
17 24 50 71 59 63 43 82 41 85 40 16 46 89 28 22 70 67 35 80 100 27 65 92 72 51 62 56 12 54 99 19 96 38 -48 -84 -58 -37 -69 -93 -13 -8 -53 -9 -36 -7 -6 -95 -34 -98 -66 -75 -61 -33 -76 -97 -52 -49 -11 -3 -15 -64 -44 -23 -73 -31 -74 0
21 45 80 41 94 -8 -90 -51 -99 0
83 92 21 60 97 68 3 19 8 16 24 5 40 62 52 95 49 91 13 66 39 20 11 67 44 71 45 17 46 32 4 57 84 42 14 98 87 18 74 76 2 51 79 -94 -89 -15 -86 -88 -48 -72 -34 -73 -69 -43 -64 -53 -82 -99 -59 -31 -47 -41 -36 -90 -23 -27 -1 -70 -100 -6 -35 -26 -61 -28 -50 -33 -38 -80 -10 -12 -22 -63 -85 0
39 45 49 69 58 22 86 30 75 48 91 35 11 72 25 100 34 51 8 5 95 40 84 80 89 2 62 99 59 13 31 98 61 54 79 -36 -78 -46 -56 -70 -74 -47 -19 -27 -50 -41 -4 -23 -65 -14 -37 -81 -66 -10 -43 -42 -83 -44 -29 -20 -92 -6 -67 -3 -93 -15 -21 -52 -32 -17 -9 -76 -26 -38 -63 -28 -12 -18 -96 -60 -33 -97 -7 -68 0
83 93 67 88 98 26 5 27 85 62 52 25 -37 -94 -12 -11 -76 -41 -84 -22 -30 -8 -96 -56 -100 -95 0
38 82 5 20 57 63 28 98 51 6 76 46 97 42 7 25 -22 -33 -3 -29 -100 -67 -72 -27 -47 -70 -53 -86 -94 0
9 57 53 63 29 69 25 10 67 68 82 54 49 46 35 91 58 3 60 79 24 -4 -52 -75 -70 -5 -94 -85 -80 -83 -62 -86 -100 -13 -81 -66 0
18 9 8 52 22 19 63 35 23 83 25 86 58 53 87 27 3 69 -51 -46 -47 -7 -73 -93 -1 -4 -91 -68 -29 -28 -42 0
43 16 68 91 11 24 80 49 19 52 33 25 1 83 99 39 78 85 73 4 8 89 7 17 13 69 40 95 20 42 55 38 98 88 37 18 67 12 61 82 31 -6 -87 -28 -64 -2 -46 -35 -34 -74 -36 -81 -21 -72 -76 -44 -65 -93 -79 -32 -9 -41 -96 -3 -60 -22 -53 -90 -66 -30 -57 -29 -48 -45 -47 -86 -56 -14 -26 -54 -92 -70 -63 -97 0
62 76 44 15 27 48 -70 -39 -10 -13 0
72 32 3 49 26 59 60 96 42 5 55 29 12 81 87 53 -20 -90 -54 -11 -47 -58 -76 -77 -50 -21 -78 -94 -99 -74 -62 -34 -52 -28 -36 0
90 64 48 78 4 20 37 59 94 58 97 51 100 84 13 95 75 44 86 65 70 39 99 47 33 67 19 81 98 17 7 57 83 96 -1 -34 -5 -85 -24 -16 -79 -62 -56 -8 -21 -10 -31 -69 -6 -55 -61 -54 -76 -60 -77 -26 -43 -93 -50 -3 -71 -18 -74 -46 -66 -42 -14 -35 0
68 42 31 43 44 2 9 65 77 62 21 50 10 64 1 97 58 7 61 99 8 85 69 81 20 55 28 39 74 67 53 4 86 88 37 90 38 15 40 79 73 78 51 11 84 70 75 80 46 89 25 32 -30 -29 -41 -60 -35 -3 -98 -27 -87 -47 -91 -45 -94 -49 -83 -63 -57 -13 -93 -59 -48 -56 -33 -92 -100 -22 -19 -24 -76 -54 -82 -34 -6 -96 -52 -26 -36 -71 -95 -17 -12 -23 -72 -18 -16 -14 0
49 1 33 91 14 90 94 10 85 7 76 80 78 96 93 83 75 81 28 95 22 46 89 13 66 45 79 43 58 25 12 47 71 16 42 27 30 23 67 73 -44 -48 -59 -82 -53 -36 -41 -92 -37 -87 -40 -98 -21 -62 -84 -99 -6 -39 -26 -38 -57 -100 -3 -19 -2 -20 -63 -15 -51 -29 -32 -35 -70 -17 -65 -60 -56 -68 -4 -52 -8 -77 -55 0
1 17 26 70 82 11 25 49 32 68 58 10 69 72 31 67 21 65 61 44 34 75 41 -89 -100 -33 -9 -15 -80 -6 -62 -4 -37 -71 -27 -38 -19 -39 -91 -66 -79 -74 -2 -54 -78 -99 0
59 8 63 95 38 45 5 36 22 89 91 66 26 7 33 1 6 42 78 11 75 90 55 17 73 61 74 84 67 72 76 23 14 31 82 2 28 41 94 62 96 54 30 85 29 -88 -69 -19 -3 -83 -21 -77 -40 -86 -87 -80 -46 -27 -97 -47 -100 -12 -48 -58 -44 -93 -37 -79 -20 -43 -57 -65 -99 -68 -24 -98 -60 -81 -32 -53 -34 -15 -18 -4 -49 -39 -9 -56 -25 0
10 100 42 28 39 45 21 11 54 67 -81 -27 -17 -58 -52 -87 -5 -80 -61 -85 -38 0
40 13 23 9 29 46 21 70 66 -43 -15 -98 -90 -54 -89 -94 -99 -92 -36 -20 -91 -28 -79 -73 -5 -55 -17 -11 0
94 99 42 21 11 5 26 93 77 49 88 9 71 81 28 85 59 52 3 10 40 14 66 65 15 25 87 6 44 58 45 62 36 24 7 2 60 16 -61 -95 -47 -68 -43 -31 -57 -50 -84 -73 -92 -23 -78 -20 -54 -4 -13 -35 -53 -48 -46 -32 -82 -8 -91 -83 -29 -56 -37 -80 -100 -90 -27 -19 -64 -30 -72 -70 0
33 72 16 62 74 38 65 71 27 85 35 40 9 18 42 41 92 46 22 5 2 80 54 79 81 68 96 90 30 39 3 63 10 56 70 75 43 1 21 36 29 91 76 78 44 88 -69 -82 -13 -7 -8 -57 -77 -84 -95 -48 -45 -58 -14 -98 -52 -97 -31 -64 -49 -60 -99 -32 -19 -61 -94 -86 -4 -51 -59 -55 -15 -28 -93 -17 -73 -50 0
20 11 80 61 22 26 86 9 76 51 59 19 87 27 75 1 93 70 25 16 64 3 23 15 4 54 8 90 97 88 29 99 50 89 69 41 13 42 -100 -53 -5 -40 -36 -39 -92 -44 -91 -37 -21 -74 -60 -45 -14 -68 -66 -82 -98 -48 -31 -56 -18 -67 -38 -52 -17 -30 0
90 54 59 37 39 68 64 41 52 72 65 23 78 87 57 92 11 10 88 47 82 24 43 66 53 70 -7 -67 -61 -80 -9 -97 -44 -60 -76 -48 -30 -35 -95 -86 -73 -20 -77 -75 -46 -84 -93 -98 -96 -74 -38 -69 -83 -63 -49 -50 -16 -1 -18 -21 -40 -15 -17 -2 -28 -36 -4 -8 -58 0
40 65 11 42 44 39 8 63 94 97 89 19 66 15 17 84 3 46 -53 -73 -59 -95 -80 -10 -21 -64 -55 -58 -51 -9 -49 -29 -37 -93 -62 -82 -71 -32 -35 -13 -56 -48 -74 0
46 97 70 33 36 -54 -82 -50 -47 -12 -86 -8 -55 0
48 55 64 71 28 51 40 8 11 29 14 67 81 100 20 41 66 -62 -47 -57 -65 -4 -19 -73 -89 -96 -92 -16 -95 -35 -26 0
49 27 96 54 36 9 72 81 65 3 -87 -33 -44 -7 -50 -59 -39 -84 -64 -47 -58 -26 0
97 48 78 83 58 27 62 67 100 60 79 80 31 13 42 26 37 18 36 39 -71 -22 -66 -5 -76 -2 -9 -72 -40 -49 -88 -28 -92 -41 -98 -3 -47 -87 -21 -59 -86 -93 0
17 11 3 37 50 12 34 64 95 6 31 36 86 32 20 69 87 1 14 90 7 100 -54 -88 -72 -48 -21 -26 -33 -24 -10 -94 -49 -39 -9 -23 -18 -25 -4 -81 -27 -13 -93 -96 -42 -40 -29 -92 -5 -75 -61 -56 -70 -82 -57 -47 -52 -30 -73 0
7 2 48 82 8 20 66 29 75 27 41 37 62 42 30 1 54 18 14 50 95 49 6 60 57 9 3 52 22 93 26 -55 -24 -56 -65 -80 -40 -72 -58 -89 -33 -76 -100 -86 -13 -21 -92 -23 -4 -71 -70 -88 -34 -39 0
27 74 36 75 67 61 64 58 97 20 71 56 1 22 80 78 23 63 59 92 9 14 29 95 50 13 40 76 33 34 49 43 91 54 62 -96 -82 -30 -15 -89 -53 -24 -17 -18 -47 -100 -85 -52 -31 -16 -69 -73 -39 -72 -45 -8 -84 -70 -7 -19 -94 -42 -87 -88 -35 0
25 12 62 11 49 61 22 1 33 81 54 65 27 83 10 53 7 52 56 21 14 43 70 48 30 45 57 59 42 13 41 86 88 55 97 8 28 29 78 89 60 72 84 63 64 -66 -6 -79 -82 -100 -19 -58 -94 -50 -16 -4 -20 -23 -90 -32 -51 -31 -17 -93 -80 -15 -85 -47 -37 -77 -73 -26 -38 -40 0
6 68 80 76 2 34 92 17 54 31 60 26 64 27 79 94 55 96 69 44 56 61 32 5 23 41 38 63 59 87 19 14 -95 -58 -8 -93 -25 -91 -53 -86 -3 -88 -49 -12 -10 -7 -20 -37 -89 -46 -77 -45 -30 -28 -11 -21 -50 -72 -39 -1 -71 -84 -51 0
40 97 96 66 86 46 53 72 54 74 100 42 64 24 95 94 26 35 82 75 44 1 21 19 52 47 70 7 77 79 93 76 63 43 98 62 51 32 38 8 88 11 2 6 13 39 78 67 18 15 49 36 -29 -61 -87 -4 -34 -31 -10 -50 -59 -30 -45 -12 -65 -84 -23 -89 -60 -73 -25 -57 -17 -83 -28 -33 -14 -27 -22 -81 -99 -91 -5 -92 -58 -80 -20 -56 -90 -37 -71 -3 -41 -69 -68 -9 -16 -85 -48 0
40 90 100 44 17 58 74 83 41 98 11 -15 -23 -75 -14 -19 -35 -4 -88 -86 -33 -62 0
50 71 86 97 100 67 70 24 59 13 61 27 66 73 1 28 26 57 32 47 19 46 75 5 49 15 -31 -95 -87 -20 -60 -58 -78 -72 -6 -2 -93 -79 -3 -80 -11 -7 -91 -21 -45 -48 -4 -35 0
20 17 11 65 96 88 19 4 84 3 33 53 28 18 12 36 61 51 85 30 42 24 23 97 75 89 73 58 40 1 35 54 70 44 76 31 86 87 98 41 -7 -34 -37 -48 -91 -83 -69 -49 -55 -100 -99 -25 -15 -78 -63 -59 -47 -68 -16 -60 -77 -13 -82 -79 -10 -94 -72 -43 -21 -39 -9 -45 -80 -14 -56 -95 -90 -22 -57 -6 -50 -71 -29 0
33 50 41 26 48 44 70 20 8 75 95 23 28 96 43 25 22 42 16 60 79 84 46 68 -31 -12 -21 -94 -24 -74 -77 -47 -98 -69 -88 -30 -2 -56 -73 -6 -91 -19 -76 -11 -93 0
91 92 60 49 93 87 35 55 45 50 29 73 96 2 69 77 84 98 59 86 32 10 83 85 15 99 100 71 94 51 5 81 80 68 75 3 17 70 53 14 34 90 97 -95 -16 -44 -25 -37 -28 -38 -76 -26 -82 -21 -8 -62 -18 -78 -61 -33 -52 -27 -24 -36 -19 -9 -1 -42 -63 -22 -6 -43 -64 -72 -79 -46 0
2 1 26 44 34 45 40 79 75 92 11 87 35 94 54 60 21 4 97 12 69 52 25 71 84 93 7 49 30 48 59 89 63 43 20 42 27 65 38 46 17 70 13 24 -55 -80 -28 -98 -3 -47 -90 -73 -31 -14 -66 -64 -100 -67 -22 -58 -39 -50 -77 -37 -29 -81 -83 -72 -96 -23 -56 -95 -99 -76 -8 -51 -36 -78 -57 -88 -9 -5 -86 -53 -41 -68 0
7 20 97 -2 0
43 50 56 95 51 59 21 89 17 31 72 62 49 78 33 1 40 42 68 64 16 -66 -19 -27 -10 -73 -98 -87 -22 -14 -32 -52 -7 -15 -94 -6 -4 -99 -67 0
63 87 59 47 41 38 89 -6 0
41 95 43 93 88 77 36 92 49 57 31 47 56 27 12 14 1 28 39 100 26 63 96 24 23 48 52 34 74 51 61 94 69 35 73 44 90 29 17 68 38 99 98 87 4 64 45 -15 -37 -13 -7 -66 -50 -97 -86 -3 -58 -78 -32 -2 -79 -80 -33 -22 -46 -10 -89 -91 -67 -59 -9 -53 -16 -76 -71 -81 -40 -83 -20 -25 -42 -19 -5 0
77 38 6 19 92 39 62 67 18 76 43 47 12 52 87 97 63 41 80 8 72 9 16 65 93 10 -90 -25 -42 -29 -75 -70 -60 -81 -61 -5 -51 -13 -45 -66 -54 -40 -26 -84 -85 -48 -24 -44 -74 -49 -2 -22 -34 -78 -94 -64 0
39 44 94 51 8 43 59 66 64 12 -99 -16 -35 -96 -97 -24 -98 -32 -83 -82 -4 -36 -7 -15 -73 -5 0
25 48 83 95 31 72 6 98 28 54 49 16 43 97 76 64 1 57 90 7 87 55 79 23 15 8 93 -63 -18 -52 -17 -2 -39 -78 0
53 35 16 84 -15 -39 -24 -7 -50 -1 -23 0
59 -87 -7 0
11 38 51 66 92 15 14 33 21 63 17 44 97 90 48 7 28 57 36 1 55 22 39 12 -4 -16 -84 -31 -93 -37 -65 -72 -86 -76 -96 -87 -27 -23 -54 -20 -24 -46 -43 -8 -50 -70 -61 -95 0
25 24 9 1 52 53 95 44 97 13 83 7 27 59 4 45 -33 -36 -11 -93 -91 -51 -71 -23 -75 -94 -92 -81 -3 0
68 7 23 93 19 11 38 95 88 42 29 61 13 30 50 89 22 25 26 36 65 2 87 90 91 51 3 82 48 14 57 64 18 45 69 21 83 40 15 -66 -33 -60 -46 -97 -31 -53 -86 -85 -9 -17 -4 -96 -28 -6 -20 -1 -27 -72 -81 -70 -80 -12 -56 -32 -75 -92 -79 -39 -67 -47 -52 -55 -41 -58 -100 -84 -10 -78 -16 -76 -8 -74 -54 -94 -98 -35 0
34 42 54 28 55 39 90 7 9 58 30 80 79 86 35 -38 -65 -22 -16 -92 -48 -69 -23 -46 -70 0
77 53 82 80 -24 -18 -54 -88 -49 -60 -31 -1 -5 0
50 40 46 31 86 55 41 78 69 73 11 75 2 39 4 84 30 62 35 14 52 65 37 98 27 33 54 19 92 68 5 63 10 29 59 42 82 9 20 83 51 48 49 77 79 -12 -58 -34 -6 -13 -71 -21 -72 -96 -76 -28 -95 -91 -64 -32 -90 -53 -100 -87 -24 -66 -18 -74 -43 -23 -26 -57 0
41 69 53 15 49 51 39 96 76 70 81 73 20 90 -18 -35 -77 -43 -64 -75 -14 -45 -62 -26 -83 -93 -3 -61 -1 -32 -78 -100 0
29 28 15 2 5 90 52 21 43 36 66 88 58 6 67 55 47 60 96 74 69 24 -31 -57 -78 -48 -45 -83 -9 -3 -49 -53 -63 -76 -8 -34 -80 -50 -25 0
42 52 34 84 65 69 11 77 19 27 24 32 3 40 44 16 7 92 -79 -5 -14 -50 -60 -28 -62 -15 -97 -13 -86 -36 -37 -70 -76 -64 -89 -98 0
16 41 97 4 81 63 44 29 40 53 37 71 57 43 90 -49 -60 -73 -47 -17 -19 -85 -21 -96 -99 -88 -39 -69 -98 -45 -34 -10 -94 0
88 74 8 37 -58 -33 -56 -14 -9 -91 0
4 25 78 16 86 93 63 49 53 9 89 81 -74 -29 -7 -85 -32 -61 -77 -94 -15 -33 -38 -83 -31 -97 -76 -88 -37 -27 0
86 45 61 18 17 53 51 83 73 6 79 82 85 64 15 60 22 65 4 69 2 72 63 50 54 56 8 10 16 31 21 14 68 -24 -44 -1 -46 -47 -9 -30 -23 -40 -67 -70 -91 -3 -5 -12 -75 -77 -66 -99 -39 -78 0
50 47 29 72 40 70 71 65 84 96 10 43 73 42 28 17 61 77 44 79 89 56 95 59 75 81 24 91 8 97 45 37 74 46 36 21 4 26 69 -9 -22 -34 -94 -30 -63 -20 -31 -78 -51 -83 -85 -62 -48 -54 -11 -64 -90 -12 -38 -25 -100 -6 -52 -27 -87 -53 -3 -86 -99 -93 -18 -7 -14 -19 -2 -23 -88 -60 -92 -32 -33 -68 -67 -76 0
15 70 57 14 82 62 -96 -67 0
52 5 3 89 99 47 100 64 -58 -10 -59 -97 -9 -71 -77 -36 -37 -91 0
62 1 5 37 71 57 77 10 90 53 38 69 29 36 75 81 41 47 16 78 32 89 19 61 13 39 50 44 56 60 91 14 94 79 65 6 49 18 27 22 58 9 82 40 -8 -25 -15 -35 -70 -17 -21 -64 -30 -68 -7 -99 -86 -85 -67 -74 -55 -96 -95 -24 -88 -80 -63 -3 -72 -54 -93 -48 -2 -23 -31 -59 -76 -34 -12 -73 -92 -51 0
89 80 53 40 39 41 56 6 93 49 31 37 21 61 76 33 88 13 8 54 27 74 15 100 59 82 23 71 58 52 47 3 26 14 77 2 4 75 -70 -69 -98 -29 -22 -30 -67 -43 -24 -51 -65 -20 -16 -42 -96 -62 -97 -1 -68 -64 -11 -12 -57 -9 -86 -55 -83 -10 -38 -84 -35 -32 -25 -36 -63 -17 -90 -45 -95 -94 -50 -7 -34 -85 0
99 53 75 9 94 10 58 2 93 61 25 45 77 17 8 26 66 19 80 37 43 56 44 47 24 46 76 30 32 87 23 13 62 68 55 51 88 22 65 83 15 42 27 49 86 52 20 1 -33 -67 -92 -12 -81 -73 -78 -63 -90 -41 -6 -60 -72 -91 -4 -54 -16 -38 -95 -50 -69 -40 -74 -84 -85 -57 -48 -5 -59 -36 -34 -96 -28 -71 -97 -70 -31 -39 -35 -21 -7 -29 -18 0
34 28 27 82 13 50 25 12 8 97 21 80 5 4 81 37 89 44 23 62 73 70 26 98 79 10 76 16 38 43 40 46 95 11 31 57 49 51 45 14 66 22 96 77 17 33 85 52 60 -29 -67 -39 -32 -90 -78 -59 -58 -47 -3 -65 -18 -19 -42 -24 -6 -68 -30 -75 -61 -74 -54 -83 -20 -100 -48 -72 -53 -99 -2 -88 -94 -1 -91 -7 -35 -9 -64 -92 -93 -56 -55 -69 -87 -84 -15 0
84 64 62 14 30 46 89 -49 -5 -4 -74 -34 -32 0
45 31 52 43 6 86 65 92 72 71 68 26 34 47 40 90 78 53 10 30 76 84 20 70 54 2 75 21 74 -46 -9 -95 -55 -36 -24 -99 -32 -1 -56 -85 -97 -11 -62 -50 -77 -37 -13 -33 -98 -22 -35 -44 -73 -23 -42 -49 -67 -8 -5 -87 -60 -80 0
13 98 49 89 19 93 67 34 59 12 25 58 32 63 84 96 51 50 36 27 20 48 85 26 56 47 71 37 100 43 57 17 1 65 7 44 60 29 4 95 6 -77 -54 -83 -52 -40 -82 -31 -88 -9 -53 -11 -80 -41 -62 -3 -46 -33 -90 -99 -72 -64 -23 -2 -38 -94 -69 -42 -61 -87 -75 -55 -18 -28 -97 -5 -66 -86 -91 -35 -10 0
21 46 57 33 60 97 16 67 15 51 69 43 25 4 26 3 59 99 98 100 66 -95 -58 -54 -49 -22 -37 -94 -64 -42 -78 -28 -2 -76 -73 -29 -38 -80 -63 -39 -96 -10 -77 -9 -17 -8 -40 -72 -41 -45 -30 -75 -19 -12 -13 -6 -89 -65 -5 -93 -44 0
99 46 71 14 3 28 31 6 10 53 20 15 85 22 17 89 68 9 59 57 21 16 51 36 -55 -76 -35 -11 -41 -90 -43 -19 -50 -65 -29 -27 -93 -79 -88 -48 -26 -82 -77 -75 -24 -58 0
20 73 70 29 24 66 44 27 88 80 59 74 65 67 99 -58 -89 -32 -12 -26 -97 -84 -69 -57 -51 -40 -85 0
10 -77 -67 -19 -35 0
70 48 9 97 41 62 24 45 11 46 30 23 17 12 -59 -14 -86 -16 -51 -60 -61 -13 -78 -90 -1 -33 -76 0
70 73 49 38 9 17 32 83 99 95 16 35 68 59 12 11 25 30 65 93 51 21 28 71 63 62 41 66 53 1 18 40 84 46 56 15 2 48 76 58 -85 -69 -23 -79 -42 -22 -31 -52 -81 -45 -75 -27 -54 -36 -88 -90 -78 -37 -86 -47 -13 -80 -74 -10 -3 -98 -96 -55 -61 -82 -89 -87 -72 -67 -92 -14 -94 -60 -100 -57 -33 -20 -39 -50 -91 -77 -44 -4 -34 0
11 93 72 83 7 6 58 2 20 70 23 89 98 87 36 60 39 75 3 45 50 32 80 74 68 57 34 4 26 18 65 19 41 37 67 88 30 1 -17 -64 -78 -81 -40 -49 -52 -100 -10 -46 -61 -8 -16 -71 -22 -15 -59 -14 -56 -33 -99 -54 -62 -27 -5 -77 -24 -73 -38 -12 -44 -51 -25 -90 -84 -91 -31 -55 -63 -43 -82 -9 -21 -76 -66 0
78 94 91 92 24 42 49 70 31 26 5 72 18 1 2 37 45 86 23 65 77 27 83 88 8 21 -28 -85 -58 -80 -53 -76 -34 -12 -99 -64 -52 -15 -90 -40 -63 -17 -95 -3 -32 -71 -69 -14 -48 -13 -82 -54 -56 -67 0
52 16 75 81 74 3 77 45 7 58 12 2 59 30 35 13 70 18 34 43 6 40 50 68 96 98 61 73 11 19 56 82 94 84 92 29 64 38 63 32 66 5 83 62 27 57 -89 -79 -44 -10 -17 -53 -9 -55 -36 -37 -86 -78 -87 -90 -39 -47 -28 -31 -72 -41 -54 -91 -1 -71 -99 -4 -22 -20 -85 -46 -93 -95 -69 -25 -49 -48 -97 -60 -23 -42 -51 -67 -80 -33 -88 -76 0
36 84 26 12 18 55 94 50 4 29 15 90 68 21 14 45 16 9 7 59 39 76 87 52 13 95 83 10 57 93 91 19 92 25 30 78 24 70 75 98 81 64 88 -69 -33 -53 -28 -56 -32 -8 -97 -38 -85 -17 -6 -82 -5 -40 -11 -65 -71 -66 -62 -79 -86 -54 -27 -89 -34 -51 -41 -49 -77 -2 -20 -31 -1 -43 -96 -37 -35 -58 -42 -60 -61 -99 -67 -46 0
86 42 84 82 45 41 66 58 8 32 80 37 21 11 70 43 64 90 10 91 13 52 81 74 28 1 75 69 26 4 63 17 67 47 73 29 68 14 83 38 6 36 -15 -53 -12 -96 -22 -59 -87 -85 -19 -60 -30 -9 -16 -44 -18 -39 -57 -97 -88 -3 -5 -98 -35 -55 -78 -92 -94 -50 -7 -40 -93 -2 -20 -48 -34 -31 -61 -24 -76 -56 -27 -25 -62 -99 -95 -33 0
93 7 2 66 99 70 12 62 58 5 64 59 38 71 79 27 77 23 35 8 69 10 44 39 3 24 15 32 98 26 49 1 14 -63 -78 -76 -61 -57 -91 -54 -36 -100 -95 -80 -51 -42 -89 -88 -75 -37 -6 -48 -68 -85 -46 -65 -67 -13 -34 -43 -47 -96 -73 0
80 20 47 11 83 17 19 41 12 99 78 18 10 88 67 48 86 26 79 64 62 92 73 96 1 44 40 29 35 -51 -61 -75 -56 -95 -69 -30 -3 -82 -9 -93 -70 -66 -74 -57 -100 -53 -34 -31 -16 -22 -21 -76 -60 -46 -24 -50 -91 -94 -13 -8 -65 -5 -49 -43 -98 0
56 35 86 36 53 91 65 48 7 78 25 45 99 46 92 17 22 26 89 28 11 81 69 -84 -94 -51 -44 -21 -77 -15 -9 -6 -96 -12 -82 -1 -70 -66 -76 -41 -85 -62 -4 -29 -19 -13 -3 -87 -43 -30 -49 -47 -42 -98 0
22 69 37 41 24 51 15 70 26 100 67 7 8 83 82 28 88 49 68 38 97 16 17 63 -54 -29 -99 -40 -87 -43 -23 -34 -98 -19 -95 -59 -50 -36 -61 -66 -47 -30 -76 0
96 48 12 8 57 89 45 63 64 69 35 37 60 79 9 93 31 53 14 1 10 42 70 67 17 50 88 18 19 30 81 52 11 76 99 54 21 28 49 -71 -40 -55 -84 -20 -56 -59 -77 -66 -58 -26 -78 -32 -3 -22 -24 -94 -6 -68 -23 -95 -92 -43 -47 -2 -27 -51 -13 -74 -5 -44 -83 -82 -39 -98 -36 -65 -46 -29 -33 -75 -16 -90 -7 -38 -25 -4 -73 -85 -97 -86 -100 -34 -41 -87 0
23 99 69 20 30 33 47 94 68 28 -45 -91 -29 -27 -78 -83 -70 -36 -71 0
84 76 9 16 22 4 87 59 24 69 60 91 83 31 32 29 100 95 97 27 79 39 21 94 53 23 48 85 6 46 93 38 54 -43 -88 -89 -2 -81 -65 -51 -74 -98 -37 -64 -17 -7 -50 -80 -25 -47 -52 -77 -72 -35 -36 -96 -90 -13 -45 -70 -34 -68 -58 -33 -75 -30 -63 -67 0
40 90 36 99 53 30 61 54 60 83 23 74 46 16 67 100 7 81 41 42 19 89 35 33 39 22 38 17 14 47 1 76 6 20 44 64 2 77 31 12 -11 -95 -72 -59 -65 -92 -13 -29 -78 -51 -86 -58 -34 -79 -87 -93 -18 -8 -71 -70 -56 -80 -24 -94 -84 -62 -63 -97 -5 -27 -52 -32 -48 -45 -37 -9 -21 -49 -4 -10 -25 -73 -26 -82 -66 -50 -28 -88 -96 -69 0
50 39 89 13 49 64 18 68 59 47 17 69 8 48 91 51 36 65 97 54 3 98 19 37 73 75 10 28 56 93 27 -7 -80 -99 -6 -92 -90 -83 -94 -34 -29 -78 -60 -57 -41 -87 -74 -71 -30 -14 -38 -66 -35 -1 -58 -70 -32 -79 -85 -55 -96 -77 -40 -95 -43 -88 -61 0
54 60 78 98 9 70 84 31 67 23 75 33 13 20 96 44 66 68 95 2 41 46 47 29 42 64 73 4 40 57 72 55 14 28 50 82 45 27 53 74 25 26 22 51 81 56 -59 -7 -16 -30 -77 -34 -21 -63 -83 -1 -43 -49 -93 -35 -17 -69 -6 -37 -62 -18 -48 -85 -76 -92 -19 -52 -58 -8 -12 -24 -11 -100 -5 -88 -80 -90 -39 -65 -61 -71 -86 -15 -3 -89 0
50 6 7 14 -62 -66 -75 -72 -100 -8 -80 -93 0
9 77 89 33 96 72 93 88 94 25 6 5 15 73 20 69 53 13 42 17 36 78 80 83 62 82 29 75 24 49 84 10 66 100 12 21 56 41 47 -18 -57 -54 -8 -31 -50 -67 -51 -52 -76 -39 -92 -30 -65 -27 -87 -61 -48 -1 -55 -2 -90 -95 -46 -71 -98 -16 -35 -85 -11 -4 -45 -38 -34 -68 -58 -74 -60 -37 -91 -97 0
61 53 57 83 60 35 75 77 79 98 48 58 100 74 28 45 1 9 42 30 92 -47 -76 -43 -65 -67 -82 -13 -55 -4 -5 -66 -95 -97 -34 -69 -7 0
99 11 72 24 62 90 94 10 80 9 19 58 88 64 31 97 32 71 85 96 8 77 78 57 87 52 91 23 14 73 36 47 22 7 83 66 17 1 27 54 81 39 33 21 82 92 3 -76 -4 -53 -69 -59 -6 -95 -74 -89 -49 -50 -60 -37 -56 -100 -16 -68 -79 -15 -43 -67 -84 -28 -75 -98 -51 -12 -40 -45 -34 -35 -29 -13 -55 -30 -41 -86 -18 -48 -61 -25 -44 -70 -38 -26 0
95 81 61 98 30 17 3 56 78 31 27 62 -51 -67 -53 -9 -39 -82 -6 -83 -26 -12 -4 -96 -41 -50 -76 -91 -23 0
56 50 11 55 24 15 32 92 29 81 48 78 58 86 42 71 60 18 10 35 83 88 27 79 82 13 49 38 67 59 17 98 33 46 8 -36 -20 -41 -3 -52 -85 -51 -91 -94 -97 -37 -4 -1 -47 -34 -45 -73 -64 -96 -19 -87 -69 -89 -100 -54 -31 -9 -6 -7 -12 -72 -14 -95 -43 -61 -25 -16 -90 -80 -63 -44 -26 -74 -21 -70 -99 -2 0
32 76 10 79 19 7 30 86 13 38 29 97 46 65 11 -68 -60 -28 -9 -33 -31 -75 -74 -81 -18 -57 -58 -77 -20 -87 0
72 96 54 69 62 75 51 68 -34 -73 -7 -53 -95 -84 -40 -66 0
53 55 88 49 99 51 33 5 93 13 31 86 26 64 46 18 3 27 78 61 96 83 11 34 80 71 38 50 15 48 63 60 32 39 47 29 41 91 72 74 7 44 40 19 12 -52 -58 -62 -10 -100 -37 -90 -57 -9 -76 -42 -59 -94 -66 -67 -21 -98 -77 -1 -14 -17 -23 -69 -28 -73 -4 -85 -54 -8 -79 -43 -75 -56 -97 -45 -22 -65 -6 -68 0
26 5 92 99 1 12 7 58 89 67 85 19 43 46 -10 -32 -44 -76 -8 -15 -11 -83 -56 -37 -24 -64 -75 -39 -55 -70 -69 -3 -21 -77 -60 0
10 32 82 96 3 95 23 94 15 36 49 80 77 74 43 60 45 22 87 11 52 76 31 37 34 73 17 97 29 78 86 99 5 81 24 79 21 2 -38 -64 -27 -63 -89 -40 -75 -84 -90 -83 -1 -12 -42 -68 -67 -7 -91 -26 -71 -16 -51 -44 -4 -25 -85 -62 -54 -14 -8 -56 -18 -48 -30 -93 -9 -88 -28 -55 -72 -92 -20 -61 -6 -70 -53 -39 -33 -47 -59 -58 0
97 88 60 59 45 90 94 71 86 50 99 19 73 9 1 39 -16 -55 -69 -3 -92 -29 -52 -70 -48 0
72 62 99 65 82 48 37 49 74 59 33 41 -32 -90 -83 -21 -60 -94 -16 -20 -75 -55 -39 -87 -52 0
54 3 57 78 77 39 16 14 69 84 33 62 50 -35 -23 -7 -70 -81 -76 -68 -5 -61 0
27 67 75 65 49 83 8 94 72 46 68 24 22 4 95 63 53 64 39 21 52 51 38 61 57 16 30 42 88 -86 -28 -79 -82 -29 -62 -33 -77 -44 -18 -40 -25 -11 -12 0
57 90 65 46 30 11 17 84 36 49 4 67 39 33 87 93 62 97 63 81 12 38 86 35 13 5 85 1 79 27 16 25 24 34 8 60 89 73 14 95 56 -96 -23 -99 -48 -61 -40 -43 -6 -31 -76 -47 -52 -92 -3 -88 -58 -78 -32 -83 -2 -15 -82 -70 -21 -53 -37 -29 -69 -68 -19 -59 -80 -45 -94 -64 -77 -41 -44 -50 -74 -7 -51 -10 -18 -9 -42 -71 0
22 37 73 84 98 27 91 14 71 56 44 64 51 7 28 2 9 6 74 13 41 47 38 80 62 92 45 97 16 32 61 99 40 68 4 11 70 49 29 85 26 67 77 8 43 -88 -58 -59 -21 -24 -78 -12 -76 -15 -60 -39 -42 -89 -30 -5 -1 -57 -48 -63 -100 -54 -72 -96 -36 -31 -66 -33 -53 -50 -69 -82 -46 -65 -34 -35 -10 -52 -20 -55 0
93 67 22 18 60 23 49 88 87 61 46 4 80 11 10 89 14 83 69 34 20 95 91 51 54 68 24 -9 -15 -40 -63 -74 -66 -72 -13 -16 -71 -97 -45 -33 -30 -84 -21 -100 -43 -77 -48 -92 -19 -44 -36 -76 -90 -50 -85 -8 -28 -3 -5 -98 -94 0
77 8 10 60 3 48 70 89 80 -64 -63 -6 -14 -97 -99 -15 -20 -11 -1 -67 -42 -46 -50 -29 0
40 100 76 24 63 73 56 49 70 17 23 13 91 1 78 47 67 25 95 3 80 97 57 10 42 58 30 82 4 54 34 16 61 99 9 11 18 52 19 -2 -96 -69 -29 -37 -75 -20 -84 -46 -74 -51 -66 -53 -35 -85 -77 -92 -64 -5 -38 -71 -27 -15 -86 -33 -26 -32 -62 -8 -68 0
35 88 69 77 82 85 68 17 70 18 6 97 26 30 22 45 -53 -57 -13 -39 -46 -51 -75 -16 -42 -23 -66 -87 -54 -40 -31 -36 -21 -84 -90 -9 0
69 10 9 16 68 73 32 77 43 17 27 49 34 11 2 75 58 44 -22 -20 -3 -4 -26 -85 -25 -13 -52 -94 -92 -84 -87 -67 -6 -71 -5 -70 -19 -50 0
47 2 29 4 43 99 30 80 51 34 36 91 15 14 86 58 6 73 89 1 85 71 57 42 31 -38 -55 -98 -84 -77 -79 -13 -19 -56 -25 -66 -11 -90 -82 -97 -72 -69 -75 -62 -17 -23 0
54 27 88 25 -39 -55 -59 0
53 67 92 55 12 48 75 10 100 16 85 62 3 30 43 44 99 7 6 95 91 58 56 49 71 19 5 60 46 8 18 57 17 36 93 -32 -11 -97 -54 -72 -23 -47 -1 -80 -45 -64 -33 -59 -63 -40 -87 -94 -22 -98 -42 -29 -15 -79 -96 -25 -50 -68 -27 -61 -24 -86 -73 -4 0
37 67 40 33 9 96 94 43 52 73 74 17 95 19 39 81 24 21 -3 -32 -16 -5 -87 -82 -71 -75 -86 -66 -89 -1 -46 -72 -7 -22 -11 -47 -28 -59 -91 -6 -12 -4 0
27 17 4 100 14 85 90 30 72 99 16 26 38 69 60 23 39 82 94 73 62 57 2 93 44 40 7 81 51 87 34 13 10 8 79 98 59 45 15 24 9 21 96 46 1 50 97 -48 -88 -28 -6 -95 -91 -86 -83 -22 -49 -71 -5 -53 -35 -20 -76 -41 -56 -19 -11 -78 -80 -29 -42 -66 -63 -37 -75 -12 -89 -74 -61 -3 -67 -32 -92 -77 -54 -18 -52 -64 -65 -33 -84 -70 -58 -31 -68 -47 -25 -55 0
29 92 90 27 10 41 -14 -85 -17 -84 -26 -79 -59 0
59 15 44 88 52 87 73 42 81 91 26 35 3 1 37 54 36 30 70 49 84 32 65 58 72 17 4 61 9 6 66 94 8 -79 -51 -56 -98 -28 -12 -64 -43 -11 -78 -53 -10 -90 -5 -55 -74 -34 -14 -69 -13 -100 -38 -83 -67 -7 -23 -21 -82 -33 -46 -39 -2 -19 -75 -80 -68 -22 -47 -89 -48 -86 -29 0
48 35 89 59 95 39 18 1 49 76 80 82 33 85 78 30 93 79 61 9 12 73 -26 -17 -69 -81 -83 -92 -55 -16 -6 -8 -40 -10 -77 -63 -20 -37 -94 -23 -36 -84 -3 -31 -2 -100 -98 0
3 60 81 35 42 54 51 21 83 84 28 85 64 49 19 65 96 69 23 1 -17 -29 -26 -36 -41 -20 -88 -66 -68 -63 -93 -72 -58 -7 -31 -57 -59 -13 -67 -99 -15 -4 -34 0
94 5 4 62 89 93 17 97 69 32 30 61 21 3 64 68 35 1 59 96 -19 -26 -53 -44 -49 -65 -39 -87 -37 -36 -12 -23 -33 -56 -90 -48 -24 -98 -95 -6 -75 -2 -100 -80 -46 0
22 46 63 82 5 73 83 21 35 100 53 24 44 49 26 42 64 9 65 20 89 60 58 92 54 94 68 1 3 70 87 8 16 45 6 86 96 29 13 14 81 10 76 17 51 -72 -50 -85 -75 -95 -93 -57 -18 -90 -31 -43 -40 -15 -56 -48 -78 -67 -84 -69 -32 -37 -4 -39 -47 -38 -98 -7 -11 -25 -91 -41 -28 -80 -77 -36 -66 -33 -79 -19 -99 -55 -23 -61 -34 -30 -62 0
89 48 55 71 75 6 76 16 73 45 26 31 9 98 22 92 80 12 38 21 20 -27 -88 -14 -1 -18 -84 -36 -58 -52 -62 -72 -77 -86 -34 -60 0
83 26 92 99 51 45 10 22 61 9 76 6 2 98 46 42 14 70 -5 -94 -56 -17 -43 -41 -89 -7 -37 -71 -96 -65 -62 -30 -82 -63 -32 0
47 74 38 22 39 4 82 92 33 80 84 100 86 96 23 14 48 90 11 69 83 75 10 34 70 -50 -2 -8 -67 -28 -35 -44 -63 -40 -81 -24 -61 -37 -25 -73 -59 -77 -78 -9 -16 -72 -32 -36 -17 -52 -65 0
22 49 91 95 52 35 99 74 89 29 64 25 3 23 76 4 9 43 94 39 96 -70 -31 -2 -21 -45 -5 -66 -26 -50 -27 -69 -20 -1 -62 -41 -38 -65 -14 -85 -6 -33 -8 -24 -47 -82 -83 -34 0
65 64 28 12 29 59 90 82 1 50 24 39 75 55 76 6 68 73 63 79 21 52 74 25 92 47 85 97 3 15 35 91 -31 -13 -49 -51 -66 -27 -67 -41 -93 -100 -34 -46 -26 -14 -80 -40 -17 -95 -30 -44 -84 -9 -23 -32 -18 -36 -33 -94 0
95 21 10 -90 -68 -52 -50 0
81 100 47 80 3 51 83 58 16 49 98 53 91 99 78 14 24 2 27 87 41 79 69 96 33 70 11 5 76 62 26 40 97 34 59 19 42 74 -84 -18 -10 -66 -13 -44 -43 -21 -22 -55 -4 -75 -71 -63 -23 -93 -54 -68 -25 -29 -50 -72 -94 -56 -48 -30 -95 -67 -15 -89 -90 -60 -92 -28 -64 -61 -52 -20 -45 -65 -7 -31 -37 -57 -9 -85 -46 0
30 89 79 12 57 34 40 95 44 98 46 50 6 11 31 45 39 88 28 56 86 43 20 3 9 62 42 61 51 16 70 97 21 87 71 75 92 38 72 33 54 73 68 81 90 19 77 85 52 7 -26 -55 -47 -8 -4 -22 -100 -18 -10 -5 -99 -76 -37 -69 -83 -14 -32 -53 -91 -36 -13 -48 -41 -65 -49 -96 -78 -82 -63 -64 -35 -94 -58 -1 -17 -29 -25 -59 -84 -66 -74 -27 -15 -93 -80 -24 -2 -23 -60 0
13 26 88 2 65 24 30 18 21 17 63 71 14 56 16 93 99 57 87 86 59 20 98 52 22 64 74 35 81 70 83 -49 -97 -72 -36 -12 -94 -80 -23 -4 -51 -95 -31 -25 -90 -58 -77 -34 -42 -7 -100 -61 -28 -67 -55 -75 -66 -84 -9 -69 -73 -78 -89 -92 -44 -53 -3 -27 -45 -10 -60 -32 -38 0
91 29 56 79 61 22 14 15 35 81 34 43 75 -37 -86 -88 -94 -62 -89 -76 -77 -52 -95 -41 -42 -44 0
15 58 23 35 30 54 90 17 68 20 74 91 -100 -39 -96 -48 -49 -18 -37 -97 -29 -26 -9 -62 -83 -82 -21 0
55 91 22 75 23 73 79 97 47 53 77 37 15 40 67 50 25 99 30 4 5 31 83 44 82 100 64 21 84 38 8 69 27 1 74 81 70 58 6 95 76 28 78 46 86 92 65 -33 -24 -11 -94 -87 -14 -96 -63 -43 -56 -26 -85 -90 -93 -16 -18 -51 -49 -59 -12 -80 -41 -89 -66 -17 -62 -72 -13 -57 -29 -39 -88 -7 -10 -34 -9 -98 -32 -36 -68 -19 -60 -61 -2 0
97 2 85 36 60 61 59 16 -98 -58 -90 -4 -13 -50 -49 -55 0
33 98 64 69 49 13 7 28 15 -97 -100 -10 -1 -48 -34 -47 -2 -86 0
35 29 96 49 38 82 56 20 34 86 89 98 78 47 3 11 48 44 92 9 69 50 5 24 88 25 -83 -65 -93 -30 -8 -28 -16 -46 -22 -1 -64 -39 -73 -63 -23 -85 -60 -41 -40 -53 -84 -68 -37 -15 0
53 40 74 81 9 37 85 48 90 50 94 78 96 68 61 57 77 41 29 1 35 27 36 10 2 83 58 -39 -54 -8 -32 -5 -67 -26 -49 -43 -24 -7 -52 -11 -45 -75 -66 -30 -87 -22 -18 -38 -64 -13 -44 -69 -23 -3 -76 -86 -84 -70 -6 -56 -79 -46 -31 -82 -4 0
17 5 70 90 93 82 98 8 31 92 23 24 91 32 46 71 62 63 1 44 28 51 15 49 41 42 14 40 48 54 45 -65 -6 -95 -73 -60 -35 -37 -4 -69 -67 -29 -55 -64 -84 -36 -74 -18 -38 -12 -66 -88 -25 -2 -72 -76 -9 -50 -3 -68 -59 -33 -20 -43 -87 -10 -94 -19 -86 -81 -57 -79 -47 -58 0
47 51 53 30 55 79 88 87 -58 -91 -78 -32 -76 -63 -31 -57 0
60 29 25 66 -100 0
80 -97 0
32 45 78 94 41 58 74 -3 -9 -67 -50 -10 -95 -37 -23 -80 -87 -12 -35 -14 -47 -46 -8 -64 -73 -29 -19 -33 -53 0
77 76 32 20 45 3 40 68 98 26 31 37 80 5 70 24 63 58 62 73 19 81 14 95 57 71 93 30 12 1 61 82 51 90 83 -16 -27 -66 -79 -96 -46 -91 -43 -34 -44 -6 -85 -36 -56 -55 -65 -84 -88 -86 -49 -25 -41 -89 -75 -94 -29 -18 -47 -8 -60 -17 -52 0
50 83 26 73 69 94 39 34 64 58 78 79 74 30 10 67 80 59 60 12 16 87 68 81 70 23 8 71 24 82 31 -5 -62 -57 -89 -72 -85 -77 -45 -17 -27 -40 -44 -42 -63 -86 -36 -52 -21 -99 -51 -6 -4 -53 -2 -32 -25 -9 -55 -91 -48 -61 -88 -66 -29 -43 -1 -56 -20 -13 -76 -15 -37 -3 -54 -19 -97 0
28 91 38 69 3 73 25 99 52 55 26 37 2 42 94 98 88 81 92 75 1 39 34 80 24 66 -72 -53 -100 -30 -31 -60 -90 -44 -59 -50 -78 -51 -18 -97 -96 -85 -49 -79 -6 -46 -41 -56 -32 -27 -13 -57 -68 -36 -84 -47 -87 -54 -22 -5 -4 -70 -76 -61 -48 -65 -77 -33 -11 -35 -29 0
18 44 40 26 53 25 4 69 88 96 31 68 80 48 79 78 6 60 15 7 39 50 72 35 61 2 62 41 77 95 94 37 52 66 54 13 46 97 16 -42 -98 -17 -24 -34 -20 -65 -49 -5 -76 -30 -71 -21 -73 -43 -89 -74 -93 -29 -57 -32 -19 -28 -45 -87 -85 -75 -33 -92 -81 -22 -58 0
88 46 98 38 28 51 8 85 5 100 59 35 57 44 72 66 80 45 48 42 60 93 37 26 91 67 78 22 4 -97 -13 -43 -75 -11 -18 -32 -94 -68 -95 -53 -65 -24 -90 -77 -79 -86 -83 -62 -87 -58 -74 -71 -31 -41 -76 -10 -19 -30 -56 -33 -15 -27 -6 -52 -17 -16 0
76 92 52 86 34 23 24 62 45 66 94 30 57 -9 -50 -98 -22 -33 -84 -47 -39 0
77 52 66 50 14 71 88 59 96 39 36 33 15 74 17 1 9 81 3 97 63 86 100 83 99 84 32 30 6 18 22 38 79 40 4 90 57 65 58 25 26 80 -5 -98 -23 -56 -87 -54 -12 -55 -70 -69 -19 -41 -73 -7 -28 -94 -68 -91 -78 -67 -82 -64 -45 -29 -76 -53 -11 -8 -31 -35 -85 -95 -37 -89 -46 -10 -72 -51 -48 -13 -2 -24 -49 -43 -92 0
20 86 45 42 82 57 66 8 65 5 3 29 88 17 18 31 37 40 44 48 7 33 12 50 81 83 43 2 47 56 -87 -46 -94 -99 -96 -41 -28 -58 -35 -19 -95 -92 -13 -91 -72 -61 -71 -25 -23 -75 -34 -89 -93 -53 -4 -62 0
97 98 63 2 16 44 71 -48 -51 -15 -74 -14 -89 -5 -38 -73 -53 -42 -13 -84 -27 -65 -1 0
18 25 44 21 78 81 28 88 52 80 22 59 37 62 79 32 87 71 49 64 100 38 84 14 -91 -93 -74 -16 -41 -86 -61 -17 -19 -60 -33 -26 -35 -56 -5 -51 -3 -24 -76 -75 -8 -99 -98 -89 -94 -20 -15 -34 -12 -42 -30 -55 -50 -36 -96 0
45 47 78 90 82 73 98 64 14 74 52 38 36 20 84 31 79 48 76 3 46 75 32 50 -61 -18 -49 -80 -1 -91 -99 -68 -13 -97 -30 -25 -62 -57 -92 -4 -69 -35 -71 -96 -87 0
78 8 9 55 70 98 37 3 93 80 58 52 76 13 42 45 -44 -56 -53 -7 -6 -48 -92 -96 -73 -30 -94 -72 -46 -11 0
62 93 27 67 17 89 18 77 74 36 81 16 65 100 86 26 34 88 94 1 11 58 51 53 -21 -78 -6 -38 -35 -25 -24 -13 -15 -55 -31 -42 -72 -82 -57 -37 -32 -29 -64 -80 -97 -73 -19 -83 -61 -68 -91 -7 -63 -3 0
29 85 65 3 58 11 59 28 19 51 49 37 82 76 47 21 43 63 57 64 31 17 14 74 86 27 32 66 56 9 10 12 25 -20 -92 -93 -34 -87 -73 -79 -75 -18 -71 -48 -26 -77 -40 -88 -69 -68 -15 -89 -6 -45 -67 -78 -46 -33 -16 0
29 10 7 65 -30 -81 -80 -71 -55 0
80 21 90 85 24 88 29 31 91 3 97 52 69 16 33 10 12 92 82 32 66 40 15 77 81 36 46 98 11 6 68 75 100 47 38 17 34 -76 -20 -2 -27 -28 -79 -35 -67 -65 -70 -13 -1 -26 -62 -86 -56 -48 -60 -39 -87 -23 -72 -58 -57 -84 -5 -25 -50 -14 -89 -44 -8 -53 -41 -18 -61 -78 -73 -59 -93 -7 -42 -51 -9 -55 0
65 64 15 40 22 24 57 76 86 6 89 52 73 34 98 54 59 99 3 68 42 16 72 28 70 21 -61 -62 -19 -78 -50 -87 -10 -100 -14 -46 -38 -67 -45 -60 -66 -69 -83 -74 -26 -31 -30 -32 -39 -95 -93 -71 -55 -75 -23 0
78 10 88 33 59 18 3 74 99 65 92 73 45 62 67 29 82 11 31 15 64 20 53 51 66 91 98 55 60 -14 -79 -13 -44 -84 -50 -1 -70 -77 -56 -36 -41 -12 -89 -97 -43 -42 -19 0
-56 -54 -60 -73 -76 0
41 16 68 3 26 73 58 57 1 -67 -14 -24 -71 -43 -32 -64 0
20 26 28 100 40 -5 -60 -51 0
24 77 23 87 21 65 58 6 41 83 45 25 5 55 96 35 29 47 37 56 59 76 20 62 89 48 1 12 13 91 40 19 11 90 39 94 69 70 51 50 92 42 97 95 -66 -74 -82 -63 -10 -100 -36 -75 -7 -17 -31 -86 -99 -43 -8 -84 -80 -53 -22 -57 -3 -49 -34 -67 -85 -9 -78 -52 -27 -71 -61 -38 -73 -2 -15 -16 -60 -32 -33 -64 -81 -88 -44 -68 -98 -46 0
26 54 78 23 93 46 50 80 75 39 49 15 3 87 12 42 8 40 53 25 33 76 31 14 63 58 94 69 -91 -65 -21 -11 -19 -89 -100 -36 -60 -97 -5 -56 -68 -37 -22 -73 -7 -24 -32 -2 -77 -41 -99 -57 -85 -64 -13 -9 -16 -88 -27 -95 -92 -28 -70 0
18 67 72 44 66 55 52 34 48 7 22 1 38 57 64 46 51 32 -59 -86 -12 -30 -99 -95 -36 -13 -60 -96 -69 -91 -65 -88 -26 -92 -21 -41 -42 -71 -24 -61 -31 0
85 57 70 73 66 35 48 45 18 32 17 82 27 7 44 97 -76 -16 -95 -69 -100 -74 -88 -19 -86 -1 -4 -64 -93 -81 -91 0
36 19 37 90 9 76 68 5 -31 -41 -4 -34 -20 -43 -26 -97 -62 -1 0
4 62 51 94 55 15 100 71 78 52 31 7 3 91 5 33 25 -44 -24 -97 -28 -13 -60 -23 -11 -40 0
58 4 21 80 31 3 78 -93 -53 -23 -82 -79 -39 0
63 74 55 14 -53 -66 -29 -59 -56 -36 0
20 75 17 53 48 85 58 33 7 2 6 -8 -69 -24 -92 0
10 71 27 36 6 45 46 96 76 54 93 18 56 58 89 30 66 53 49 73 75 -41 -52 -33 -68 -74 -98 -81 -44 -29 -85 -37 -97 -35 -17 -95 -88 -19 -8 -2 -64 -7 0
95 37 31 88 26 94 48 58 100 27 85 55 13 86 5 71 11 7 70 29 73 79 3 91 9 39 77 2 92 45 1 57 63 65 32 89 21 20 74 -72 -6 -25 -68 -44 -17 -34 -75 -82 -42 -50 -38 -16 -8 -15 -84 -78 -59 -22 -43 -52 -90 -33 -4 -10 -60 -76 -35 -80 -18 -30 0
-24 -65 0
45 7 83 37 23 16 2 4 67 39 54 97 30 35 38 28 58 48 11 17 24 49 72 70 51 41 76 56 95 -64 -6 -47 -31 -88 -14 -15 -89 -92 -33 -46 -100 -52 -19 -61 -34 -22 -26 -8 -91 -29 -73 -79 -21 -77 -55 0
89 8 79 100 96 23 86 45 29 12 81 13 15 7 54 47 71 61 63 30 72 74 88 -65 -82 -39 -58 -35 -11 -5 -97 -75 -37 -28 -2 -42 -93 -17 -76 -91 -70 -44 -90 -59 -52 -19 -95 -67 -4 -43 -84 -27 -32 -31 -64 -24 0
48 9 76 32 28 36 26 79 96 66 90 68 45 63 47 25 91 16 83 20 78 5 17 77 13 31 30 52 53 56 44 70 10 21 67 57 22 -35 -19 -39 -54 -18 -81 -14 -2 -64 -93 -15 -86 -58 -82 -29 -94 -65 -88 -27 -51 -69 -4 -50 -72 -75 -6 -40 -92 -41 0
78 23 58 70 88 50 47 83 28 21 24 17 25 29 30 37 98 46 53 3 -60 -11 -48 -81 -10 -77 -49 -31 -66 -55 -67 -85 -32 -26 -92 -71 -52 -95 -41 -63 -65 -14 -76 0
99 2 87 31 49 82 33 43 -67 -13 -27 -30 -7 -41 -1 -58 -60 -35 -5 -83 -6 0
8 48 59 2 25 65 30 78 22 10 7 44 55 38 3 86 24 28 93 80 16 15 20 40 35 46 41 82 23 42 94 26 27 56 4 66 36 97 67 52 81 -53 -12 -100 -71 -77 -95 -32 -37 -88 -34 -17 -45 -1 -14 -89 -19 -96 -87 -50 -54 -29 -60 -92 -68 -21 -62 -61 -5 -79 -75 -63 -83 -98 -6 -91 -72 -51 -99 -9 -85 -39 -11 -49 0
14 33 61 77 24 43 -68 -30 -15 -69 -49 -39 -23 -81 -82 -83 0
7 29 62 83 20 34 28 85 21 99 12 9 78 73 98 74 48 100 58 -14 -59 -55 -52 -43 -31 -38 -86 -66 -16 -76 -64 -33 -72 -26 -44 -90 -51 -27 -24 -45 -39 -61 -77 -11 -84 -67 -71 -6 -70 -25 -87 -35 -96 0
67 18 57 98 69 55 12 45 53 71 54 35 86 3 41 46 1 51 21 5 47 11 95 91 92 16 32 73 4 43 9 20 8 75 -79 -60 -44 -28 -25 -2 -19 -7 -83 -96 -24 -27 -15 -84 -23 -87 -52 -31 -34 -68 -56 -70 -74 -26 -76 -40 -89 -14 -64 -85 -61 0
12 64 60 97 25 52 23 7 33 -35 -20 -24 -43 -76 -42 -36 -3 -89 -75 -8 -86 -30 -62 -79 -100 -83 -45 -90 -57 -1 0
58 70 52 80 40 16 20 87 14 33 43 5 10 90 78 92 89 94 9 15 76 -48 -34 -11 -57 -19 -61 -35 -81 -49 -18 -84 -8 -69 -51 -54 -64 -85 0
46 82 89 10 67 2 9 31 69 51 58 73 42 94 90 -86 -87 -96 -39 -7 -62 -21 -55 -84 -36 -71 -3 -15 -8 -47 -20 -66 -60 -29 0
9 42 71 87 2 83 51 33 89 81 -61 -5 -86 0
10 11 84 25 45 8 12 31 80 85 22 49 53 54 100 19 41 71 34 57 29 91 95 79 15 21 68 9 47 26 3 52 55 83 82 43 70 5 28 62 60 96 38 63 58 -42 -23 -35 -32 -37 -88 -56 -64 -69 -97 -18 -98 -87 -46 -75 -67 -1 -27 -76 -65 -40 -4 -77 -90 -92 -72 -94 -86 -16 -17 -33 0
38 8 32 78 98 71 49 56 34 46 11 31 65 43 26 82 24 42 21 51 84 4 86 2 48 18 13 19 87 29 80 22 20 94 35 77 -95 -85 -58 -47 -37 -55 -74 -64 -100 -70 -36 -5 -41 -76 -60 -89 -96 -68 -53 -92 -44 -57 -75 -9 -10 -69 0
11 57 26 24 64 16 10 34 98 33 3 61 9 93 94 99 25 52 37 40 44 91 89 20 36 31 7 51 41 76 66 56 -83 -92 -79 -82 -59 -29 -5 -68 -54 -30 -42 -62 -65 -90 -38 -70 -12 -88 -2 -15 -81 -45 -85 -21 -6 -53 -97 -4 0
60 73 68 30 20 40 71 27 78 75 49 74 50 3 29 21 23 81 95 66 72 45 1 88 28 63 19 14 61 100 56 91 85 10 42 31 89 64 92 86 24 22 76 -90 -9 -41 -54 -17 -79 -62 -32 -67 -38 -36 -51 -16 -2 -70 -65 -97 -44 -15 -46 -80 -5 -47 -37 -98 -55 -84 -4 -93 -82 -34 -12 -11 -57 -7 -52 -53 -69 -99 -59 -58 -6 -94 -8 -25 -83 -87 -18 -48 0
34 32 50 51 87 99 25 24 53 56 79 45 98 91 68 67 20 88 64 76 23 82 26 57 90 69 22 58 63 -13 -9 -92 -11 -18 -3 -95 -42 -39 -46 -78 -28 -74 -72 -19 -80 -17 -8 -93 -33 -71 -44 -12 -16 -55 -5 -60 -7 -77 -75 -96 0
45 87 74 3 33 48 83 1 17 71 81 84 62 79 100 10 89 37 44 46 91 40 41 34 59 12 96 75 80 60 97 82 36 14 2 98 5 39 93 57 68 42 72 65 92 73 25 -99 -8 -26 -43 -55 -24 -16 -95 -58 -51 -76 -6 -56 -85 -69 -86 -88 -19 -9 -66 -52 -29 -22 -77 -78 -13 -50 -94 -18 -20 -30 -54 -90 -28 -27 -70 -49 -21 -15 -4 -11 -47 -35 -63 0
51 92 6 84 78 28 14 24 99 69 39 10 9 5 85 100 63 81 26 21 55 64 62 16 60 96 -13 -66 -33 -7 -71 -56 -4 -68 -53 -95 -25 -76 -91 -58 -77 -11 -52 -19 -82 -23 -88 -49 -20 -18 -89 -86 -61 -59 -80 -93 -15 -2 -17 -1 -50 -74 -44 0
84 73 77 66 59 74 79 29 96 85 15 17 46 20 62 60 28 70 5 38 -92 -57 -81 -11 -71 -6 -44 -98 -88 -26 -78 -68 -72 -33 0
79 75 6 57 89 53 12 98 71 48 84 28 23 99 15 29 86 22 8 36 93 80 50 74 68 39 -5 -73 -20 -35 -97 -91 -60 -13 -1 -38 -43 -4 -34 -40 -52 -69 -100 -49 -16 -87 -47 -10 -27 -59 -37 -63 -55 -90 -26 -21 -66 -17 -64 -44 -65 -14 0
33 31 50 54 96 35 82 17 22 15 57 20 29 42 97 66 8 53 56 39 67 73 44 30 60 46 79 90 93 68 69 12 63 37 55 86 89 -70 -24 -99 -18 -13 -64 -26 -94 -14 -28 -80 -47 -41 -75 -62 -100 -45 -40 -25 -38 -43 -27 -98 -52 -77 -51 -91 -48 -84 -32 -85 -72 -81 -16 -87 0
18 25 91 28 99 9 40 75 48 44 43 68 50 47 60 11 14 96 98 85 65 37 23 97 -81 -57 -88 -17 -87 -70 -66 -27 -41 -82 -83 -62 -1 -92 -79 -76 -42 -53 -58 -22 -12 -72 -74 -38 -7 -6 -32 -59 -21 -93 -89 -19 0
89 85 17 51 47 67 81 73 10 99 44 90 43 52 8 97 1 92 71 72 78 12 93 65 23 82 40 3 -45 -20 -36 -79 -84 -2 -95 -39 -54 -21 -96 -50 -28 -14 -94 -58 -37 -25 -60 -64 -53 -91 -57 -24 -11 -30 -61 -70 -32 -13 -77 -74 -55 0
20 17 84 88 45 23 53 70 38 13 46 37 40 36 30 89 78 91 66 -5 -85 -51 -83 -21 -68 -26 -11 -76 -44 -93 -58 -63 -62 -27 -9 -67 0
59 11 67 65 91 32 2 70 34 52 33 90 31 36 89 88 60 45 22 78 42 17 14 8 55 69 72 93 26 63 73 80 83 -27 -50 -96 -38 -48 -12 -64 -71 -21 -29 -47 -77 -28 -16 -97 -40 -44 -51 -5 -25 -66 -94 -1 -81 -57 -43 -37 -98 -87 -6 -18 -3 -95 -79 0
53 83 6 90 35 26 52 66 14 28 85 12 37 13 24 4 67 78 62 77 92 2 99 79 71 69 91 84 9 49 18 93 33 64 70 68 21 59 34 61 -27 -75 -89 -16 -25 -17 -32 -15 -10 -63 -96 -38 -60 -44 -95 -20 -39 -88 -87 -48 -8 -19 -11 -54 -40 -97 -57 -76 -30 -100 -55 -81 -86 -5 -42 0
3 28 16 12 52 82 63 53 94 44 96 47 37 59 20 57 43 27 14 85 45 77 69 1 70 89 49 13 98 88 -90 -79 -51 -80 -11 -66 -72 -92 -36 -58 -32 -68 -91 -61 -97 -4 -42 -31 -8 -93 -19 -56 -83 -62 -50 -48 -73 -7 -99 -38 -74 -64 -60 -34 -41 -22 -95 -84 -71 -18 -17 0
83 30 56 86 34 71 62 85 5 4 96 39 21 78 11 55 7 44 28 38 69 24 100 61 22 65 89 99 45 3 75 41 20 54 87 64 43 -19 -35 -23 -1 -81 -32 -36 -91 -59 -49 -80 -97 -51 -29 -93 -8 -90 -33 -42 -95 -72 -98 -79 -40 -60 -16 -50 -77 -27 -74 -9 -48 -31 0
23 33 6 61 20 98 69 85 17 90 86 100 62 73 53 28 95 67 7 38 75 32 80 13 3 77 5 29 71 87 11 31 60 96 70 97 94 24 83 74 79 -40 -92 -65 -57 -89 -72 -36 -99 -27 -88 -35 -25 -19 -49 -34 -64 -2 -48 -66 -93 -51 -22 -30 -59 -82 -18 0
29 100 59 20 21 15 87 82 39 68 8 64 26 55 75 28 63 71 79 40 99 43 57 84 22 35 47 31 91 23 92 72 61 76 49 58 53 4 7 95 50 86 41 44 -32 -24 -88 -83 -93 -54 -65 -78 -16 -33 -70 -34 -89 -10 -56 -81 -18 -48 -46 -3 -30 -12 -69 -96 -74 -73 -94 -60 -6 -90 -80 -14 -13 -37 -62 -11 -27 -36 -97 -1 -66 -19 -98 -2 -67 -51 -17 -5 -9 0
46 17 69 95 14 -100 0
100 52 8 15 72 41 4 83 17 62 50 29 11 97 28 23 -68 -77 -31 -85 -47 -86 -92 -19 -40 -37 -61 -26 -1 -84 -55 -71 -80 -79 -13 -7 0
95 51 22 28 24 50 32 1 48 90 72 39 49 98 26 37 73 11 86 74 69 71 23 85 6 4 64 42 89 5 -55 -63 -56 -27 -62 -68 -79 -36 -91 -78 -96 -31 -21 0
6 15 41 63 98 35 12 51 75 32 47 50 7 66 69 26 74 95 71 43 61 24 25 27 89 20 80 30 19 33 60 -2 -99 -90 -73 -56 -52 -22 -92 -64 -76 -11 -49 -42 -86 -39 -3 -10 -97 -53 -77 -84 -91 -85 -13 -17 -57 -28 -4 -100 -62 -81 -58 -48 -87 -18 -34 -55 -16 -79 -82 -96 -68 -65 -45 -1 -94 -88 -46 0
39 95 93 89 31 3 97 69 59 58 53 92 29 65 52 38 17 41 35 56 88 14 23 28 67 20 2 66 42 26 100 45 -72 -85 -5 -91 -70 -51 -77 -61 -74 -79 -12 -54 -55 -94 -57 -4 -7 -8 -32 -18 -83 -22 -75 -6 -82 -99 -86 -64 -40 -24 -73 -80 -87 -47 -60 0
18 70 36 74 14 100 13 54 30 31 73 50 23 82 6 34 97 77 55 2 29 28 86 79 63 59 39 68 27 62 10 95 21 19 22 24 85 9 76 71 25 93 88 -20 -16 -52 -75 -98 -51 -78 -33 -17 -49 -41 -58 -44 -42 -67 -96 -4 -80 -38 -69 -1 -94 -7 -40 0
34 55 88 77 66 61 85 18 57 51 53 69 91 11 -48 -58 -17 -20 -93 -56 -27 -24 -87 -95 -40 -19 -62 0
98 47 99 27 91 10 2 56 46 33 22 21 93 61 97 29 11 53 36 34 82 -14 -89 -90 -94 -80 -62 -18 -50 -76 -9 -23 -28 -17 -68 -44 -75 -43 -42 -79 -41 -15 -85 -100 -73 0
18 86 68 46 95 98 35 52 4 100 32 96 81 -69 -67 -21 -76 -29 -64 -41 -38 -59 -14 -40 -24 -19 -8 -83 -80 -43 0
24 72 15 28 98 79 32 97 90 33 58 91 67 29 4 41 1 96 39 18 5 36 47 27 7 34 65 74 13 46 77 71 23 59 68 64 84 92 35 43 25 20 -19 -3 -75 -48 -60 -50 -42 -26 -44 -57 -93 -31 -88 -21 -95 -22 -56 -17 -78 -11 -66 -51 -40 -70 -76 -100 -53 -10 -87 -12 -81 -63 -94 -82 -89 -16 -69 -14 -49 -6 -8 -54 -85 -45 -52 -55 -37 -80 -73 -83 -86 -62 -2 0
53 51 96 73 26 46 88 81 69 84 63 85 65 24 10 33 71 40 64 59 11 56 89 3 95 80 32 66 47 54 17 92 38 16 78 -49 -57 -99 -4 -94 -82 -8 -19 -34 -2 -21 -29 -60 -42 -72 -15 -31 -36 -55 -13 -20 -75 -86 -14 -67 -39 -62 -74 -90 -28 -83 -27 -68 -44 -98 -12 -7 -93 -23 0
13 72 89 83 52 71 22 94 60 18 95 24 69 61 67 25 70 99 88 19 20 63 57 1 49 79 68 78 51 6 10 30 85 90 77 40 7 41 48 33 28 17 46 58 53 98 34 -55 -16 -65 -84 -9 -92 -21 -35 -50 -12 -5 -47 -93 -38 -27 -91 -97 -15 -42 -3 -43 -82 -66 -100 -75 -32 -62 -56 -39 -36 -86 -29 -54 -96 -14 -37 -23 -59 -31 -26 -80 0
18 17 42 56 29 4 23 87 83 36 75 12 31 80 49 25 22 52 68 71 6 46 44 100 74 45 -82 -77 -2 -86 -58 -10 -73 -64 -63 -48 -88 -55 -61 -3 -67 -66 -84 -5 -81 -33 -38 -69 -92 -14 -40 -28 -79 -24 -76 -47 -8 -54 -37 -11 -85 -30 -78 -21 -15 -95 -96 0
66 90 1 85 64 6 80 -75 -96 -38 -55 -23 -76 0
17 63 47 78 6 89 93 57 29 48 95 27 39 25 33 72 75 64 2 26 38 98 35 30 100 19 67 87 76 13 5 -34 -60 -65 -91 -52 -86 -73 -83 -50 -10 -80 -9 -41 -74 -84 -42 -24 -31 -81 -8 -12 -94 -11 -58 -92 0
11 -78 -53 -56 -72 -36 0
34 73 26 70 -46 -100 -45 -90 -50 0
19 57 36 58 -45 -64 0
85 81 11 20 35 89 15 37 93 46 66 94 70 75 39 -77 -13 -62 -17 -7 -82 -27 -87 -9 -53 -18 0
51 18 93 70 53 44 79 74 20 54 15 28 58 63 9 98 19 94 33 38 46 30 3 22 11 59 67 92 83 48 81 35 49 90 66 71 84 56 -60 -39 -76 -78 -57 -65 -85 -68 -10 -55 -87 -88 -1 -52 -29 -100 -6 -23 -42 -40 -26 -61 -4 -80 -86 -45 -8 -2 -12 -96 -72 -99 -7 -21 -77 -25 -41 -14 -62 -32 -34 -73 -89 0
19 44 90 37 70 78 100 9 69 51 62 87 54 45 36 -17 -41 -5 -67 -99 -96 -88 -35 -46 0
55 100 74 49 14 95 11 70 50 5 78 39 21 45 22 59 18 38 28 23 89 61 53 80 54 27 20 32 84 12 76 71 3 16 62 44 97 90 79 63 13 73 77 68 37 1 83 51 86 56 6 81 41 -58 -47 -92 -40 -33 -25 -48 -24 -57 -75 -29 -31 -43 -4 -30 -87 -88 -60 -66 -65 -34 -67 -98 -99 -93 -9 -26 -36 -52 -82 -19 -2 -91 -10 -42 -64 -69 -8 -35 -94 -72 -17 -7 -96 -85 -46 0
22 50 83 87 23 51 16 13 2 19 62 76 48 30 98 35 1 25 61 34 53 58 65 67 100 3 15 5 -79 -77 -12 -71 -33 -90 -56 -54 -95 -99 -91 -32 -41 -46 -9 -97 -7 -70 -52 -47 -80 -4 -20 -89 0
91 4 63 56 92 70 51 71 48 -61 -69 -40 -57 -84 -16 -72 -95 0
2 5 14 28 30 55 52 85 65 44 8 20 74 69 68 100 33 59 79 23 73 78 37 9 76 -51 -24 -43 -58 -6 -89 -49 -18 -22 -67 -72 -47 -41 -86 -53 -93 -80 -15 -98 -12 -50 -10 -11 -27 -75 -99 -63 -81 0
18 44 4 93 61 100 90 58 21 22 15 -56 -36 -50 -71 -75 -62 -12 -96 -47 -76 -55 -63 -89 -32 -30 -25 -23 0
6 -1 -42 -29 0
12 58 80 54 51 70 61 29 97 23 55 86 56 11 100 26 72 42 41 31 30 43 2 25 6 49 1 13 94 27 68 22 45 44 53 89 39 50 33 20 98 5 14 73 18 60 78 28 47 37 96 -32 -16 -10 -52 -91 -74 -62 -66 -17 -85 -48 -84 -19 -63 -9 -21 -35 -87 -79 -69 -59 -92 -77 -82 -36 -83 -40 -76 -71 -81 -8 -95 -93 -24 -99 -46 -88 -34 -75 -3 -15 -57 0
99 35 88 22 13 61 38 3 40 77 50 29 8 42 98 5 84 43 52 -57 -62 -46 -71 -64 -23 -27 -19 -86 -6 -87 -28 -55 0
93 73 80 45 65 27 88 61 86 90 3 87 34 58 35 26 10 50 52 15 66 28 96 89 78 56 70 39 20 63 79 71 76 83 12 64 75 -85 -53 -19 -21 -84 -60 -36 -54 -37 -91 -14 -74 -49 -69 -29 -13 -67 -42 -77 -99 -68 -30 -7 -100 -46 -59 -31 -95 -62 -94 -44 -11 -97 -98 -47 -55 -48 -41 -43 -57 -2 -38 -18 -24 -1 -16 0
25 71 85 3 75 76 77 69 81 11 29 57 96 26 24 65 63 62 17 42 92 97 28 14 16 89 -64 -54 -37 -47 -9 -45 -68 -86 -43 -2 -4 -12 -36 -8 -80 -15 -90 -10 -59 -27 -41 -33 -30 -50 -19 -31 -40 -18 0
9 36 50 100 7 12 27 79 5 26 64 71 15 89 33 11 6 83 95 38 10 76 14 96 39 20 54 63 67 31 72 23 91 88 57 -65 -80 -42 -46 -61 -98 -29 -69 -60 -86 -40 -45 -43 -24 -17 -34 -37 -84 -30 -99 -19 -92 -93 -62 -52 -90 -87 -58 -13 -53 -32 -22 -78 -1 0
84 56 31 30 74 35 28 66 89 93 68 62 6 87 25 39 22 32 9 100 70 13 37 61 96 51 64 63 -73 -41 -11 -38 -4 -57 -23 -50 -18 -80 -21 0
89 19 79 17 16 15 78 56 100 12 71 27 37 64 54 94 52 41 68 14 44 60 86 76 47 92 9 13 50 85 -61 -95 -38 -58 -43 -5 -45 -46 -80 -73 -74 -1 -83 -33 -25 -31 -77 -26 -98 -49 -65 -53 -42 -7 -84 -67 -55 -11 -36 -18 0
88 81 56 43 14 35 99 89 70 16 33 45 23 69 1 72 -65 -51 -18 -49 -7 -24 -4 -50 -41 -80 -31 -63 -94 -3 0
48 64 99 2 60 20 34 83 12 39 28 46 15 36 87 52 45 89 79 65 71 94 6 92 32 -93 -59 -66 -18 -25 -82 -53 -95 -10 -50 -31 -19 -97 -62 -67 -29 -77 -47 -13 -68 -21 -38 -24 0
21 34 47 8 58 23 54 45 18 35 90 46 29 44 49 24 37 57 13 99 87 9 40 5 62 76 50 41 89 88 80 100 98 91 11 22 55 10 82 -6 -59 -66 -27 -68 -96 -72 -64 -63 -19 -67 -7 -20 -85 -94 -86 -31 -39 -70 -48 -16 -3 -25 -75 -79 -28 -33 -74 -30 -81 -12 -17 -65 -69 -73 -56 -51 -42 -83 -36 -95 -38 -77 -52 -2 -26 -14 -97 -1 -43 -60 -53 -84 -71 -93 -78 -4 -32 -15 0
64 2 29 24 74 18 19 46 42 78 87 66 58 30 11 50 23 99 5 32 75 60 20 4 59 25 12 52 33 28 34 100 73 93 96 17 38 88 81 89 72 -41 -27 -40 -76 -31 -97 -85 -47 -57 -39 -1 -94 -48 -22 -7 -37 -63 -92 -15 -69 -86 -62 -79 -90 -13 -6 -61 -8 -71 -56 -98 -53 -70 -84 -35 -9 -83 -80 -44 -49 -54 -51 -68 -36 -95 -45 -3 -82 -14 -77 -91 -65 -43 -67 -21 -10 -16 0
68 99 93 42 33 71 77 17 41 90 58 89 46 59 38 67 61 6 47 22 24 86 92 30 50 56 28 8 52 84 16 80 76 94 60 54 36 91 79 7 100 14 18 43 2 87 12 74 -19 -4 -32 -69 -34 -78 -37 -48 -55 -29 -21 -31 -10 -73 -15 -97 -1 -25 -66 -63 -13 -9 -23 -51 -64 -26 -96 -65 -62 -44 -20 -11 -53 -88 -70 -85 0
80 76 57 71 39 -7 -81 -36 -73 -3 0
95 57 42 63 67 4 30 92 84 6 49 25 45 44 86 14 72 8 40 11 71 82 55 96 29 23 10 2 76 17 18 15 1 85 27 5 90 97 20 93 77 41 80 -24 -68 -61 -35 -21 -22 -12 -98 -56 -38 -33 -100 -46 -74 -54 -69 -36 -37 -28 -94 -59 -51 -79 -58 -64 -65 -53 -16 -89 -99 -78 -43 -52 -9 -7 -83 -48 -88 -26 -47 -34 -87 -75 -70 -66 -32 -39 -13 -50 0
27 52 17 76 29 37 8 96 24 45 68 74 47 48 83 44 20 69 -50 -51 -77 -5 -41 -72 -56 -89 -93 -40 -49 -91 -21 -12 -18 -4 -55 -28 -98 0
17 77 60 65 15 16 98 93 53 67 75 73 48 9 89 32 79 50 64 40 47 24 94 58 90 8 85 82 43 68 10 95 87 11 72 52 14 39 88 36 3 35 12 28 31 61 37 76 -84 -91 -74 -56 -27 -45 -70 -25 -96 -21 -1 -63 -92 -97 -4 -30 -80 -29 -71 -13 -55 -51 -19 -78 -100 -23 -49 -5 -26 -86 -81 -59 -41 -54 -6 -44 -57 -2 -38 -34 -62 -83 -33 -66 -99 -20 0
12 80 59 33 19 16 24 9 45 54 92 46 44 58 5 83 62 50 32 71 27 17 90 31 4 78 57 88 66 47 34 18 -89 -20 -38 -96 -93 -23 -56 -84 -29 -21 -99 -77 -35 -82 -74 -39 -94 -3 -49 -86 -40 -79 -73 -13 -28 -91 -60 -65 -81 -97 -7 -26 0
73 50 76 96 47 78 86 22 98 3 20 92 -61 -75 -5 -37 -85 -2 -51 -29 -46 -35 -83 -4 -13 -67 -6 -10 0
53 63 77 75 6 8 94 70 36 99 87 86 47 33 57 14 23 1 54 3 42 16 85 49 10 35 79 72 73 71 88 80 28 56 -93 -17 -41 -68 -5 -19 -62 -69 -32 -59 -15 -31 -64 -25 -7 -83 -52 -20 -100 -84 -98 -89 -78 -27 -90 -43 -22 -48 -46 -76 -91 -92 -38 -51 -58 -2 -44 -50 -95 -11 -61 -67 -13 -37 -45 -9 -55 0
-64 0
95 12 72 28 75 4 76 33 38 19 45 13 81 92 8 66 64 73 14 9 96 35 34 61 67 59 18 31 24 79 91 50 87 15 54 43 22 97 65 16 26 83 90 20 93 70 100 36 55 -86 -63 -21 -27 -52 -40 -99 -32 -30 -74 -68 -2 -60 -71 -84 -58 -44 -48 -42 -10 -78 -1 -46 -56 -3 -37 -77 -6 -94 -23 -51 -47 -41 -53 -82 -62 -29 -57 -89 -25 -7 -11 -39 -49 -5 -85 -98 -80 -17 0
61 29 98 46 8 74 24 56 63 40 11 90 19 82 57 22 41 84 7 88 94 37 35 33 50 99 76 59 55 100 81 -96 -48 -54 -12 -42 -97 -21 -15 -25 -60 -49 -51 -2 -65 -6 -4 -52 -85 -23 -58 -39 -78 -9 -70 -32 -20 -43 -14 0
96 20 30 33 50 61 24 63 43 54 83 6 91 68 78 23 95 41 46 93 52 -49 -72 -88 -47 -32 -71 -38 -59 -42 -84 -39 -85 -79 -14 -80 -81 -22 0
74 86 10 65 70 40 36 87 97 71 68 64 47 25 32 12 35 49 90 24 62 -77 -96 -69 -41 -44 -7 -4 -22 -8 -18 -52 -3 -67 -99 -95 -2 -51 -93 -31 -38 -39 -37 -60 -88 -6 -82 -48 -17 -66 -28 -33 -9 -76 -21 -92 0
17 13 53 19 54 23 3 82 86 -34 -78 -88 -73 -55 -32 -48 -25 -96 -10 -52 -39 -42 -91 -35 -29 -80 0
92 24 15 90 74 76 43 60 45 8 80 9 -12 -42 -51 -46 -70 -71 -26 -47 -36 -87 -79 -68 -52 -66 0
76 1 92 59 20 17 88 8 53 50 57 3 99 93 77 33 22 35 13 89 98 23 80 39 94 16 61 12 32 54 62 69 71 70 36 72 67 24 84 46 -74 -15 -63 -45 -28 -79 -44 -81 -40 -9 -27 -65 -52 -75 -7 -68 -55 -14 -47 -82 -25 -73 -58 -38 -11 -96 -56 -26 -64 -86 -49 -37 -30 -87 -10 -78 -34 -90 -31 -85 -2 -21 -97 -42 -66 -48 0
15 98 81 29 67 19 51 97 23 90 65 86 45 79 88 57 38 17 1 30 4 84 63 3 32 68 99 64 94 61 78 66 77 95 -24 -34 -72 -25 -5 -49 -70 -74 -44 -28 -56 -35 -27 -82 -12 -6 -89 -8 -9 -96 -76 -85 -50 -62 -75 -48 -11 -60 -31 -14 -33 -71 -93 -7 -42 -20 -91 -87 -36 -43 0
81 83 96 52 84 93 100 39 61 60 37 79 50 98 70 41 76 9 42 48 3 51 89 58 26 5 72 62 91 92 2 6 94 35 15 -47 -30 -25 -44 -21 -29 -10 -86 -71 -18 -78 -17 -97 -82 -27 -95 -99 -74 -57 -90 -68 -59 -13 -54 -43 -34 -67 -23 -33 -28 -55 -66 -87 -16 -40 -4 -64 -12 -36 -11 -75 -45 -88 -80 -73 -63 -77 -32 -46 -1 -53 -19 -49 0
48 0
34 55 53 4 94 42 78 51 40 71 35 21 69 75 98 39 6 22 77 2 29 79 30 9 93 97 86 54 13 90 57 -82 -28 -66 -31 -92 -87 -100 -37 -11 -83 -68 -50 -45 -80 -64 -62 -36 -17 -32 -18 -12 -67 -96 -26 -5 -72 -73 -99 -81 0
18 13 44 3 49 64 36 34 82 88 91 30 92 43 98 59 70 8 66 86 -56 -58 -95 -68 -26 -65 -15 -62 -69 -57 -73 -9 -11 -39 -67 -25 -97 -77 -94 -53 -48 -84 -20 -52 -90 -74 -96 -85 -45 0
98 82 28 32 23 14 97 63 68 6 69 18 10 31 24 80 66 2 55 41 45 84 76 29 60 42 -92 -53 -37 -26 -30 -22 -90 -93 -87 -85 -40 -99 -79 -73 -89 -33 -62 -38 -75 -4 -78 -21 -46 -64 -9 -15 -77 -57 -59 -13 0
8 47 82 9 23 94 17 69 83 57 12 27 95 67 90 68 75 98 44 61 55 37 91 31 87 80 73 70 71 45 21 28 13 24 49 100 25 59 99 64 -5 -29 -52 -40 -58 -43 -51 -30 -66 -16 -78 -6 -93 -19 -42 -85 -46 -50 -15 -88 -4 -26 -18 -62 -96 -20 -36 -38 -14 -63 -76 -7 -92 -79 0
58 16 31 86 15 8 65 70 72 98 -7 -91 -2 -34 -49 -44 -32 -57 -29 -83 0
23 95 42 52 22 43 76 72 86 96 9 93 78 41 5 67 55 71 30 6 65 16 94 35 70 19 54 28 10 44 64 15 61 14 89 11 32 73 99 8 63 1 20 26 47 -13 -3 -97 -17 -33 -57 -75 -40 -62 -39 -12 -84 -66 -83 -90 -98 -48 -74 -77 -7 -79 -80 -53 -21 -29 -4 -69 -85 -27 -34 -37 -92 -81 -51 -45 -31 -24 -91 -25 -58 -50 -87 -36 -100 -56 -38 -18 -59 -49 0
21 35 7 29 52 33 55 31 64 72 12 89 84 85 45 97 74 95 51 19 58 59 60 4 78 -1 -37 -90 -91 -65 -88 -8 -69 -50 -98 -82 -62 -79 -14 -2 -54 -42 -5 -61 -70 -9 -41 -93 -87 -49 -23 -26 -16 -83 0
60 70 11 97 83 87 9 46 53 63 90 92 52 80 24 -50 -59 -86 -37 -23 -89 -75 -41 -30 -54 -1 -4 -51 -82 -76 -13 0
17 98 24 97 85 80 86 10 15 52 54 23 12 75 58 65 79 -31 -78 -63 -5 -55 -29 -51 -43 -70 -41 -95 -68 -94 -8 -50 -19 -48 -67 -87 -83 -32 -16 0
9 68 100 95 29 7 87 91 79 92 69 90 47 6 40 96 98 5 21 19 74 76 26 27 67 73 59 85 17 20 88 1 16 13 30 -15 -60 -46 -3 -25 -18 -51 -53 -33 -72 -83 -80 -43 -14 -89 -62 -77 -48 -70 -35 -63 -38 -55 -93 -61 -58 -65 -34 0
34 56 37 -42 -61 0
21 88 97 15 55 23 41 26 76 46 8 16 64 18 39 3 11 24 90 5 92 49 77 93 40 60 70 9 71 13 91 89 99 96 33 98 47 72 83 29 45 6 82 30 7 53 65 -61 -94 -14 -20 -12 -36 -19 -84 -85 -62 -66 -57 -74 -81 -80 -58 -43 -4 -68 -1 -2 -52 -69 -50 -67 -63 -56 -25 -79 -44 -75 -32 -22 -100 -48 -73 -78 -27 -86 -95 0
48 45 85 9 50 100 27 1 94 91 74 -70 -3 -78 -95 -51 -93 -42 -62 -15 -35 -46 -11 -56 -30 -75 -29 -81 0
30 57 34 72 87 -61 -84 -46 -32 -39 -49 -63 -18 -35 0
15 44 97 43 55 31 64 42 65 7 8 71 37 46 62 74 68 28 92 13 1 76 80 89 95 36 16 25 26 73 33 12 81 54 -99 -38 -72 -32 -52 -56 -48 -77 -2 -98 -27 -47 -41 -18 -5 -70 -96 -29 -35 -6 -58 -34 -23 -79 -3 -61 0
35 54 86 100 89 90 53 14 65 8 99 6 9 59 96 42 30 18 2 19 97 -11 -64 -67 -74 -77 -36 -69 -4 -13 -60 -55 -80 -44 -40 -33 -10 -63 -84 -49 -31 -38 -25 -76 -83 -58 0
88 29 52 16 76 19 51 63 11 86 8 98 1 -61 -90 -95 -7 -34 -60 -27 -38 -99 -18 -33 -62 0
7 64 57 3 66 67 59 47 55 39 90 48 52 12 89 93 81 41 96 95 79 61 22 20 45 11 87 26 34 32 51 18 83 97 72 49 69 100 54 46 63 16 91 58 31 5 17 6 77 8 33 50 92 -21 -25 -71 -29 -80 -86 -43 -14 -9 -60 -56 -73 -28 -62 -24 -88 -38 -23 -40 -75 -35 -19 -99 -27 -1 -68 -76 -15 -13 -65 -74 -82 -10 -70 0
4 74 19 40 89 23 42 75 67 13 25 90 59 65 34 100 29 60 26 93 50 32 27 35 43 18 98 63 22 11 30 86 88 28 44 97 56 79 80 15 83 49 64 70 68 53 51 62 45 61 9 87 81 57 -72 -39 -58 -52 -41 -71 -78 -6 -2 -12 -24 -31 -92 -10 -38 -33 -76 -99 -8 -3 -66 -55 -1 -77 -47 -5 -16 -14 -69 -82 -20 -91 -7 -48 -21 -73 -84 -37 -96 -85 -46 -95 -36 -54 -94 0
91 58 27 56 26 5 25 23 70 66 90 18 69 39 77 71 3 88 47 64 44 68 31 20 59 92 43 6 28 72 9 74 50 7 57 22 1 45 94 86 14 17 32 4 -60 -48 -46 -67 -96 -97 -10 -75 -73 -79 -49 -41 -84 -89 -30 -34 -78 -82 -95 -24 -33 -12 -53 -62 -29 -19 -15 -83 -85 -42 -54 -80 -61 -51 0
100 54 12 66 89 38 81 18 47 16 64 20 33 90 48 70 39 96 35 93 55 14 41 86 26 6 63 30 1 8 73 69 76 83 60 49 7 27 75 32 53 61 57 -34 -68 -82 -23 -36 -65 -29 -59 -9 -31 -28 -40 -24 -45 -11 -78 -50 -13 -85 -2 -51 -79 -19 -10 -97 -37 -43 -80 -88 -15 -92 -72 -22 -52 -3 -84 -67 -17 -74 -95 -58 0
13 23 50 78 77 49 81 1 7 45 88 67 76 54 61 18 89 56 39 84 28 96 24 85 75 27 26 98 42 48 68 40 30 20 86 71 59 52 63 72 95 79 -90 -6 -29 -19 -58 -83 -69 -57 -41 -43 -21 -36 -37 -15 -60 -99 -70 -10 -22 -74 -12 -82 -9 -8 -33 -3 -87 -11 -100 -44 -92 -94 -91 -2 -64 -93 -14 -16 -47 -62 -46 -32 -34 -53 -73 -38 -5 -80 -55 -66 -65 -97 -35 -51 -17 -31 -4 0
1 64 5 53 51 -85 -40 -77 -19 -46 -39 0
62 93 97 82 18 54 10 16 12 66 17 4 28 78 26 40 8 41 69 92 20 51 53 19 75 72 43 30 29 -27 -25 -2 -37 -15 -55 -60 -21 -68 -7 -63 -79 -98 -100 -64 -39 -11 -81 -90 -99 -3 -83 -24 -65 -32 -59 -5 -31 -46 -58 -76 -34 -84 -89 -44 -61 -96 -50 -49 -14 -1 0
28 26 80 2 43 42 91 27 6 54 49 11 75 68 52 61 82 22 92 18 96 44 36 7 30 32 46 8 5 72 1 -67 -10 -98 -40 -31 -62 -39 -45 -21 -100 -41 -74 -60 -17 -97 -59 -64 -70 -73 -48 -23 -37 -81 -24 -9 -99 0
94 60 0
61 76 7 92 47 88 45 29 85 33 46 55 8 51 35 100 89 25 58 99 93 37 24 28 68 5 97 59 94 87 52 70 98 6 86 26 9 95 77 19 4 13 56 60 44 64 -12 -38 -82 -10 -78 -62 -83 -63 -66 -39 -65 -69 -67 -17 -42 -90 -72 -96 -18 -80 -75 -41 -43 -31 -22 -15 -84 -27 -49 -14 -32 -23 -73 -81 -30 -53 -91 -3 -1 -74 -79 -54 -2 0
47 91 39 20 67 42 57 82 100 28 2 86 96 38 -87 -15 -72 -50 -9 -77 -92 -78 -7 -1 -88 -44 -16 -61 -13 -95 -71 -68 -21 -85 -6 -10 -34 -26 -45 -73 -46 -52 -22 -80 -33 0
1 4 16 44 73 59 79 90 76 50 25 99 3 52 60 27 29 64 35 23 32 77 84 63 33 51 42 26 80 21 5 97 8 94 69 74 19 2 28 36 6 92 56 37 82 62 95 39 14 65 -22 -75 -40 -86 -88 -46 -58 -61 -24 -93 -47 -81 -68 -85 -55 -13 -83 -7 -72 -71 -41 -48 -20 -30 -43 -10 -34 -49 -98 -12 -87 -54 -100 -18 -91 -38 -57 -9 -15 -53 -96 -70 -31 -89 -11 -45 -66 0
39 61 29 53 15 48 74 35 42 4 85 95 60 31 87 7 65 57 66 79 89 19 58 46 30 62 67 45 75 9 5 23 43 47 64 92 73 78 88 76 91 55 25 56 34 17 11 100 21 70 80 93 86 1 10 -90 -18 -52 -32 -27 -54 -98 -3 -44 -14 -69 -81 -12 -83 -24 -51 -28 -63 -22 -38 -50 -36 -71 -59 -99 -13 -33 -8 -2 -82 -96 -26 -20 -41 -77 -37 -97 -40 -94 -16 -68 -49 -84 0
42 48 11 56 40 65 43 50 9 52 70 55 67 46 14 26 69 6 13 5 80 36 64 4 20 29 84 57 97 54 51 27 92 18 76 15 24 12 10 35 28 77 -22 -60 -45 -62 -19 -61 -99 -47 -21 -17 -79 -2 -88 -8 -83 -3 -73 -75 -72 -87 -44 -34 -33 -41 -100 -82 -95 -59 -31 -90 -93 -58 -30 -91 -63 -53 -37 -38 -89 -85 -78 -86 -94 -39 0
37 85 15 4 59 71 94 23 -41 -43 -80 -83 -7 -46 -88 -99 -63 -27 -69 -12 0
99 60 26 96 10 86 97 53 55 14 64 48 82 95 22 11 23 81 28 1 91 63 78 49 92 87 41 100 38 12 15 80 6 19 51 75 76 5 33 37 -68 -34 -39 -59 -24 -25 -2 -69 -30 -90 -35 -18 -72 -74 -13 -77 -61 -89 -88 -66 -36 -67 -93 -20 -4 -46 -98 -70 -84 -52 -31 -27 -3 -40 -79 -94 -71 -44 -43 -32 -83 -7 0
7 6 50 23 75 59 67 76 93 78 97 45 44 79 21 31 -28 -17 -57 -20 -85 -56 -54 -71 -62 -10 -90 -84 -98 -69 -39 -100 -4 -96 -1 0
49 21 85 68 56 12 51 60 72 14 44 84 52 75 23 66 98 83 63 20 70 1 100 22 2 15 28 95 33 65 55 86 81 -71 -89 -69 -94 -90 -92 -50 -7 -97 -67 -24 -10 -77 -78 -80 -61 -26 -13 -39 -99 -17 -43 -19 -42 -34 -48 -91 -11 -6 -29 -54 -9 -82 -59 -74 -8 -30 -18 -16 -73 -32 -87 0
33 -95 -44 -32 0
30 9 44 22 73 5 28 25 48 24 19 90 15 58 95 -55 -53 -69 -47 -11 -75 -45 -38 -93 -26 -10 -92 -2 -99 -20 -43 -50 -21 -86 0
90 22 37 66 13 -74 -24 -55 -10 -38 -15 -53 -7 -18 0
65 69 92 80 83 66 27 22 20 81 25 15 2 23 43 82 -96 -90 -100 -64 -77 -5 -85 -21 -52 -40 -6 0
63 36 85 26 60 13 76 82 49 65 -6 -23 -73 -53 -58 -69 -28 -79 -1 -88 -56 -92 -59 -15 -77 -99 -47 -90 0
81 61 94 20 76 54 56 97 88 84 78 25 43 75 86 68 7 6 18 22 32 24 36 57 10 16 39 38 34 80 46 26 19 13 -33 -15 -9 -59 -3 -67 -45 -23 -8 -12 -63 -82 -27 -58 -100 -95 -66 -69 -31 -79 -92 -2 -28 -71 -52 -51 -5 0
1 25 5 96 63 58 8 71 24 76 56 35 83 91 94 85 16 38 34 41 81 7 74 98 92 45 93 18 57 33 77 67 6 12 79 82 84 37 51 65 100 30 46 26 36 17 39 52 -15 -22 -95 -42 -99 -73 -29 -23 -64 -87 -31 -49 -69 -80 -50 -60 -97 -47 -9 -68 -28 -44 -55 -43 -62 -3 -19 -32 -59 -54 -72 -14 -61 -21 -48 -70 -40 -2 -10 -78 -88 -53 -75 -86 -89 -90 -66 -4 0
99 91 19 25 72 36 76 66 97 38 40 46 98 49 -4 -1 -45 -52 -10 -30 -88 -95 -89 -94 -7 -44 -35 -15 0
92 25 29 10 94 20 18 63 30 91 59 -34 -4 -40 -2 -41 -74 -82 -86 -53 0
88 85 32 81 94 86 13 52 51 3 82 42 56 48 84 28 20 25 60 58 87 53 35 9 93 11 34 44 49 22 37 80 73 97 4 -14 -96 -83 -57 -77 -30 -1 -38 -91 -66 -45 -2 -78 -17 -8 -99 -50 -65 -62 -100 -64 -59 -33 -43 -92 -74 -95 -24 -69 -41 -16 -47 -61 -67 -55 -23 -5 -19 -18 -36 -76 -63 -26 -89 -70 -7 -79 -15 -68 -71 -46 -21 -29 -6 -10 -72 -12 -75 0
95 1 44 68 57 35 65 33 49 75 82 11 8 31 94 55 88 22 45 9 80 93 25 63 67 83 81 19 7 32 34 58 98 74 92 53 39 -27 -15 -71 -38 -50 -61 -64 -100 -2 -24 -46 -30 -56 -60 -41 -70 -96 -66 -90 -20 -10 -12 -48 -86 0
23 16 12 7 6 45 43 68 34 85 49 60 98 40 15 30 33 51 67 95 90 3 79 56 21 39 44 96 22 19 9 53 42 87 1 86 99 25 100 24 62 35 11 83 32 27 82 97 37 46 74 78 52 88 64 17 -84 -20 -89 -63 -92 -14 -93 -55 -72 -38 -10 -18 -36 -76 -59 -4 -54 -8 -29 -77 -26 -28 -71 -2 -75 -61 -91 -5 -31 -94 -69 -13 -73 -50 -70 -66 -47 -58 -57 -65 -80 -48 -41 0
58 75 92 17 82 14 25 64 63 78 26 98 33 74 34 88 4 59 15 13 23 56 61 16 46 87 3 70 89 35 60 85 44 52 71 62 -90 -42 -39 -6 -55 -41 -51 -20 -93 -5 -40 -65 -49 -2 -84 -81 -80 -43 -68 -94 -54 -31 -19 -29 -95 -22 -99 -100 -50 -21 -48 -86 -1 -76 -38 -97 -18 0
99 1 98 6 13 38 16 96 100 77 -65 -52 -67 0
34 68 86 13 80 55 31 36 98 30 87 85 96 33 49 94 23 46 21 79 63 53 76 67 25 22 62 -14 -54 -6 -50 -52 -40 -73 -95 -28 -81 -77 -12 -47 -70 -7 -59 -27 -56 -35 -16 -3 -39 -74 -29 -48 -45 -24 -44 -91 -97 0
53 19 90 58 17 52 80 100 60 54 59 51 64 95 5 15 -47 -8 -56 -70 -4 -99 -38 -36 -93 -79 -96 -30 -69 -68 -29 -63 -77 -1 0
53 68 2 72 49 57 35 78 67 48 9 21 59 30 95 51 58 32 16 71 55 47 8 27 97 34 26 86 79 84 20 90 28 -4 -39 -94 -41 -11 -13 -18 -91 -56 -6 -42 -40 -75 -66 -87 -61 -7 -69 -46 -60 -24 -5 -1 -77 -85 -43 0
14 39 78 36 24 18 99 16 46 86 54 80 60 1 52 21 56 5 42 82 57 27 81 37 51 74 -94 -47 -68 -85 -89 -76 -96 -34 -41 -79 -43 -61 -8 -25 -6 -87 -50 -83 -2 0
19 75 2 83 56 7 10 71 42 79 23 81 59 37 78 67 82 74 22 12 77 50 20 84 90 70 93 52 45 -92 -24 -15 -94 -69 -8 -51 -86 -47 -63 -5 -80 -91 -54 -25 -72 -36 -58 -60 -18 -97 -27 -44 0
33 10 26 92 66 71 67 44 12 6 40 -38 -4 -7 -56 -53 -49 -80 -17 -51 -14 -81 0
81 92 33 75 28 8 6 97 -26 -83 -27 -36 -100 -65 -63 -5 -1 -82 -86 -19 0
55 5 72 68 36 25 74 61 17 56 -4 -1 -57 -95 -7 -43 -99 -37 -38 -63 -92 -34 -47 -76 -48 -32 -27 -3 -29 -81 0
99 100 44 37 42 29 68 76 6 89 71 2 91 95 49 32 80 3 30 18 38 43 74 61 -70 -73 -63 -88 -54 -65 -36 -9 -57 -60 -97 -64 -94 -4 -66 -78 -85 -82 -72 -59 -17 -26 0
44 92 76 34 61 10 71 96 13 72 79 55 27 24 21 50 47 2 40 11 -65 -60 -33 -73 -97 -12 -82 -87 -84 -89 -9 -22 -4 0
18 62 68 29 31 66 38 13 93 60 90 37 32 58 86 15 84 65 33 79 21 19 91 76 34 16 92 63 9 30 39 61 67 94 11 50 64 85 46 83 20 45 26 49 24 99 25 1 55 73 12 -80 -42 -72 -3 -89 -14 -41 -36 -10 -78 -2 -100 -71 -53 -4 -51 -81 -69 -48 -59 -54 -98 -77 -56 -43 -97 -75 -44 -40 -87 -7 -22 -52 -23 -82 -88 -28 0
8 39 25 16 26 20 53 87 -66 -62 -60 -56 0
14 39 20 86 42 23 21 48 98 100 91 62 31 75 99 35 84 76 77 81 7 38 36 25 40 55 88 89 80 64 65 41 96 9 52 43 27 74 85 78 71 16 12 17 15 46 61 22 58 3 63 44 95 29 -93 -33 -90 -28 -13 -47 -97 -72 -70 -24 -69 -8 -10 -5 -2 -50 -30 -37 -68 -11 -6 -59 -67 -34 -60 -79 -53 -87 -54 -32 -92 -1 -18 -83 -57 0
35 72 37 87 67 58 84 79 91 49 55 70 52 15 22 98 8 54 82 39 60 -10 -40 -89 -9 -62 -83 -75 -47 -31 -76 -17 -85 -50 -29 -12 -77 -44 -63 -88 -3 -95 -6 -28 -51 -74 0
96 55 26 71 16 60 44 88 36 1 6 87 59 4 47 7 32 100 45 97 94 61 62 50 2 35 3 10 13 63 18 48 79 49 41 22 89 78 -54 -68 -31 -76 -82 -85 -19 -84 -15 -27 -24 -20 -39 -80 -9 -67 -70 -29 -38 -72 -83 -73 -77 -65 -8 -52 -95 -56 -11 -69 -25 -43 -28 -30 -17 -75 -92 0
27 97 59 18 82 4 9 2 78 17 20 14 19 63 34 77 11 32 28 86 52 88 83 69 -87 -30 -15 -10 -100 -90 -13 -64 -29 -23 -50 -36 -79 -96 -16 -8 -99 -98 -22 -56 -75 -53 0
44 91 16 78 2 100 97 81 47 -83 -5 -52 -9 -66 -71 -65 -29 0
14 12 57 77 81 50 -48 -11 -6 -46 -95 -90 -16 -20 -80 -2 -56 -26 -82 -94 -75 0
43 33 93 31 55 16 60 -51 -6 -65 -40 -32 -59 -25 -68 -57 -67 -87 -3 -63 -9 -24 0
73 23 36 93 58 55 68 64 75 29 84 28 10 38 69 42 12 85 91 53 63 3 39 35 87 2 24 66 -19 -83 -89 -50 -98 -25 -37 -86 -72 -57 -16 -34 -71 -15 -30 -5 -1 -97 -51 -80 -78 -88 -17 -33 -43 -7 -21 -31 -100 0
26 55 81 46 8 87 49 48 94 42 6 38 97 90 22 43 32 21 30 96 4 69 5 2 74 17 34 92 15 54 64 53 52 41 61 56 71 35 24 79 14 7 37 -59 -82 -44 -11 -28 -58 -12 -18 -80 -45 -72 -77 -65 -68 -25 -9 -40 -13 -70 -83 -57 -85 -60 -100 -93 -47 -98 -75 -10 -73 -63 -88 -20 -29 -84 -89 -86 -33 -23 -19 -78 -66 -76 -99 -51 -36 -27 -91 -3 -31 -1 -39 -50 -67 -95 0
94 44 65 23 19 99 75 91 54 78 8 2 95 18 45 82 92 100 41 71 -36 -61 -35 -42 -67 -27 -79 -13 -97 -57 -81 -1 -58 -74 -62 -9 -66 -69 -32 -90 -29 -22 -52 -3 0
85 33 66 7 31 26 67 98 34 88 81 58 5 42 61 43 15 99 44 1 -86 -41 -35 -29 -23 -55 -48 -9 -90 -30 -39 -73 -60 -52 -25 -12 -78 -65 -24 -50 -2 0
59 14 93 63 71 30 44 35 60 81 66 68 16 79 86 94 34 70 58 97 1 56 27 26 22 74 37 90 17 4 41 76 75 23 80 20 21 61 52 -19 -24 -25 -51 -53 -9 -40 -29 -100 -82 -57 -69 -36 -55 -65 -11 -42 -13 -98 -77 -10 -46 -31 -6 -49 -64 -85 -38 -28 -91 -15 -33 -73 -83 -54 -2 -43 -84 -50 -62 -18 -12 -96 -78 0
75 68 12 5 43 67 55 25 23 1 26 92 80 17 72 32 66 53 52 40 18 89 48 41 50 -98 -76 -74 -35 -4 -33 -56 -46 -22 -71 -87 -70 -49 -93 -95 -13 -100 -79 -14 -78 -20 -81 -65 -84 -36 -62 -30 -44 0
34 95 99 97 87 94 84 30 1 60 68 77 64 82 20 9 96 74 27 91 14 49 -67 -92 -24 -83 -89 -23 -4 -6 -81 -33 -90 -41 -28 -55 -42 -58 -56 -21 -69 -46 -12 -31 -43 -39 -62 -65 -17 -53 -70 -63 -75 0
48 68 33 26 64 61 100 65 72 23 86 19 10 39 8 32 6 88 76 7 97 53 36 91 87 20 34 35 89 40 -12 -13 -71 -18 -51 -4 -47 -63 -66 -24 -67 -57 -27 -42 -81 -49 -83 -55 -78 -93 -31 -56 -17 -62 -58 -50 -96 -15 -79 -28 -92 -30 -25 -1 -22 -45 -98 -69 -43 -74 -2 0
81 61 31 11 51 89 86 45 49 83 77 69 14 2 70 50 7 46 88 100 17 94 57 19 22 47 36 68 58 73 27 -98 -43 -96 -33 -20 -28 -80 -59 -75 -6 -12 -79 -39 -30 -16 -48 -5 -63 -76 -65 -71 -35 -97 -15 -67 -53 -60 -87 -10 -74 -1 -40 0
70 26 89 93 39 44 20 87 8 79 72 30 99 3 22 78 13 84 90 37 10 54 61 25 94 81 28 17 47 86 98 21 96 85 -12 -19 -68 -29 -33 -41 -82 -63 -48 -2 -18 -97 -31 -5 -91 -59 -42 -1 -67 -6 -100 -45 -34 -36 -27 -76 -57 -53 -46 -15 0
55 54 7 93 53 80 95 81 69 64 32 17 16 11 50 87 19 51 97 4 10 85 79 15 63 23 40 68 83 45 41 88 33 49 77 24 3 27 -70 -28 -37 -98 -76 -59 -56 -82 -75 -92 -30 -20 -22 -42 -66 -48 -5 -9 -74 -61 -31 -44 -14 -18 -67 -29 -47 -65 -72 -35 -73 -60 -52 -62 -89 -12 -57 -13 -21 -26 -86 -39 -43 0
50 13 99 47 60 36 34 59 54 43 83 62 -32 -48 -74 -77 -10 -25 -68 -97 -84 -22 -24 -89 -52 -64 -17 -7 -44 -61 -76 -88 -86 -26 -56 0
63 79 57 16 46 17 12 30 100 19 23 1 24 91 28 65 21 52 39 74 9 50 27 45 -96 -68 -60 -85 -86 -36 -97 -4 -34 -69 -70 -51 -78 -53 -15 -66 -48 -44 0
14 91 43 32 50 31 45 37 72 84 -36 -21 -39 -81 -12 -96 -65 -88 -6 -62 -13 -52 -79 -44 0
23 10 41 32 96 5 94 34 73 82 88 84 24 21 71 58 74 3 27 69 9 75 4 20 99 28 44 45 97 72 16 2 39 66 87 6 89 64 18 92 -93 -59 -14 -63 -29 -49 -83 -67 -81 -62 -15 -90 -95 -53 -80 -54 -65 -79 -36 -57 -85 -35 -91 -8 -78 -47 -38 -1 -46 -30 -17 -19 -50 -12 -11 -33 -31 -52 -51 -60 -70 -25 -86 -13 -26 -55 -42 -37 -76 -77 -43 -22 -56 -48 -68 0
18 33 93 55 59 31 64 54 66 94 47 3 65 46 41 60 83 4 32 52 21 10 35 11 62 -16 -6 -23 -17 -28 -61 -2 -91 -73 -87 -86 -68 -96 -63 -79 -72 -53 -7 -9 -30 -92 -71 -100 -37 -98 -56 -15 -14 -57 -58 -76 -13 -26 -36 0
18 70 74 1 25 69 8 17 83 54 32 68 15 63 82 40 20 7 10 81 11 87 42 79 86 5 100 3 -53 -97 -38 -28 -45 -52 -90 -92 -35 -67 -12 -99 -78 -62 -55 -30 -98 -43 -64 -85 -48 -96 -2 -24 -84 -73 0
27 56 99 98 91 57 71 48 92 74 73 6 70 15 87 -9 -44 -8 -76 -54 -38 -77 -82 -55 -63 -93 -30 0
36 25 12 38 85 72 54 17 60 35 46 76 43 11 95 86 9 2 52 32 67 31 15 89 40 7 20 16 63 94 62 51 5 14 -82 -19 -8 -91 -71 -93 -55 -4 -96 -57 -65 -58 -23 -33 -61 -77 -98 -3 -97 -21 -79 -70 -90 -88 -44 -6 -69 -74 -39 -27 -84 -42 -34 -18 -87 -66 0
16 84 40 73 61 81 31 49 21 87 33 89 77 78 48 36 44 1 42 34 -3 -47 -94 -79 -83 -30 -50 -29 -76 -88 -90 -56 -25 -53 -86 -80 -64 -96 -19 -72 -38 -10 -99 -18 -11 -75 -37 -85 -28 -6 -45 -100 -92 -82 0
79 4 54 58 -43 -81 -66 -48 0
27 67 87 58 94 8 40 77 73 4 25 81 64 30 92 61 84 39 53 62 9 78 45 46 32 47 48 54 50 -14 -80 -96 -68 -60 -16 -63 -6 -3 -19 -42 -34 -52 -21 -51 -95 -12 -98 -76 -71 -43 -93 -29 -20 -59 -72 -65 -99 -33 -90 -91 0
36 11 69 43 40 81 91 67 33 73 9 -12 -34 -54 -47 -19 -37 -20 -97 -90 -2 -76 -70 -5 0
75 79 78 76 47 16 27 7 9 17 64 33 66 43 96 44 74 3 46 99 41 -28 -42 -59 -90 -84 -49 -30 -10 -83 -23 -8 -86 -19 -92 -18 -93 -12 -39 -52 -24 -80 -68 -31 -81 -22 -69 -72 -29 -35 -13 -14 -71 0
65 15 21 90 40 78 89 13 17 82 3 45 68 9 52 75 16 98 2 54 70 88 34 35 28 76 100 11 26 48 91 33 8 92 58 19 55 61 20 -59 -64 -86 -44 -23 -36 -1 -7 -39 -71 -73 -42 -32 -43 -83 -99 -67 -12 -81 -41 -96 -80 -97 -69 -66 -87 -74 -57 -79 -10 -38 -24 -5 -37 -47 -94 -46 -51 -56 -29 -85 -84 -18 -77 -95 -49 -4 -63 0
60 22 18 54 68 10 78 88 -19 -65 -34 0
88 84 15 43 69 42 6 44 91 100 64 51 37 21 59 85 8 52 76 9 92 40 41 28 63 27 78 46 90 3 77 12 35 23 39 50 -89 -36 -18 -22 -11 -81 -99 -93 -70 -20 -66 -4 -83 -60 -55 -29 -65 -10 -24 -7 -53 -58 -47 -38 -25 -97 -33 -16 -30 -73 -2 -96 -48 -57 -68 -72 -31 -1 -34 -86 -79 -75 -54 -61 -80 -49 -14 -19 -45 -74 -5 0
92 29 83 30 89 82 45 79 78 3 2 49 10 64 28 5 22 65 95 26 71 46 1 98 72 69 33 8 39 70 59 76 66 27 23 15 13 55 7 44 41 91 18 6 19 88 81 35 9 17 38 100 -31 -80 -99 -56 -16 -24 -37 -97 -67 -4 -48 -57 -96 -40 -75 -90 -77 -50 -42 -68 -87 -73 -14 -47 -36 -21 -85 -25 -52 -20 -11 -53 -94 -84 -86 -60 -63 -34 -61 -32 -74 0
49 9 44 69 77 38 8 2 40 21 51 84 87 74 17 98 52 29 79 37 95 78 72 99 12 -64 -3 -16 -54 -36 -47 -11 -92 -24 -4 -63 -32 -97 -31 -58 -26 -30 -59 -33 -100 -45 -75 -67 -19 -22 -15 -62 -66 -82 -90 -10 -55 -60 -81 -96 -23 -53 -39 0
43 32 62 21 94 68 18 16 70 77 49 42 24 34 85 87 -67 -65 -26 -36 -69 -88 -8 -10 -64 -15 -9 -17 -99 -82 -51 -80 -59 0
85 22 82 56 20 23 70 52 55 65 27 99 73 17 12 9 1 -79 -64 -46 -54 -14 -98 -67 -28 -39 -41 -69 -32 -83 -95 -61 -7 -36 -86 -50 -58 -19 -53 -87 -33 0
82 47 91 54 16 38 -35 -85 -88 -79 -81 -68 0
19 5 98 10 45 68 39 79 85 81 89 14 78 82 72 63 37 15 64 29 96 80 100 32 12 2 76 88 93 77 99 43 51 20 40 3 23 27 31 26 83 74 66 55 75 90 18 8 1 54 42 -53 -62 -70 -67 -47 -22 -73 -34 -25 -35 -69 -60 -13 -17 -59 -21 -57 -49 -44 -46 -11 -91 -36 -86 -95 -97 -65 -6 -94 -38 -16 -92 -50 -61 -24 -28 -84 -7 -48 -52 -87 -41 -58 -71 -4 -33 0
69 43 39 20 0
3 67 18 82 55 11 46 20 57 80 99 22 6 64 89 14 72 61 42 96 87 81 29 36 17 39 28 25 100 93 62 16 7 43 48 79 33 -44 -23 -66 -30 -59 -38 -37 -1 -13 -35 -51 -74 -15 -58 -78 -85 -90 -95 -73 -86 -65 -49 -21 -69 -12 -41 -76 -94 -47 -83 -75 -70 -9 -31 -97 -8 -91 -98 0
77 12 80 99 56 82 76 25 21 83 65 79 90 13 15 60 45 85 24 46 40 94 44 67 84 37 6 33 19 98 2 92 4 73 23 95 18 32 36 -49 -43 -74 -59 -34 -31 -52 -51 -75 -30 -5 -22 -58 -1 -17 -42 -7 -55 -71 -20 -68 -14 -57 -93 -96 -61 -72 -54 -16 -88 -8 -47 -11 -62 -97 -41 -27 -29 -64 -69 -10 -89 -35 -39 -48 -63 -53 -66 -70 0
22 86 48 89 97 35 95 91 17 65 41 53 3 6 64 85 78 24 67 74 27 59 -75 -77 -30 -2 -10 -94 -7 -63 -39 -70 -54 -8 -49 -40 -72 -11 -50 -82 -31 -83 -93 -15 -32 0
51 53 2 34 94 62 38 64 16 47 -14 -19 -80 -89 -95 -7 0
95 71 37 30 55 72 48 89 28 94 47 13 51 35 68 32 96 29 79 33 8 59 56 39 40 10 4 67 63 27 60 24 78 50 1 3 5 82 25 43 69 7 54 70 34 100 87 85 -52 -26 -88 -31 -49 -65 -45 -9 -16 -75 -6 -44 -18 -73 -22 -99 -58 -92 -14 -41 -11 -17 -61 -98 -90 -36 -93 -64 -74 -91 -46 -83 -66 -21 -12 -57 -42 -23 -84 -15 -2 -77 -86 -76 -38 -20 -81 -80 0
26 59 56 99 80 -53 -22 0
9 46 23 36 88 8 41 96 77 16 59 53 14 34 63 13 39 57 10 19 66 6 58 25 7 99 12 74 83 51 32 60 28 30 24 61 54 98 92 73 91 40 -5 -80 -4 -69 -31 -68 -22 -2 -85 -89 -78 -27 -81 -37 -3 -29 -93 -43 -38 -67 -47 -65 -82 -70 -1 -79 -94 -76 -90 -49 -55 -48 -33 -100 -86 -62 -71 -64 -44 -18 -35 -17 -20 -45 -15 -72 -11 -56 -42 -21 0
92 18 99 78 28 30 69 1 85 70 76 6 42 19 36 27 95 8 11 89 57 45 66 67 21 10 100 49 -68 -88 -4 -46 -60 -71 -83 -48 -90 -15 -77 -65 -33 -39 -96 -97 -26 -31 -3 -84 -98 -2 -23 -25 -22 -16 -24 -52 -58 -14 -50 -40 -91 -64 -53 -56 -38 -9 -51 -93 -80 -20 -79 -72 -82 -59 -87 -37 -7 0
97 34 44 15 22 64 28 43 57 83 1 -94 -52 -72 -6 -93 -91 -47 -86 -77 -66 -85 -20 -23 -13 0
67 54 4 56 55 -5 -13 -35 -6 -14 0
55 81 5 91 24 72 47 10 65 62 48 46 98 35 39 31 68 56 8 97 94 30 49 -64 -25 -36 -43 -73 -22 -82 -1 -18 -32 -6 -42 -66 -3 -90 -50 -60 0
88 7 64 67 6 43 74 60 10 52 36 77 32 45 84 39 2 49 66 48 63 92 21 78 16 71 41 51 17 1 30 58 59 -91 -42 -33 -40 -5 -29 -31 -20 -79 -69 -62 -14 -53 -15 -73 -4 -85 -94 -55 -68 -13 -3 -11 -70 -22 -72 -35 -46 0
12 57 17 6 38 26 87 34 35 68 29 75 93 77 85 63 60 -14 -39 -92 -37 -8 -81 -53 -22 -91 -96 0
97 88 23 58 2 1 59 54 6 40 79 61 48 84 55 26 85 35 -17 -94 -83 -12 -37 -80 -69 -4 -46 -50 -64 -9 -96 -25 -56 -28 -77 -60 0
41 19 40 7 55 18 57 89 22 76 25 56 47 8 42 21 72 29 5 98 35 88 68 65 99 3 -4 -61 -45 -77 -90 -48 -9 -13 -52 -62 -33 -59 -93 -46 -63 -53 -75 -17 -78 -43 -92 -37 -23 -26 0
65 47 43 91 75 15 58 79 26 18 31 86 71 44 95 8 90 49 45 67 88 77 93 70 35 97 25 73 4 74 13 29 61 99 36 57 27 22 37 41 -42 -53 -30 -94 -12 -64 -92 -72 -17 -63 -1 -100 -96 -14 -85 -7 -76 -55 -98 -78 -56 -23 -34 -21 -2 -83 -28 -80 -40 -68 -59 -82 -19 -81 -84 -5 0
77 39 55 91 60 56 59 47 1 18 37 84 41 35 63 86 65 100 69 64 16 15 33 51 74 54 14 13 83 10 49 22 96 44 81 25 38 90 89 3 21 7 45 61 24 76 50 23 -94 -9 -28 -48 -34 -40 -20 -43 -31 -57 -93 -19 -80 -75 -67 -30 -46 -99 -42 -29 -72 -53 -95 -92 -5 -79 -52 -82 -78 -68 -66 -58 -73 -85 -12 -11 -88 0
13 46 70 49 64 27 36 58 89 30 80 4 56 -54 -76 -14 -53 -99 -12 -78 -61 -81 -50 -10 -38 -18 -93 -35 -91 -98 -20 -67 -5 0
27 70 26 9 73 54 10 80 28 21 48 56 63 68 4 32 81 88 71 19 77 82 16 -58 -83 -13 -2 -94 -49 -72 -41 -35 -98 -78 -1 -14 -64 -91 -31 -79 -18 0
95 87 79 45 41 100 16 15 51 65 31 53 22 47 13 61 59 11 56 74 2 46 34 71 77 43 12 97 92 23 9 58 6 25 19 20 28 72 -62 -78 -88 -33 -91 -1 -60 -4 -86 -63 -54 -68 -94 -8 -90 -10 -39 -85 -69 -70 -40 -14 -48 -81 -42 -49 -17 -18 -80 -57 -64 -96 -82 -83 -26 -32 -75 -35 -50 -29 -73 -21 -27 -36 -55 -44 -38 -98 -76 -52 0
21 3 75 32 5 69 53 98 64 11 13 81 33 -90 -24 -96 -72 -15 -70 -68 -85 -22 -66 -89 -38 -39 0
99 70 34 73 58 81 19 48 53 10 37 94 16 7 100 46 45 55 57 17 49 90 32 30 11 40 72 91 3 13 67 92 2 98 79 56 24 6 77 95 44 87 42 71 9 86 89 38 35 -47 -31 -33 -75 -1 -61 -29 -41 -12 -25 -60 -5 -82 -96 -76 -8 -85 -64 -54 -78 -62 -66 -51 -84 -28 -36 -23 -43 -68 -52 -15 -80 -74 -63 -20 -93 -39 -22 -88 -26 -97 -50 -4 -14 -27 -18 -21 0
48 95 60 25 84 42 76 86 73 75 11 68 -91 -26 -70 -72 -38 -88 -55 -93 -5 -10 -53 -7 -17 -89 -85 0
29 7 93 37 19 74 59 55 8 96 20 11 15 69 12 34 4 45 48 50 63 47 26 9 83 46 67 -35 -32 -5 -54 -81 -85 -53 -18 -57 -71 -43 -25 -13 -6 -65 -82 -1 -58 -17 -44 -42 -22 -33 0
91 2 -75 0
61 50 32 51 66 90 72 42 43 79 -44 -63 -81 -89 -46 -33 -39 -26 -13 -64 -38 -47 -73 0
100 81 56 66 94 35 82 13 53 54 21 43 61 71 38 49 92 46 31 39 36 69 7 14 3 98 20 16 68 47 97 57 50 -18 -19 -52 -37 -73 -64 -29 -85 -24 -6 -44 -79 -76 -30 -96 -41 -65 -89 -8 -95 -87 -91 -22 -55 -77 -28 -83 -72 -1 -17 -67 -86 -25 -34 -60 -5 -75 -58 -9 0
63 56 49 33 23 92 50 31 86 90 42 41 57 16 48 19 54 58 53 89 67 37 29 91 12 18 17 21 95 9 -3 -36 -82 -87 -93 -43 -47 -96 -24 -61 -76 -35 -14 -22 -28 -25 -79 -88 -75 -5 -64 -13 -45 -11 -32 -65 -98 -70 0
99 89 13 86 61 87 83 6 70 93 25 26 54 5 2 -96 -80 -47 -16 -77 -81 -1 -12 -44 -78 -21 -62 -11 -98 -79 -90 -15 -55 -41 -53 0
84 62 78 89 36 48 74 29 95 22 16 97 81 6 87 7 39 17 11 40 85 13 28 82 59 66 68 31 99 58 30 26 25 24 47 71 34 53 -37 -52 -77 -94 -65 -51 -63 -44 -61 -18 -75 -38 -1 -21 -14 -45 -2 -43 -12 -8 -42 0
68 27 85 48 6 25 17 42 4 94 69 88 90 -56 -9 -5 -73 -49 -99 -76 0
71 -85 -65 -18 -38 -64 0
9 30 95 78 97 10 91 59 3 39 20 5 98 33 8 48 87 42 66 31 65 35 -1 -18 -49 -82 -50 -2 -45 -57 -68 -25 -4 -32 -37 -56 -16 -75 -51 -100 -92 -81 -69 -55 -52 -17 -46 -6 -26 -19 -70 -43 0
19 78 79 55 49 26 92 30 47 48 94 93 73 77 56 2 58 13 63 65 85 20 37 18 8 42 76 69 70 71 45 95 50 9 67 10 28 21 -3 -51 -62 -87 -99 -39 -25 -74 -43 -23 -81 -61 -86 -17 -14 -6 -54 -84 -80 -36 -89 -4 -24 -100 -53 -88 -41 -1 -91 -72 -29 -60 -66 -52 -83 -34 -59 -64 -90 -32 -40 -57 -33 -46 -82 -35 -12 -31 -11 -68 -98 -27 -75 -38 -15 -97 0
86 45 12 60 75 15 94 13 24 9 92 80 28 89 81 96 55 25 8 54 3 26 42 76 46 43 14 44 74 79 90 37 87 72 6 23 7 97 27 30 93 56 2 -49 -77 -64 -100 -32 -40 -70 -29 -50 -57 -47 -71 -1 -68 -82 -4 -52 -38 -16 -58 -21 -65 -63 -19 -35 -41 -39 -91 -48 -73 -66 -83 -11 -10 -67 -51 0
34 9 89 72 93 5 46 60 59 24 41 83 97 82 18 43 33 68 65 81 91 73 78 75 -31 -2 -23 -67 -1 -10 -8 -79 -85 -88 -11 -44 -71 -57 -92 -50 -29 -87 -55 -74 -48 -35 -26 -21 -69 0
72 6 90 12 98 21 40 97 56 63 75 19 87 60 99 10 32 18 15 9 14 88 33 44 53 86 85 89 57 95 47 17 73 96 100 24 58 64 65 71 45 -43 -70 -91 -46 -25 -11 -39 -48 -51 -55 -38 -50 -61 -83 -42 -23 -77 -82 -94 -28 -20 -49 -37 -62 -93 -79 -76 -36 -78 -31 -26 -13 -69 -92 -81 -52 -29 -34 -5 -4 -54 -74 -68 -66 -30 -7 -22 -1 -35 -27 -16 -8 -2 -84 -80 -67 -41 -59 0
36 85 97 32 2 -69 -61 -60 -34 -79 0
3 45 23 87 80 89 44 38 5 -67 -7 -55 -36 -60 -82 -48 -95 0
57 30 88 89 67 76 58 43 49 26 85 77 78 79 6 23 100 65 36 90 53 62 7 25 87 44 21 45 10 17 -1 -96 -69 -86 -37 -19 -38 -12 -50 -5 -42 -31 -15 -3 -66 -83 -63 -72 -98 -39 -35 -70 -41 -22 -2 -64 -11 -16 -8 -32 -40 -14 0
69 11 40 61 74 22 13 12 24 89 85 29 48 95 5 80 71 2 3 15 23 83 93 30 98 94 63 70 77 36 38 73 8 1 52 39 32 46 82 19 58 87 49 79 55 100 34 31 -4 -21 -97 -14 -65 -84 -91 -27 -81 -96 -10 -90 -88 -54 -60 -50 -20 -33 -16 -99 -9 -18 -44 -57 -6 -67 -17 -75 -53 -42 -72 -41 -35 -45 -28 -43 -51 -86 -26 0
24 32 27 84 86 69 77 63 37 71 60 94 50 3 -48 -40 -93 -46 -47 -15 -2 -14 -59 -57 -56 -31 -75 -38 -45 -33 -83 -89 -68 -52 -1 -39 -82 -72 -25 -64 -66 -11 -17 -81 -73 -12 -76 -97 0
98 13 18 54 39 31 44 37 92 79 50 85 12 45 47 78 60 42 29 56 74 1 3 28 86 73 77 57 62 38 83 59 52 36 4 9 17 40 -23 -41 -71 -64 -88 -5 -49 -75 -63 -10 -15 -91 -58 -65 -19 -99 -32 -43 -46 -81 -24 0
90 97 8 37 81 38 91 43 59 24 58 69 16 10 73 57 65 5 71 53 19 56 62 3 21 92 11 4 89 64 23 -25 -36 -79 -85 -1 -14 -54 -31 -47 -42 -40 -68 -27 -30 -13 -6 -12 -74 -46 -33 -41 -95 -66 -34 -52 -7 -51 -39 -60 -98 -55 -49 -44 -18 0
16 31 50 98 79 40 64 1 84 93 20 13 43 73 58 62 45 82 35 77 83 97 100 49 42 8 52 3 11 36 54 89 99 14 2 60 59 85 76 46 7 41 -56 -53 -74 -91 -27 -75 -66 -88 -4 -6 -19 -39 -72 -96 -63 -90 -80 -67 -34 -17 -81 -95 -68 -48 -78 -22 -28 -12 -5 -70 -9 -30 -47 -69 -26 -29 -24 -87 -18 0
15 57 20 40 23 55 35 70 1 32 44 83 13 26 48 77 22 51 92 37 41 50 34 47 98 -18 -38 -2 -49 -100 -3 -14 -78 -19 -82 -29 -91 -59 -58 -27 -74 -75 -96 -62 -66 -97 -6 -68 0
50 58 32 85 29 11 98 19 9 42 27 82 5 35 73 2 54 71 40 17 93 86 95 26 14 55 79 77 61 38 53 6 65 63 13 43 33 20 60 99 83 24 22 84 25 59 49 70 -62 -41 -1 -37 -16 -88 -90 -81 -64 -80 -23 -68 -46 -8 -100 -92 -18 -89 -30 -76 -91 -96 -48 -51 -4 -74 -39 -34 -7 -45 -15 -44 -67 -78 -3 -56 -28 -69 -12 -21 -97 -31 -75 -66 -36 -10 -57 -47 -52 -87 0
19 98 34 68 50 9 59 37 61 52 30 41 54 33 48 78 6 29 81 26 65 90 64 63 55 4 3 -36 -25 -97 -86 -32 -75 -84 -46 -35 -31 -1 -21 -40 -14 -93 -88 -91 -72 0
21 32 77 43 -39 -52 -55 -3 -12 -1 0
77 21 28 62 63 4 97 65 15 79 20 86 72 49 93 95 99 10 96 8 46 26 29 17 73 31 7 33 69 51 61 50 67 64 19 38 76 74 11 13 70 71 52 16 75 83 32 48 56 5 35 -27 -3 -23 -85 -34 -41 -84 -55 -53 -12 -47 -78 -25 -68 -45 -2 -9 -44 -40 -100 -92 -58 -24 -91 -36 -81 -18 -57 -80 -54 -90 -89 -43 -22 -42 -88 -6 -1 -14 -30 -82 -98 -59 -60 -39 0
14 28 81 12 15 89 18 63 79 42 53 29 1 34 54 69 10 74 40 58 17 48 92 87 59 38 45 73 35 76 8 -82 -52 -96 -70 -57 -27 -21 -39 -3 -61 -62 -47 -16 -6 -64 -46 -9 -7 -44 -78 -24 -84 -97 -86 -68 -66 -41 -72 -13 -23 -93 -5 -49 -2 -43 -94 -30 -33 -37 -67 -55 -56 -91 -75 -100 -51 -50 -25 -22 -99 -20 0
48 69 81 25 95 83 66 78 14 27 52 38 -99 -54 -97 -6 -75 -24 -92 -12 -2 -73 -5 -58 -11 -72 -15 -18 -23 -100 -53 -31 -26 -13 -40 -33 -9 0
30 38 71 10 57 19 46 33 40 64 25 43 51 55 44 28 63 -42 -99 -17 -56 -26 -68 -47 -97 -90 -27 -29 -11 -78 -59 -62 -92 -61 -54 0
73 27 30 42 87 23 43 83 18 96 86 60 38 35 21 39 61 50 58 57 80 13 62 95 72 52 32 59 22 81 64 3 28 29 33 20 5 99 56 37 -15 -16 -93 -6 -34 -84 -25 -17 -44 -19 -71 -24 -78 -69 -82 -90 -89 -88 -1 -65 -41 -2 -51 -100 -74 -12 -97 -10 -45 -7 -54 -92 -63 -40 -9 -94 -77 -91 -11 -49 -66 -36 -79 0
83 31 12 28 25 39 45 2 10 6 92 21 75 7 62 97 56 63 49 73 81 37 86 24 79 76 -88 -58 -14 -91 -54 -89 -11 -82 -44 -85 -1 -48 -60 -18 -53 -50 -74 -23 -98 -77 -17 -96 -87 -55 -30 -35 -43 -99 -41 -68 -69 -16 -42 -26 0
40 18 69 70 21 48 44 22 27 77 4 98 47 74 8 9 67 38 71 16 75 12 24 60 6 57 83 36 50 42 10 -97 -90 -1 -86 -32 -96 -87 -85 -11 -94 -81 -54 -58 -88 -100 -99 -66 -34 -2 -62 -31 -53 -49 -23 -68 -93 -78 -51 -20 -63 0
8 61 42 55 39 91 46 65 11 23 94 70 72 89 80 53 -74 -84 -29 -57 -43 -69 -45 -3 -66 -52 -40 -20 -75 -68 0
82 47 83 4 69 43 51 93 54 3 10 61 87 27 72 58 92 25 36 9 52 79 50 71 96 45 85 94 68 74 26 33 56 77 53 6 13 19 41 15 -28 -84 -23 -46 -16 -44 -49 -18 -73 -80 -48 -76 -2 -32 -38 -22 -12 -11 -98 -30 -100 -66 -21 -35 -89 -29 -37 -39 -64 -65 -14 -63 -60 -24 -99 -78 -5 -20 -95 -59 -42 -90 -67 -8 -55 -7 -40 -81 -34 -70 -91 0
91 13 26 53 46 77 98 4 7 1 40 45 48 99 55 69 51 38 76 70 17 -16 -37 -5 -11 -74 -59 -43 -72 -97 -63 -28 -54 -81 -80 -100 -50 0
9 0
3 12 73 25 52 31 100 17 41 50 8 62 93 66 79 -77 -11 -29 -71 -40 -49 -5 -72 -58 -39 -54 -10 -44 -88 -67 -20 -43 -37 -32 -33 -83 -82 0
72 19 62 67 89 31 81 63 28 30 59 85 91 48 93 51 47 64 20 43 38 79 65 4 87 83 55 12 34 75 97 88 41 33 1 99 80 35 49 2 57 17 13 78 39 95 96 16 100 86 7 24 -52 -46 -54 -23 -40 -21 -84 -71 -56 -10 -53 -37 -5 -69 -68 -8 -50 -77 -9 -27 -25 -92 -11 -18 -98 -44 -45 -26 -61 -3 -60 -14 -70 -29 -58 -22 -42 -66 -32 -76 -36 -6 -94 -82 -74 -90 -73 0
23 82 34 67 25 14 2 48 81 29 5 46 10 31 35 91 72 37 53 75 27 13 33 52 61 68 78 54 9 20 -55 -26 -93 -70 -79 -30 -28 -40 -43 -89 -50 -84 -51 -95 -41 -73 -12 -44 -60 -90 -15 -8 -96 -88 -36 -3 -64 -38 -98 -80 -63 -65 -69 -71 -62 0
68 65 92 55 63 7 40 -56 -1 -45 -24 -28 -89 -11 -8 -43 -93 -85 -97 -21 -47 -81 -3 -33 -25 -91 -13 0
40 62 9 45 90 67 23 39 76 69 5 57 42 87 92 71 66 30 54 49 48 26 36 86 61 -38 -4 -84 -65 -33 -78 -22 -72 -35 -82 0
94 16 2 13 44 82 22 -77 -83 -96 -47 -89 -46 0
77 65 66 26 31 80 79 37 17 88 29 21 63 32 69 83 34 24 64 48 -23 -14 -92 -18 -15 -90 -25 -36 -62 -94 -42 -56 -82 -53 -1 -67 -60 -51 -5 -13 -27 -16 -70 -99 -96 -95 -47 -46 -38 -91 -49 -72 -7 -3 -100 0
17 99 79 82 13 76 93 78 11 56 21 88 52 70 53 6 31 8 45 46 59 49 12 77 28 100 72 61 22 30 63 71 54 58 10 98 69 1 -14 -38 -4 -66 -91 -67 -41 -62 -73 -87 -68 -92 -64 -80 -5 -33 -51 -27 -97 -65 -57 -50 -20 -36 -44 -75 -42 -26 -81 -19 -15 -29 -55 -40 0
54 98 86 66 97 91 81 55 47 10 64 90 38 65 80 93 27 11 99 58 87 5 4 63 32 23 77 7 15 18 100 16 -56 -88 -2 -3 -85 -22 -78 -50 -84 -30 -26 -36 -40 -17 -8 -95 -12 -69 -46 -34 -52 -59 -89 -39 -6 -48 -24 -13 0
84 81 36 69 27 82 7 54 56 21 51 30 71 70 -8 -80 -10 -6 -29 -76 -75 -19 -25 -41 -32 -42 -60 -86 -87 -31 -89 -17 -94 -83 -99 0
68 54 61 49 99 36 58 -74 -85 -14 -96 -33 -2 -11 -55 -83 -38 -5 -47 -94 0
81 91 1 53 63 13 33 34 35 40 99 26 80 74 76 43 93 15 30 90 78 36 47 28 88 49 48 37 52 44 46 -94 -96 -66 -72 -2 -31 -41 -21 -39 -75 -70 -65 -84 -4 -3 -69 -14 -97 -10 -57 -9 -25 -82 -45 -64 -55 -92 -23 -22 -79 -56 -98 -60 -12 -5 -32 -27 0
2 46 99 90 7 8 86 62 26 97 18 11 29 82 72 32 67 -55 -89 -27 -20 -43 -3 -22 -34 -33 -52 0
62 28 35 61 74 60 32 66 52 6 34 91 12 81 -24 -53 -40 -26 -90 0
34 9 26 85 14 23 75 62 81 37 48 54 58 64 38 50 5 94 27 90 51 8 96 73 76 13 28 17 78 66 69 99 42 55 6 86 71 60 77 -93 -41 -45 -82 -7 -63 -53 -80 -20 -87 -22 -57 -74 -32 -67 -29 -100 -44 -43 -19 -11 -56 -21 -10 -16 -2 -98 -47 -52 -24 -46 -72 -59 -49 -89 -1 -61 -79 -83 -30 0
1 58 4 83 75 60 46 86 31 41 48 39 88 27 47 94 34 29 55 20 44 43 65 82 72 67 49 69 87 36 91 30 -12 -37 -16 -28 -3 -85 -96 -23 -33 -90 -15 -73 -57 -7 -76 -35 -63 -74 -78 -54 -98 -81 -10 -79 -84 -53 -11 -62 -19 -14 -5 -70 -38 -56 -17 -32 -99 -24 0
82 79 47 93 75 51 76 13 36 38 55 72 7 73 99 33 66 100 49 80 95 67 25 92 61 15 -69 -8 -10 -78 -74 -48 -58 -59 -26 -20 -4 -30 -14 -97 -96 -24 -71 -2 -85 -11 -40 -3 -56 -89 -84 -9 0
44 34 31 90 87 14 78 54 6 27 19 29 17 58 35 2 71 76 -86 -12 -94 -72 -88 -57 -50 -42 -97 -33 -30 -73 -10 -63 -15 0
54 79 50 51 88 24 57 21 27 43 36 82 2 11 68 60 78 92 75 42 55 52 85 15 20 22 95 59 -45 -49 -6 -98 -35 -77 -67 -17 -96 -66 -26 -90 -31 -69 -94 -44 -40 -39 -16 -14 -80 -71 -33 -41 -30 -87 -100 -73 0
12 85 99 31 69 28 70 71 65 6 34 78 67 68 7 10 23 58 45 63 39 57 13 38 20 33 60 64 3 61 52 83 37 32 84 72 86 46 91 30 95 50 54 55 16 14 -74 -17 -1 -22 -97 -44 -2 -88 -51 -81 -92 -56 -96 -47 -19 -62 -35 -26 -79 -21 -5 -90 -25 -49 -98 -42 -9 -73 -80 -59 -27 -36 -53 -15 -93 -82 -89 -41 -87 -40 -8 -94 -43 -29 -100 -11 -18 -48 -76 -24 -4 0
89 8 12 19 61 40 52 17 46 3 96 53 92 16 91 24 -47 -15 -10 -48 -68 -9 -44 -86 -76 -97 -58 -34 -39 -66 -21 0
11 4 18 52 15 82 26 38 33 91 3 35 81 97 25 -67 -39 -47 -17 -49 -79 -13 -93 -29 -76 -53 -5 -16 0
58 64 49 4 57 12 54 33 48 70 65 77 62 86 52 -17 -69 -34 -32 -59 -84 -47 -61 -97 -63 -31 -53 -11 -55 -80 -10 -22 0
50 6 7 16 55 39 93 40 37 61 75 60 4 2 53 57 38 73 29 95 52 10 86 71 90 85 69 97 96 58 31 77 51 48 66 5 100 83 80 81 87 56 1 19 32 -84 -72 -33 -98 -70 -74 -59 -14 -17 -94 -54 -42 -8 -63 -62 -49 -88 -15 -99 -3 -11 -27 -46 -26 -91 -30 -28 -36 -9 -24 -44 -34 -25 -78 -79 -89 -18 -43 -64 -13 -20 -35 -65 -76 -47 -21 -12 -67 -92 0
90 80 56 49 44 93 82 18 54 62 92 38 16 95 87 57 84 14 10 23 21 2 81 9 77 48 83 94 45 50 12 53 31 55 51 8 46 7 61 -40 -47 -99 -24 -63 -60 -29 -67 -36 -68 -37 -64 -43 -13 -35 -39 -100 -76 -34 -5 -25 -70 -69 -85 -58 -78 -26 -19 -79 0
54 26 30 78 85 1 92 55 51 49 77 14 81 71 43 56 90 62 39 47 53 46 42 63 35 5 82 28 17 6 31 8 19 80 86 58 75 100 79 18 9 94 10 -98 -60 -20 -45 -61 -15 -12 -13 -57 -93 -25 -74 -36 -37 -2 -21 -88 -65 -34 -72 -50 -33 -48 -29 -44 -97 -32 -67 -66 -95 -24 -27 -70 -41 -52 -22 -40 -83 -87 -96 -73 -69 -89 -99 -76 -68 -64 -16 -7 -91 -4 -84 -11 -59 0
19 22 18 14 65 64 38 73 51 29 87 40 60 46 81 66 6 97 75 98 41 45 55 96 56 32 39 47 71 31 -95 -42 -49 -76 -27 -58 -62 -92 -33 -69 -53 -70 -57 -25 -35 -24 -3 -74 -50 -10 -2 -61 -82 -12 -89 -28 -4 -43 -30 -90 -37 -8 -17 -99 -94 -67 0
22 27 29 63 53 69 68 17 7 89 20 64 61 58 35 6 1 65 45 56 26 96 94 71 87 48 10 38 36 -47 -30 -86 -15 -8 -60 -95 -25 -13 -81 -88 -11 -85 -33 -37 -67 -21 -2 -79 -31 -3 -16 -9 -74 -24 -97 0
43 35 54 25 20 79 94 91 68 58 61 33 75 40 13 19 17 80 4 5 59 97 15 92 76 52 90 21 31 8 9 12 34 62 23 50 71 93 30 -63 -42 -28 -16 -22 -96 -69 -1 -67 -37 -14 -72 -41 -45 -85 -7 -78 -89 -6 -65 -86 -99 -74 -56 0
72 5 39 63 2 91 42 34 41 95 10 36 21 7 40 50 92 32 43 -24 -45 -4 -86 -61 -35 -38 -23 -87 -60 -66 -44 -15 0
65 36 42 14 -52 -58 -74 -95 -87 0
21 43 98 53 83 74 25 79 26 47 91 71 17 41 70 35 65 5 28 22 80 20 93 27 30 55 29 100 24 68 15 1 81 51 86 7 45 75 9 8 46 18 64 76 36 37 44 82 54 49 -19 -96 -16 -89 -90 -56 -62 -14 -61 -33 -57 -99 -59 -13 -66 -78 -92 -12 -88 -77 -60 -52 -48 -67 -6 -63 -50 -69 -73 -34 -32 -95 -3 -40 -4 -42 -11 -23 -39 -58 -94 -10 -97 -31 -85 -87 -72 0
20 97 65 41 -89 0
73 3 58 32 48 4 30 52 14 27 54 79 60 78 50 9 38 47 17 13 33 80 8 21 19 16 -43 -93 -34 -11 -96 -64 -72 -31 -20 -75 -87 -66 -97 -55 -44 -62 -6 -56 -28 -51 -1 -81 -42 -36 -70 -99 -88 -71 -63 -74 -85 0
4 -75 -55 -73 -26 -91 -94 -52 -67 0
78 30 18 58 69 53 80 84 20 42 -50 -12 -86 -63 0
26 40 89 60 70 25 16 59 68 90 75 35 65 72 57 77 62 10 82 58 14 1 95 29 34 91 5 100 31 76 64 8 9 27 97 49 50 83 84 94 98 11 69 13 78 21 7 38 22 6 20 53 87 41 4 71 -92 -54 -43 -42 -18 -66 -39 -48 -93 -79 -86 -19 -15 -67 -24 -32 -37 -56 -63 -80 -44 -17 -61 -45 -46 -28 -51 -30 -74 -47 -81 -88 -36 -3 -23 -99 0
53 73 5 10 49 41 87 51 37 21 -97 -66 -81 -90 -22 -46 -83 -69 0
48 10 38 25 95 64 39 66 47 41 18 89 16 40 67 70 49 76 29 24 94 51 85 42 2 14 84 43 86 22 80 45 74 3 81 61 12 82 100 72 73 58 36 4 57 55 59 31 96 -21 -19 -75 -34 -79 -83 -17 -6 -90 -13 -50 -77 -87 -33 -46 -54 -78 -53 -28 -8 -32 -23 -69 -15 -1 -27 -93 -63 -52 -35 -98 -9 -68 -11 -62 -7 -26 -20 -91 -30 -5 -92 -44 -97 -88 -60 0
95 37 50 35 24 82 17 22 88 79 36 73 57 40 38 92 6 72 21 74 87 90 66 62 23 53 86 33 54 60 52 10 20 81 29 32 4 89 51 76 47 44 65 15 96 56 -42 -9 -94 -26 -67 -3 -70 -18 -14 -78 -30 -16 -27 -58 -7 -100 -59 -71 -5 -49 -31 -1 -75 -84 -97 -45 -12 -55 -93 -99 -19 -13 -48 -39 -68 -83 -25 -8 -28 -11 -63 -69 -46 0
31 44 73 50 21 18 88 49 81 22 85 3 69 57 29 65 96 98 59 20 2 92 61 37 33 40 4 53 99 68 32 60 42 95 56 87 -74 -10 -38 -9 -72 -11 -48 -55 -77 -35 -7 -67 -63 -84 -89 -52 -71 -100 -51 -75 -47 -79 -43 -70 -46 -1 -82 -17 -25 -58 -16 -23 -12 -6 -76 -19 -86 -90 -41 -54 -83 -8 -97 -30 -14 -62 -5 -15 -39 0
33 100 66 63 32 28 51 12 21 40 98 55 49 97 85 89 90 16 72 43 74 39 78 27 46 92 73 61 76 65 4 64 18 11 30 9 87 62 10 99 56 80 70 71 13 48 93 35 -41 -25 -26 -31 -69 -17 -24 -88 -86 -94 -81 -60 -1 -95 -15 -44 -67 -8 -7 -84 -83 -47 -5 -14 -79 -6 -3 -54 -75 -96 -29 -19 -2 -23 -38 -57 -42 -82 -58 0
70 74 23 12 72 35 93 5 53 8 71 77 81 55 64 88 100 67 60 39 4 26 95 3 24 54 10 90 78 38 18 52 25 19 79 27 68 -50 -15 -59 -89 -46 -44 -43 -86 -91 -40 -98 -69 -36 -83 -73 -21 -14 -42 -1 -57 -82 -28 -66 -63 -32 -65 -92 -6 -31 -56 -30 -94 -85 -58 0
14 35 23 96 38 45 49 12 16 84 13 76 8 89 77 36 91 80 5 82 37 31 62 44 73 74 78 27 93 20 9 65 42 90 64 61 72 41 32 46 40 81 10 -85 -51 -66 -39 -48 -19 -98 -17 -50 -29 -97 -54 -1 -43 -63 -71 -28 -58 -3 -70 -34 -30 -60 -21 -83 -25 -2 -47 -57 -99 -55 -7 -94 -4 -67 -22 -88 -69 -26 0
17 75 30 79 6 94 84 58 33 24 5 89 25 72 68 1 71 47 32 42 44 31 34 -86 -10 -19 -36 -82 -81 -29 -100 -88 -91 -35 -74 -87 -21 -62 -13 -20 -38 -83 -14 -53 -63 -69 -80 -7 0
81 1 66 36 14 34 74 67 65 47 91 94 11 45 77 28 43 86 21 59 62 57 98 3 33 32 2 58 13 95 39 60 92 90 23 -29 -6 -4 -42 -69 -8 -37 -30 -68 -93 -72 -20 -51 -16 -17 -70 -83 -75 -48 -25 -7 -38 -64 -87 -12 -79 -5 -26 -27 -50 -44 -61 -80 -97 -19 -73 -52 -46 -85 0
4 52 -75 -39 -12 -92 -10 -81 -18 -76 -26 0
29 40 26 44 82 27 43 3 70 15 38 59 9 19 48 91 18 62 68 25 50 -45 -31 -12 -34 -54 -58 -42 -51 -97 -37 -16 -5 0
94 32 93 71 39 52 89 74 33 47 70 35 57 43 45 91 10 100 20 18 8 34 73 14 -46 -81 -84 -99 -3 -76 -16 -67 -79 -12 -97 -64 -2 -13 -62 -38 -96 -36 -44 -22 -56 -77 -7 -25 -31 -69 -11 -15 -85 -49 -54 -68 -21 -27 -63 -40 -95 -19 -75 -29 -53 -6 -65 -23 0
22 78 10 58 97 88 36 53 54 4 89 96 -76 -31 -57 -1 -93 -30 -14 -60 -9 -43 -20 -21 -67 -99 -75 0
26 79 99 10 35 78 80 36 -53 -76 -50 -24 -27 -89 -58 -94 -92 0
73 57 68 5 -35 0
28 53 76 37 80 56 54 83 85 77 98 -8 -25 -60 -10 -88 -96 -69 -42 0
9 60 5 14 28 69 27 59 19 80 78 44 66 18 39 -6 -22 -53 -77 -91 -85 -32 0
28 30 20 60 92 24 7 86 15 55 8 29 47 52 37 49 5 98 89 93 91 56 6 78 50 64 66 21 16 3 27 22 68 26 17 45 54 80 48 46 77 41 14 34 38 53 75 31 96 23 43 -69 -59 -67 -82 -79 -39 -99 -9 -100 -87 -10 -61 -71 -12 -63 -85 -35 -40 -95 -58 -65 -11 -94 -13 -2 -90 -57 -25 -97 -70 -83 -72 -19 -1 -36 -33 -44 -42 -51 -18 0
54 50 73 8 1 48 -75 -13 -97 -42 -94 -17 -96 -100 0
28 88 33 85 77 61 84 97 100 16 30 89 18 73 26 21 51 10 56 54 9 27 25 44 68 -15 -20 -46 -79 -13 -39 -98 -50 -72 -80 -19 -3 -94 -86 -92 -31 -93 -69 -35 -60 -49 -82 -6 -32 -38 -47 -17 -75 -70 -78 0
59 67 25 84 51 14 28 95 91 76 100 33 89 16 7 86 96 21 17 13 30 60 68 66 70 77 64 40 36 4 69 1 99 2 15 93 49 83 39 44 65 18 90 8 54 9 46 43 79 50 -97 -75 -38 -20 -24 -63 -57 -78 -6 -35 -55 -11 -32 -71 -87 -88 -10 -81 -42 -27 -48 -73 -61 -85 -47 -23 -80 -98 -74 -22 -34 -52 -62 -26 -31 -58 -56 -3 -5 -53 -37 -82 -41 -19 -12 -29 -45 -94 0
59 20 91 90 85 38 81 11 -71 -57 -29 -67 -77 -35 -18 -100 -58 -62 -45 -96 0
73 60 90 32 57 11 36 81 74 17 34 84 63 39 48 86 71 95 41 87 8 85 37 45 91 50 15 38 68 14 18 61 23 30 79 3 88 59 96 24 62 40 92 94 13 75 82 72 83 65 5 55 80 22 9 54 35 -58 -27 -93 -98 -44 -42 -76 -56 -12 -21 -46 -100 -10 -19 -99 -69 -66 -70 -28 -97 -6 -25 -47 -78 -29 -43 -26 -77 -31 -33 -64 -49 -4 -52 -51 -67 -7 -16 -2 -53 -89 -20 0
57 71 40 3 31 1 27 37 25 72 42 60 74 47 49 77 46 75 -91 -81 -56 -96 -17 -29 -99 -33 -19 -18 -45 -10 -61 -2 -82 -54 -73 -78 0
18 2 95 93 11 56 50 39 88 81 -30 -32 -48 -36 -96 -84 0
22 6 94 4 51 -26 -65 -70 -36 -7 -21 -66 0
65 84 55 48 70 59 22 80 6 56 74 -85 -29 -9 -26 -95 -17 -19 -43 0
29 98 12 74 84 26 11 61 17 94 99 34 78 59 82 43 27 79 30 60 3 87 67 76 22 -2 -63 -77 -71 -21 -68 -69 -45 -28 -39 -72 -88 -70 -31 -89 -57 -10 -93 0
25 79 96 80 34 11 52 27 13 8 41 55 90 77 5 22 38 43 99 42 97 60 14 15 4 92 23 72 63 82 21 51 28 -81 -33 -40 -87 -94 -83 -18 -6 -12 -46 -66 -30 -74 -95 -47 -76 -49 -9 -1 -67 -24 -2 -37 -57 -31 -20 -26 -86 -39 -58 -89 -59 -56 -44 0
11 4 49 51 9 29 48 15 5 55 73 39 99 80 25 65 66 38 78 81 17 100 64 40 96 31 -35 -83 -92 -74 -23 -85 -53 -76 -62 -88 -34 -75 -79 -2 -30 -90 -16 -71 -45 -57 0
94 91 32 81 42 5 39 22 14 33 88 80 37 87 57 54 45 49 35 1 69 38 24 75 56 3 85 52 44 61 27 65 -82 -4 -97 -62 -71 -79 -66 -34 -12 -6 -11 -41 -15 -29 -30 -16 -86 -67 -43 -50 -92 -48 0
38 97 53 23 64 40 46 60 3 20 84 63 89 -94 -17 -45 -95 -66 -47 -41 -76 -52 -10 -96 0
78 24 99 55 100 39 35 82 9 6 67 94 7 54 72 96 33 12 19 89 80 23 36 26 3 53 73 1 49 95 61 86 52 4 34 66 41 20 50 97 60 65 -31 -63 -25 -98 -30 -13 -87 -40 -85 -56 -69 -70 -77 -38 -16 -51 -10 -58 -43 -11 -79 -83 -71 -18 -92 -46 -21 -37 -27 -91 -68 -8 -17 -84 -90 0
3 69 2 67 6 16 26 92 75 55 48 64 28 38 81 73 54 46 18 59 50 61 63 84 74 25 34 32 82 42 21 83 1 49 39 88 79 11 -60 -96 -52 -53 -43 -44 -4 -91 -35 -47 -68 -70 -41 -98 -78 -85 -94 -36 -5 -24 -13 -22 -33 -15 -10 -20 -66 -51 -97 -57 -58 -40 -95 -29 0
5 39 7 45 18 60 87 40 1 31 98 70 22 48 71 67 46 77 68 44 13 83 21 29 34 51 53 96 50 11 66 57 14 54 52 59 25 36 3 62 4 43 47 2 94 17 74 28 82 -8 -9 -58 -99 -38 -20 -72 -86 -24 -89 -33 -27 -56 -37 -90 -91 -10 -88 -61 -30 -100 -95 -93 -76 -16 -80 -73 -55 -79 -19 -15 -97 -85 -41 -49 -69 -75 -63 0
63 92 51 5 7 91 17 70 46 94 78 10 74 99 61 14 73 56 60 21 4 38 18 72 65 80 88 49 50 39 33 16 12 77 45 20 96 -87 -62 -58 -8 -41 -35 -48 -42 -32 -93 -43 -81 -34 -71 -84 -79 -100 -44 -27 -55 -69 -28 -54 -6 -31 -53 -15 -83 -95 -68 -36 -76 -11 -23 -89 -97 -13 0
43 9 62 40 11 47 52 24 88 69 46 97 76 51 66 27 28 16 100 7 68 31 12 82 8 79 65 57 73 3 67 32 53 92 74 13 37 36 -50 -86 -25 -42 -70 -56 -33 -1 -20 -4 -19 -77 -6 -94 -10 -17 -38 -75 -81 -15 -89 -18 -59 -64 -34 -90 -30 -83 -26 -45 -49 -85 -61 -72 -22 -80 0
18 60 13 2 71 22 52 85 72 21 86 10 58 65 80 49 15 8 42 63 83 27 56 32 81 48 14 84 23 96 33 59 90 4 9 95 7 76 55 88 5 -6 -73 -94 -78 -11 -40 -91 -1 -35 -31 -26 -74 -41 -47 -29 -16 -19 -93 -46 -44 -62 -17 -75 -34 -50 -37 -89 -12 -24 -97 -92 -100 -38 -43 -53 -61 -87 0
54 36 2 17 73 81 41 90 47 76 13 69 89 49 56 92 58 38 7 94 35 5 -12 -46 -79 -37 -60 -51 -16 -78 -44 -42 -30 -50 -96 -21 -39 -71 -59 -10 -55 -29 -100 -6 0
82 49 37 69 75 14 17 28 20 31 92 13 76 86 79 53 41 51 38 48 8 70 39 96 15 80 36 68 81 -89 -61 -26 -4 -2 -33 -42 -50 -43 -5 -54 -93 -11 -22 -100 -24 -91 -27 -9 -73 -19 -66 -34 -62 -63 -88 -90 0
59 46 1 28 44 8 11 38 96 89 48 51 31 76 14 7 80 73 21 62 24 49 40 56 100 30 52 39 22 13 45 50 64 57 -16 -78 -83 -25 -26 -35 -63 -37 -19 -68 -29 -54 -3 -66 -69 -5 -93 -70 -79 -81 -97 -18 -90 -74 -94 -88 -23 -72 -42 -60 -32 -20 0
64 36 47 43 89 30 35 6 21 85 16 49 48 45 73 78 24 91 59 31 75 41 28 71 83 18 -38 -100 -20 -55 -25 -66 -58 -82 -22 -13 -37 -12 -57 -86 -42 -53 -87 -94 -93 -79 -54 -39 -34 -44 -50 -60 -40 -74 -84 -63 -69 -10 -1 -51 -99 -76 -98 -17 0
54 13 15 55 88 90 61 28 35 10 33 78 36 26 68 21 100 27 29 56 48 62 50 23 74 93 80 86 85 19 34 83 32 59 -5 -69 -79 -43 -18 -97 -37 -25 -91 -46 -92 -64 -95 -98 -89 -17 -70 -81 -73 -60 -44 -63 -45 -7 -52 -57 -41 -22 -75 -72 -76 -40 -99 -4 -9 -66 -20 -2 -77 -1 -12 -24 -42 -14 -11 -47 -67 -16 0
68 66 12 65 57 36 84 55 34 83 64 96 80 43 82 95 74 98 86 53 52 35 79 39 78 85 30 87 51 22 13 88 40 37 1 94 4 32 14 42 50 16 73 24 99 48 5 6 56 69 17 -45 -27 -72 -49 -93 -54 -47 -3 -90 -29 -2 -41 -61 -15 -7 -44 -71 -20 -62 -38 -89 -10 -33 -91 -76 -81 -77 -100 -70 -92 -21 -28 -58 -63 -75 -31 -67 -59 -9 -25 -97 0
14 52 6 11 27 5 32 19 13 54 21 22 23 66 90 58 12 31 91 61 72 68 3 -33 -4 -97 -35 -82 -10 -59 -50 -74 -65 -24 -25 -7 -39 -2 -80 -36 -87 -40 0
58 27 80 99 29 68 56 43 55 81 49 75 13 23 90 98 82 22 35 52 70 45 18 85 73 50 11 54 14 15 8 42 36 63 12 74 59 91 5 7 96 25 60 4 38 28 24 100 32 89 76 34 -94 -67 -1 -95 -2 -93 -6 -30 -72 -48 -39 -51 -41 -65 -87 -16 -33 -66 -78 -83 -61 -92 -79 -21 -37 -86 -31 -3 -40 -53 -97 -10 -57 -19 -26 -88 -71 -46 -69 -77 -47 -64 -20 -84 -62 0
91 86 28 52 72 99 42 96 63 56 34 53 16 71 43 73 40 3 68 12 23 75 46 -31 -27 -57 -25 -100 -49 -95 -70 -94 -36 -19 -15 -20 -11 -41 -29 -10 -84 -60 -81 -92 -48 -7 -77 -79 -51 -26 -87 -35 -66 0
34 93 90 52 61 23 44 62 72 65 69 51 74 12 31 84 94 66 -30 -54 -71 -100 -14 -96 -43 -29 -40 -59 -1 -77 -42 -63 -28 -45 -67 -16 -3 -58 -32 -18 -46 -86 -11 -7 -22 0
12 13 36 68 28 5 58 57 86 93 9 64 44 97 80 95 56 50 100 61 98 8 42 23 46 71 6 92 48 39 96 70 21 1 27 85 16 91 -20 -19 -35 -89 -55 -45 -30 -60 -4 -43 -73 -33 -54 -78 -26 -94 -3 -84 -88 -10 -63 -75 -7 -65 -25 -40 -31 -14 -34 -49 -99 -81 -87 -51 -77 -62 -67 -83 -90 -38 -82 -24 -15 -76 -11 -29 0
81 92 65 33 46 25 89 10 6 38 22 1 74 82 24 86 28 68 61 37 39 -41 -48 -20 -87 -55 -94 -57 -14 -17 -27 -11 -32 -64 -21 0
45 100 51 28 27 72 25 30 9 35 33 96 59 69 6 55 86 17 56 77 47 98 -32 -84 -46 -39 -29 -88 -71 -93 -63 -37 -44 -15 -62 -43 -14 -54 -2 -52 -89 -50 -20 -60 -92 -16 -70 -67 -53 -21 -1 -74 -26 0
96 26 41 70 18 88 61 12 6 14 29 13 30 77 93 95 25 27 97 81 67 79 57 86 51 52 20 35 38 66 74 68 15 55 11 100 85 62 90 44 34 48 91 -56 -60 -4 -45 -23 -31 -43 -98 -84 -72 -54 -58 -46 -19 -59 -9 -24 -99 -87 -36 -1 -50 -3 -7 -49 -69 -16 -89 -47 -92 -2 -82 -64 -37 -5 -32 -80 -8 -75 -83 -33 -53 0
74 51 57 63 83 2 4 65 92 9 72 47 95 23 33 39 88 11 43 56 -20 -84 -60 -90 -3 -61 -45 -73 -24 -69 -62 -32 -10 -86 -13 -85 -15 -79 -8 -38 -12 -30 -31 -70 -78 -25 0
73 91 59 5 24 46 48 87 92 58 9 16 41 10 89 66 39 7 76 34 96 84 27 42 3 52 -32 -62 -53 -38 -44 -12 -21 -83 -67 -15 -81 -30 -97 -82 -14 -36 0
70 16 84 60 74 39 13 31 37 51 27 53 10 49 92 38 12 45 71 89 19 46 64 14 11 24 6 80 42 61 -50 -91 -29 -52 -54 -17 -56 -3 -35 -4 -1 -96 -18 -32 -48 -20 -95 -55 -15 -82 -75 -57 -34 -23 -40 -77 -73 -41 -78 -88 -25 -33 -59 -85 -90 -36 -7 -72 -99 -87 -100 -58 -63 -86 -43 -2 -8 0
86 62 39 59 16 83 -90 -65 0
41 86 97 25 13 79 98 96 92 33 80 46 88 60 12 100 8 99 53 87 11 16 71 65 59 43 56 52 27 -58 -77 -62 -40 -23 -20 -22 -67 -37 -21 -39 -34 -19 -28 -49 -85 -61 -89 -38 -31 -81 -48 -9 -64 -44 -36 -55 -3 -74 -32 -5 0
7 2 62 27 81 19 99 6 77 13 41 90 57 39 96 20 28 29 58 31 66 76 71 93 72 23 22 86 11 1 87 55 95 42 92 45 4 54 5 8 44 74 84 17 46 -9 -100 -30 -63 -67 -10 -52 -33 -79 -18 -78 -59 -73 -98 -70 -40 -68 -25 -64 -3 -38 -82 -24 -14 -97 -34 -75 -53 -50 -69 -32 -61 -83 -37 -85 -88 -49 -65 -60 -43 -21 0
78 82 56 42 10 -3 -40 0
100 54 91 95 27 5 65 15 9 28 69 82 56 16 76 89 47 35 67 22 43 57 29 73 18 -64 -8 -68 -59 -2 -84 -34 -85 -17 -81 -50 -42 -83 -7 -62 -20 -60 -78 -79 -45 -53 -72 -61 -24 -37 -96 -4 -88 -92 -30 -52 -71 -44 -87 -10 0
12 40 53 41 13 42 23 64 63 96 36 70 32 84 52 54 49 56 57 93 14 80 8 98 38 76 61 11 27 82 16 85 74 95 25 73 28 87 -90 -99 -79 -3 -81 -75 -68 -46 -89 -55 -100 -92 -58 -69 -6 -71 -30 -10 -15 -9 -48 -19 -66 -60 -67 -29 -5 -78 -24 -2 -37 -86 -77 -20 -1 -18 -97 -83 -47 -35 -33 -62 -4 -17 0
6 40 17 58 97 12 99 82 80 16 98 48 10 69 64 39 5 66 22 41 75 44 15 7 9 11 29 35 37 83 51 78 47 28 85 84 79 3 72 27 32 20 45 18 24 38 19 26 -33 -30 -87 -43 -23 -65 -60 -81 -2 -50 -59 -74 -63 -4 -67 -57 -54 -52 -36 -88 -71 -86 -90 -31 -76 -13 -73 -8 -61 -89 -70 -100 -1 -56 -46 -95 -96 -53 -68 -42 -77 -91 -14 -94 -34 -92 -55 -62 -93 -25 -49 0
52 30 51 60 36 72 32 11 49 35 39 74 91 25 100 71 86 3 28 24 93 46 34 10 50 63 20 38 89 94 87 82 61 4 88 69 40 75 73 67 26 9 76 23 58 16 54 22 66 14 98 80 -85 -41 -84 -6 -44 -5 -99 -56 -96 -19 -21 -92 -17 -62 -57 -45 -2 -70 -81 -42 -48 -65 -53 -97 -47 -95 -43 -77 -31 -15 -68 -13 -79 -64 -59 -83 -12 -33 -7 -78 -18 -8 -55 -90 -1 -37 0
13 78 35 29 44 72 48 70 83 6 49 87 75 77 62 21 76 60 50 8 43 46 26 65 5 39 64 30 14 11 73 -84 -9 -91 -63 -69 -90 -7 -93 -89 -53 -59 -42 -88 -10 -24 -96 -58 -34 -38 -1 -27 -55 -51 -41 -45 -99 0
45 96 5 74 52 24 20 -41 -95 -94 -72 -16 -3 -36 -19 -73 -32 -10 0
37 93 14 54 30 85 95 12 6 97 86 59 -83 -48 -38 -27 -60 -91 -16 -89 -9 -74 -44 -17 -63 -57 -80 0
47 83 76 52 1 23 99 30 14 -26 -32 -70 -36 -75 -65 -93 -21 -27 -59 -34 -82 -31 -55 -67 0
97 73 74 18 6 47 15 53 46 83 82 12 64 28 51 35 81 9 89 60 87 22 31 -95 -78 -25 -69 -88 -19 -52 -49 -8 -99 -16 -7 -11 -17 -4 -43 -66 -3 -80 0
52 13 3 9 87 79 76 92 75 37 17 77 91 48 71 46 29 60 85 36 65 100 49 20 2 32 80 27 6 26 96 83 78 98 47 -28 -8 -59 -53 -18 -68 -41 -21 -58 -64 -16 -90 -61 -88 -39 -24 -4 -62 -66 -5 -63 0
45 85 31 32 44 52 70 58 97 82 16 18 33 1 72 41 94 65 49 61 42 62 36 40 2 9 35 67 77 57 23 99 30 79 87 54 46 15 34 50 59 63 47 3 75 -24 -90 -86 -81 -39 -27 -22 -10 -95 -28 -93 -4 -13 -21 -89 -20 -98 -80 -43 -55 -29 -12 -91 -60 -68 -19 -51 -88 -76 -71 -37 -6 -14 -66 -83 -48 -78 -25 -38 -69 -73 -100 -5 0
41 67 21 65 3 91 20 98 62 97 81 12 73 88 72 60 51 47 54 87 96 75 33 11 55 14 56 30 38 34 26 58 94 48 50 45 6 64 44 39 15 2 57 36 52 17 -79 -31 -29 -90 -95 -93 -1 -24 -42 -92 -25 -49 -5 -68 -100 -13 -85 -16 -86 -70 -71 -10 -84 -61 -18 -9 -43 -82 -66 -80 -63 -35 -77 -78 -46 0
35 40 81 100 49 30 93 32 73 76 67 91 92 86 14 82 8 46 66 37 59 42 31 71 61 62 -97 -21 -95 -12 -60 -72 -55 -69 -13 -44 -6 -43 -99 -96 -88 -3 -1 -9 -26 -68 -65 -80 -18 -19 -57 -94 -98 -27 -4 0
61 85 47 44 4 42 58 77 81 88 62 11 65 35 93 8 20 37 -80 -92 -18 -7 -43 -10 -74 -76 -34 -23 -95 -98 -84 -27 -49 -22 -24 -46 0
52 36 56 62 25 34 58 80 32 88 72 38 41 31 45 71 -94 -60 -98 -78 -97 -39 -84 -11 -24 -67 -81 -46 -3 -85 -65 -93 0
70 8 93 89 20 91 4 15 58 67 51 7 45 22 74 21 29 33 55 28 79 19 17 69 71 90 10 49 -62 -38 -40 -97 -32 -53 -25 -24 -54 -59 -82 -44 -72 -100 -73 -65 -98 -43 -57 -39 -47 -12 -63 -36 -18 -83 -48 -3 -30 -66 -37 -13 -50 -87 -11 -14 -23 -27 0
7 77 29 13 23 9 45 21 11 37 60 65 49 88 58 99 51 91 26 71 6 81 36 52 42 30 84 96 43 40 61 54 57 92 24 98 39 10 18 68 63 1 87 83 17 67 56 35 -20 -27 -75 -86 -82 -3 -78 -15 -50 -55 -72 -4 -31 -47 -94 -85 -12 -48 -16 -76 -69 -22 -66 -8 -19 -5 -25 -28 -59 -53 -89 -32 -33 0
65 0
55 67 21 79 15 44 75 38 27 65 37 34 89 62 90 64 2 76 48 86 96 5 36 80 69 53 18 9 30 72 14 40 50 26 61 23 -6 -68 -16 -63 -56 -60 -25 -1 -13 -12 -11 -77 -42 -92 -41 -19 -95 -17 -93 -10 -57 -24 -71 0
48 63 21 81 61 46 95 30 14 18 28 99 77 43 64 58 92 26 94 88 1 53 39 82 6 9 47 23 80 15 16 85 83 -32 -27 -41 -57 -5 -11 -50 -45 -93 -20 -19 -90 -38 -52 -37 -42 -59 -67 -33 -62 -87 -17 -66 -31 -22 -40 -65 -25 -89 -97 -10 -2 -49 -60 -73 -100 -69 -86 -4 -91 -34 -24 -13 0
43 85 18 31 64 87 55 61 99 29 33 83 45 80 66 41 53 4 68 6 81 28 62 30 90 95 86 38 60 77 10 -9 -84 -49 -98 -75 -15 -11 -74 -7 -96 -20 -65 -92 -24 -36 -78 -71 -50 -17 -44 -35 -76 -1 -32 -97 -21 -39 -56 -46 -51 -8 -73 -12 -22 -47 -26 -14 -16 -3 -57 0
7 99 16 82 89 47 50 79 63 97 83 39 43 84 92 96 87 58 72 35 36 22 53 91 -59 -48 -51 -31 -100 -73 -3 -14 -26 -69 -42 -17 -68 -6 -95 -20 -77 -57 -54 -9 -98 -62 -81 -13 -80 0
71 32 31 15 89 9 17 12 87 -48 -100 -82 -63 -18 -58 -56 -55 -75 -3 -62 -30 -20 -72 0
84 23 81 41 77 2 24 52 5 57 85 16 64 71 68 70 93 59 66 60 30 46 53 62 3 14 67 36 18 100 1 76 94 31 73 25 -78 -65 -15 -51 -37 -82 -26 -12 -87 -83 -43 -96 -42 -4 -6 -74 -33 -54 -34 -75 -48 -80 -13 -69 -55 -11 -56 -40 -20 -47 -72 0
59 6 11 25 63 33 -41 -14 -52 -71 -81 -31 0
60 51 3 33 89 67 84 30 45 95 9 7 36 34 1 63 39 66 13 19 85 43 92 40 21 17 14 31 46 -74 -76 -12 -64 -57 -24 -20 -87 -65 -94 -91 -73 -49 -58 -59 -52 -75 -69 -22 -81 -62 -8 0
71 42 27 3 17 40 39 69 28 88 52 73 32 75 83 -96 -57 -30 -6 -46 -72 -64 -95 -21 -97 -8 -65 -12 -59 -10 -93 -54 -78 -24 0
93 8 83 69 61 25 23 52 24 66 40 22 -84 -42 -51 -92 -5 -20 -56 -41 -53 -11 0
41 37 50 -68 -78 -72 -80 0
70 46 81 78 3 47 63 17 39 30 89 8 21 15 6 18 53 9 65 13 74 37 45 38 41 29 7 92 25 56 98 23 27 84 20 -88 -48 -86 -54 -4 -64 -24 -59 -61 -33 -12 -67 -62 -51 -43 -95 -57 -58 -85 -28 -69 0
57 16 97 22 86 40 3 71 45 87 94 49 91 76 69 6 34 58 5 61 68 55 -79 -52 -70 -25 -89 -20 -21 -56 -33 -8 -84 -78 -95 -99 -48 -12 -28 -29 -36 -98 -13 -41 -77 0
26 62 44 42 98 48 46 25 27 8 17 80 36 43 59 13 97 92 -51 -23 -77 -65 -34 -40 -94 -99 -86 -11 -35 -84 -70 -52 -12 -22 -20 -30 -33 -50 -37 -21 -29 -4 -87 0
26 12 31 20 45 49 13 59 65 44 18 77 30 5 21 82 46 24 52 99 81 25 91 94 95 48 96 2 23 19 43 34 86 92 7 27 42 56 63 53 11 93 40 9 70 3 87 29 17 97 14 1 38 85 8 68 47 -66 -4 -33 -76 -41 -64 -60 -51 -35 -71 -16 -15 -75 -36 -39 -37 -72 -98 -61 -80 -79 -58 -22 -55 -67 -100 -83 -57 -73 -90 -28 -10 -50 -6 -32 -74 0
92 17 66 42 22 28 60 18 74 43 3 69 20 37 50 94 45 14 47 80 41 7 58 38 25 39 33 85 65 -5 -49 -75 -1 -87 -76 -89 -73 -57 -9 -99 -100 -44 -96 -32 -70 -51 -97 -13 -93 -52 -48 -78 0
83 57 100 12 60 88 5 36 56 52 6 20 42 38 7 92 43 95 91 84 15 10 94 -3 -47 -75 -19 -33 -63 -48 -22 -1 -16 -73 -31 -85 -90 -70 -64 -18 -30 -96 -37 -97 -23 -14 -4 -9 -50 -80 -27 -66 -87 -68 -93 -25 -76 -59 -2 -69 0
74 95 82 35 45 94 90 88 37 9 33 72 97 73 21 81 5 93 96 16 68 80 28 61 78 98 60 84 10 69 92 30 62 85 66 23 32 63 76 49 27 24 -14 -46 -25 -6 -34 -51 -54 -77 -53 -70 -99 -12 -26 -41 -52 -57 -86 -3 -71 -87 -19 -67 -36 -48 -17 -79 -4 -65 -20 -44 -38 -7 -91 -2 -15 -50 -13 -11 -39 0
65 45 83 15 96 50 68 71 88 78 43 29 20 37 64 25 75 16 74 52 63 18 47 14 72 41 -7 -55 -9 -5 -60 -57 -17 -82 -42 -22 -84 -92 -4 -28 -73 -62 -80 -87 -67 -85 -70 -24 -91 -12 -49 -100 0
18 86 20 94 -3 -68 -88 -41 -5 0
33 69 37 57 -7 -60 -87 -31 -41 -100 -55 -70 -22 -36 0
76 2 80 26 57 42 74 88 85 37 61 55 86 65 49 78 39 22 40 45 44 38 -34 -81 -56 -25 -69 -4 -17 -15 -67 -43 0
84 44 25 17 73 18 28 24 97 30 9 2 92 15 23 100 16 81 75 56 40 85 54 90 29 35 52 87 42 78 39 5 66 61 58 -34 -10 -88 -95 -91 -77 -48 -1 -69 -96 -3 -89 -4 -68 -79 -86 -47 -59 -80 -82 -8 -45 -71 -63 -11 -67 -36 -7 -6 -93 -21 -43 0
33 18 36 90 76 94 8 32 45 78 52 26 80 11 91 -4 -3 -79 -49 -99 -38 -100 -25 -13 -86 -98 -56 -96 -92 -10 -6 -97 -9 -75 -16 0
45 34 93 11 51 87 33 83 40 39 46 81 72 77 92 94 68 98 78 28 50 62 24 5 7 16 32 73 95 61 18 69 54 26 10 66 59 4 71 27 49 57 76 82 75 90 63 -8 -96 -67 -44 -22 -2 -79 -70 -36 -12 -65 -84 -43 -100 -6 -86 -31 -80 -14 -64 -30 -37 -19 -91 -13 -89 -35 -47 -23 -25 -29 -74 -56 -55 -85 -48 -58 -3 -41 -1 -9 -97 -99 -52 -21 -20 -53 -60 -88 -38 -15 -42 0
37 -98 0
95 28 53 66 67 43 92 81 16 22 12 51 -41 -70 -79 -87 -42 -45 -63 -40 -9 -29 -76 -83 -4 -13 -88 -55 0
76 25 24 35 55 32 43 37 75 7 78 44 22 -74 -8 -10 -66 -46 -56 -18 0
45 17 19 60 2 82 39 57 91 74 81 26 62 61 93 48 65 67 16 11 27 95 51 73 43 87 85 -76 -3 -53 -71 -24 -29 -31 -78 -72 -79 -59 -28 -37 -40 -1 -83 -66 -80 -38 -5 -68 -23 -56 -36 -89 0
70 32 77 31 46 19 -61 -37 -81 -64 0
17 39 87 57 19 68 67 34 25 4 98 13 45 9 84 51 74 27 26 47 64 12 83 62 3 42 91 -94 -21 -99 -1 -55 -52 -2 -35 -76 -18 -79 -59 -88 -41 -61 -32 -78 -95 -30 -29 -72 -53 -89 -14 -100 -90 -58 -97 -40 -50 0
66 69 25 86 79 13 3 91 63 44 54 65 23 72 74 76 92 58 64 80 60 45 71 37 82 42 5 78 30 88 20 77 55 -100 -7 -24 -14 -49 -70 -9 -19 -67 -8 -84 -46 -62 -4 -2 -93 -47 -57 -1 -87 -12 -59 -90 -33 -52 -27 -18 -85 -41 -16 -98 -95 -35 -94 -32 -11 -38 -31 -99 -21 -75 -15 -10 -26 -28 -81 0
57 67 73 18 69 95 26 2 32 47 93 97 37 23 49 12 80 83 9 88 -20 -24 -10 -44 -5 -91 -38 -46 -17 -64 -41 -19 -81 -75 -70 -71 -82 -85 -92 -30 -60 -28 -22 -51 -90 -40 -27 -62 -16 -74 -66 -76 -96 -59 0
57 66 30 -43 -79 -33 -88 0
91 84 44 18 57 10 81 28 36 77 16 53 59 49 35 29 100 60 25 82 12 26 48 40 83 19 76 68 31 6 98 23 69 14 30 86 80 51 3 47 99 41 -39 -21 -89 -66 -1 -61 -45 -95 -13 -32 -70 -63 -97 -79 -88 -54 -75 -34 -5 -96 -8 -72 -43 -78 -50 0
71 96 16 7 48 13 38 37 83 94 56 61 51 59 32 78 12 28 63 95 25 9 54 55 97 -58 -2 -98 -42 -44 -99 -87 -64 -23 -85 -89 -35 -66 -45 -8 -88 -46 -53 -52 -57 -90 -72 -31 -69 -100 -21 -47 -4 0
96 11 6 31 88 29 99 21 61 30 25 81 38 59 60 74 37 62 57 89 80 82 93 5 39 56 97 83 1 45 48 70 64 34 17 95 77 22 -58 -41 -7 -46 -86 -13 -73 -24 -3 -92 -19 -72 -63 -4 -9 -84 -23 -28 -32 -36 -100 -54 -53 -14 -55 -65 -40 -69 -66 -79 -33 -98 -12 -75 -49 -47 -50 -51 -71 -44 -16 -67 -20 0
89 58 40 6 86 71 35 22 68 74 1 43 55 67 77 54 30 -85 -59 -26 -8 -84 -25 -32 -20 -96 -97 -65 -91 -79 -99 -18 -19 -29 -87 -81 -46 -100 -31 -63 -75 0
27 26 6 65 91 82 61 76 31 5 69 2 100 7 90 89 9 24 51 47 98 86 13 70 54 -64 -17 -83 -41 -75 -37 -92 -21 -8 -15 -46 -42 -67 -79 -14 -34 -3 -66 -35 -68 -55 -59 -78 -93 -48 -57 -73 -29 -58 -28 -1 0
24 62 11 97 89 35 45 71 90 57 5 100 81 39 94 61 46 75 99 73 87 34 86 28 33 44 27 -83 -59 -38 -15 -10 -3 -95 -12 -43 -6 -2 -8 -54 -72 -76 -52 0
15 35 70 71 96 14 38 85 13 37 46 28 54 20 97 93 66 90 94 1 8 81 -34 -25 -12 -18 -89 -57 -4 -78 -50 -10 -69 -41 -83 -79 -53 -80 -86 -59 -21 -47 -87 0
51 65 87 14 94 31 17 98 45 81 27 5 88 21 91 29 57 19 71 2 56 41 3 52 64 92 8 13 93 74 96 58 12 60 39 1 73 63 82 26 46 76 77 -38 -33 -68 -20 -100 -78 -15 -4 -61 -11 -48 -16 -54 -75 -34 -62 -32 -85 -99 -47 -66 -40 -30 -28 -37 -44 -67 -72 -59 -36 -84 -79 -53 -55 -97 -25 -18 -83 -70 -6 -35 -7 -86 -23 0
56 30 91 99 67 83 96 90 58 22 47 35 86 4 33 97 87 95 36 53 98 100 6 74 71 50 92 40 59 26 31 11 24 63 25 52 78 -68 -93 -34 -66 -76 -39 -51 -14 -81 -82 -62 -54 -45 -94 -19 -5 -7 -2 -44 -18 -88 -37 -21 -73 -1 -12 -23 -64 -15 -38 -13 -70 -27 -49 -28 -72 -77 -89 -55 -20 0
4 47 56 1 48 89 76 13 86 37 42 9 22 49 44 45 96 77 68 41 36 28 20 52 58 73 25 98 70 31 94 53 10 91 43 88 74 2 -66 -72 -19 -12 -85 -50 -92 -26 -82 -97 -23 -38 -30 -33 -63 -5 -69 -18 -32 -87 -17 -21 -65 -11 -57 -67 -54 -99 -71 -51 -39 -55 -34 -75 -29 -15 -95 -3 -7 0
27 85 33 17 69 5 93 75 98 53 86 48 84 72 20 95 41 9 22 52 38 25 11 67 88 29 49 61 30 -13 -62 -36 -23 -51 -64 -4 -15 -68 -12 -6 -83 -79 -90 -91 -35 -10 -1 -71 -40 -57 -65 -80 -89 -32 -74 -56 -59 -3 -44 0
37 92 67 44 83 68 25 29 60 62 91 70 24 86 5 89 54 84 9 79 11 98 14 82 49 28 6 55 96 35 76 10 12 19 38 26 72 41 46 56 77 3 17 48 20 65 53 64 32 -30 -95 -93 -23 -34 -75 -7 -27 -50 -57 -87 -99 -58 -31 -81 -52 -97 -15 -40 -18 -45 -73 -63 -78 -42 -90 -59 -43 -33 -88 -66 -22 -71 -2 -100 -80 -4 -1 -94 -8 -13 -21 -61 -36 -74 -85 -16 0
50 60 35 99 69 61 26 55 37 47 91 23 53 32 25 40 94 71 15 66 49 11 42 21 90 -28 -8 -58 -38 -72 -100 -10 -20 -77 -92 -36 -81 -18 -96 -84 -33 -6 -1 -13 -73 -27 -75 -80 -74 -52 -57 -70 -45 -95 0
-8 -83 0
94 30 83 28 40 29 61 37 33 14 39 55 59 90 17 98 54 85 -62 -31 -47 -93 -35 -78 -80 -76 -36 -23 -67 0
9 42 98 -73 -72 -60 -62 0
92 61 48 3 84 8 76 45 14 40 28 11 32 85 34 100 89 5 62 56 15 39 69 77 38 88 4 37 51 63 9 30 79 75 94 72 23 50 33 90 13 55 2 -58 -35 -26 -68 -46 -98 -41 -57 -10 -16 -60 -12 -1 -74 -27 -42 -81 -47 -20 -29 -99 -96 -25 -78 -24 -19 -21 -83 -43 -93 -86 -64 -7 -97 -44 -87 -36 -18 -22 -17 -66 -54 -65 -52 -49 -70 -80 -31 -59 -91 -67 -95 -73 -82 -71 -53 0
50 26 37 14 18 90 39 35 27 61 25 28 29 98 30 42 72 4 76 85 20 67 59 84 45 81 24 96 86 53 -2 -80 -88 -71 -12 -43 -54 -48 -69 -91 -17 -68 -49 -64 -7 -46 -15 -9 -21 -33 -41 -100 -60 -3 -87 -82 -6 -89 -5 -57 0
77 100 37 84 93 18 50 41 94 19 35 86 53 33 25 -45 -85 -15 -2 -59 0
3 28 46 69 26 55 7 92 17 74 41 83 27 67 51 39 75 25 89 42 47 86 68 11 80 20 82 94 70 85 54 14 35 37 -78 -61 -96 -1 -33 -22 -90 -91 -76 -84 -57 -13 -72 -93 -100 -5 -62 -19 -66 -10 -24 -98 -38 -99 -53 -64 -81 -29 -97 -44 -34 -45 -32 -40 -30 -4 -49 -9 -31 -79 -87 -71 -6 -36 -52 -88 -50 0
70 34 12 22 72 85 52 37 96 53 69 18 83 61 48 76 78 64 80 30 60 36 55 63 75 88 41 54 51 28 16 49 46 29 92 58 56 31 32 94 6 24 45 2 50 71 39 67 82 99 -81 -68 -95 -7 -4 -38 -40 -43 -3 -73 -21 -86 -23 -84 -97 -89 -62 -90 -66 -13 -27 -33 -65 -100 -20 -14 -42 -47 -9 -15 -44 -79 -10 -74 0
30 1 84 85 34 -39 -60 -32 -8 -61 0
95 54 35 46 34 39 9 75 47 38 16 12 92 49 89 -14 -87 -1 -44 -37 -28 -70 -63 -15 -41 -7 -30 0
36 45 10 0
16 13 26 2 34 61 80 51 41 35 43 48 73 55 84 71 1 24 92 20 3 53 72 6 52 19 31 22 58 70 49 -94 -79 -23 -8 -15 -37 -83 -88 -91 -32 -9 -57 -40 -65 -36 -77 -85 -100 -66 -82 -17 -60 -11 -97 -54 -25 -99 -78 -42 -5 -69 -74 -14 -86 -46 -56 -7 -38 0
75 86 15 68 57 2 81 16 9 3 11 10 82 72 24 25 49 42 6 80 98 95 23 28 84 31 48 79 30 91 51 77 96 66 38 59 5 89 14 21 71 27 26 83 18 -22 -63 -36 -54 -46 -67 -88 -100 -56 -99 -32 -60 -7 -20 -92 -29 -97 -17 -58 -85 -34 -69 -44 -94 -13 -8 -70 -45 -55 -40 -93 -4 -1 -87 -73 -12 0
45 26 14 93 67 85 61 24 50 62 1 58 2 86 10 73 54 23 88 72 5 31 68 96 92 90 20 25 55 16 66 98 38 97 -30 -19 -48 -46 -77 -33 -49 -59 -53 -76 -89 -99 -37 -51 -79 -44 -36 -100 -95 -83 -35 -41 -57 -11 -71 0
38 60 26 73 39 37 76 89 85 28 77 59 65 70 24 16 18 61 47 78 80 31 49 14 48 83 21 25 12 72 22 82 11 69 -45 -58 -91 -98 -41 -10 -4 -57 -34 -94 -75 -81 -63 -33 -71 -74 -40 -6 -35 -100 -96 -1 -79 -9 -19 -2 -44 -30 -64 -13 -55 -66 -95 0
9 7 27 71 19 48 16 93 33 72 98 15 82 60 30 40 87 13 89 88 17 5 47 23 29 44 94 32 66 41 10 2 100 73 -4 -58 -99 -63 -96 -90 -91 -55 -53 -83 -12 -39 -24 -80 -56 -85 -20 -25 -74 -38 -14 -31 -45 0
40 43 22 57 32 19 75 54 77 97 52 39 16 2 15 25 12 9 67 87 88 92 27 13 42 79 48 23 60 21 47 4 38 96 72 76 29 45 -8 -64 -36 -49 -31 -90 -35 -11 -69 -85 -50 -62 -30 -41 -1 -63 -84 -20 -82 -68 -98 -44 -83 -55 -74 -100 -10 -51 -86 -78 -71 -56 -93 -14 -18 -89 -17 -28 -3 -46 -26 -7 -24 -73 -99 -91 -66 -94 -61 -37 -33 -59 -58 -65 -34 -95 -81 0
83 25 72 84 12 95 1 8 99 17 23 97 93 62 71 81 60 85 73 40 90 98 42 57 29 69 88 61 43 75 76 37 10 11 20 31 55 77 68 80 34 3 56 26 87 21 32 -79 -48 -78 -59 -82 -18 -13 -24 -30 -89 -16 -65 -33 -9 -5 -35 -52 -100 -36 -2 -15 -53 -58 -47 -94 -46 -51 -50 -41 -28 -38 -96 -70 0
5 30 16 81 98 44 93 6 74 51 54 9 15 64 38 96 91 1 4 -22 -23 -57 -35 -94 -26 -10 -71 -68 -73 -18 -72 -55 -84 -20 -89 -76 -85 -33 0
58 72 57 85 22 40 36 59 14 9 99 31 2 90 24 29 69 89 79 3 61 76 54 65 32 100 84 50 81 8 13 7 78 44 55 87 37 48 74 15 77 17 5 64 35 39 -43 -4 -92 -28 -63 -91 -49 -1 -94 -62 -46 -20 -53 -56 -75 -33 -93 -38 -71 -27 -47 -42 -88 -11 -68 -6 -30 -95 -34 -19 -41 -10 -60 -26 -16 -70 -12 -86 -82 -52 -25 -23 -18 -98 -45 -80 -97 -67 -96 0
48 34 12 5 94 91 35 97 18 24 38 6 -8 -7 -3 -39 -68 -62 -40 -98 -87 -78 -51 -65 -49 -42 0
7 41 27 5 25 59 49 55 18 50 88 52 73 53 23 79 63 64 17 85 40 16 91 58 8 46 9 84 -21 -22 -26 -65 -69 -74 -94 -97 -66 -4 -56 -19 -78 -96 -86 -24 -14 -87 -99 -54 -36 -89 -29 -30 -75 -67 -71 -43 -48 -81 -35 0
12 11 62 1 67 5 48 74 66 54 36 6 45 50 59 23 90 25 37 69 98 61 8 44 35 46 10 52 78 86 -80 -18 -20 -39 -96 -89 -3 -47 -38 -75 -93 -77 -87 -73 -27 -15 -97 -56 -65 -28 0
45 49 42 82 69 2 13 79 41 4 50 36 76 56 94 28 100 -71 -84 -43 -88 -72 -32 -22 -16 -12 -95 -7 -20 -47 -46 -97 -34 -57 -14 0
96 56 30 65 83 4 98 16 7 13 61 19 28 9 60 95 88 74 62 79 78 18 40 20 97 85 43 63 11 91 44 31 72 15 82 94 76 29 68 87 55 -32 -36 -42 -6 -22 -38 -49 -5 -81 -24 -10 -46 -89 -37 -86 -59 -50 -80 -35 -2 -33 -64 -21 -41 -67 -100 -70 -34 -17 -8 -93 -54 -12 -45 -26 -77 -90 -25 -47 0
18 14 24 79 78 26 37 65 8 51 27 48 10 43 84 2 44 23 9 71 13 74 32 16 62 88 59 58 41 5 61 53 47 66 85 86 -72 -19 -96 -21 -46 -35 -17 -82 -29 -7 -52 -56 -40 -92 -4 -54 -28 -69 -70 -80 -55 -60 -45 -11 -30 -63 -97 -64 -34 -38 -1 -31 -94 -49 0
89 28 60 79 71 86 10 76 64 36 42 4 26 70 59 14 63 81 24 65 41 22 27 57 97 -19 -52 -84 -78 -47 -31 -15 -87 -45 -90 -93 -100 -34 -29 -12 -1 -39 -80 -20 -2 -83 -53 -30 -68 -73 -6 -9 -74 -38 -92 0
43 70 34 95 93 98 73 4 94 47 78 38 44 37 20 56 35 50 26 -16 -22 -82 -92 -14 -25 -64 -99 -2 -42 -46 -85 -9 -100 -15 -12 -72 -36 -41 -28 -32 0
25 46 82 19 -73 -49 -37 -45 -78 -56 0
82 93 94 37 16 39 63 96 38 77 17 74 75 71 100 90 6 55 34 98 42 86 89 61 30 73 26 32 -54 -25 -78 -80 -57 -52 -68 -56 -76 -9 -33 -15 -46 -35 -18 -24 -27 -20 -81 -29 -72 -23 -60 -62 -19 -91 -3 -47 -5 -95 -88 -50 -69 -85 0
50 36 3 74 96 52 62 93 58 40 92 13 -19 -63 -33 -41 -17 -21 -25 -67 -70 -23 -32 -42 -79 -20 -14 0
87 96 81 42 52 15 89 83 47 53 91 14 16 54 1 50 63 25 19 49 24 68 -77 -64 -27 -76 -4 -8 -28 -31 -46 -48 -44 -62 -58 -30 -23 -74 -86 -93 -82 -11 -45 -57 -67 -66 0
-76 0
8 44 26 99 24 43 77 21 78 79 25 47 30 40 11 48 100 96 87 3 20 61 98 50 -2 -72 -65 -9 -39 -4 -41 -22 -70 -10 -49 -82 -80 -69 -28 -38 -76 -23 -68 -81 -67 -12 -88 -56 -64 -92 0
54 35 57 1 99 67 88 10 100 53 91 68 38 62 13 85 86 24 94 80 34 93 22 47 45 18 21 66 81 95 43 -15 -12 -17 -3 -48 -42 -75 -36 -98 -79 -14 -58 -29 -20 -8 -28 -55 -44 -5 -39 -76 -33 -78 -19 -87 -97 -7 -31 -52 -23 -51 -72 -40 -59 -89 -26 -4 -74 -2 -83 -41 -30 0
87 89 13 77 76 -2 -27 -73 -7 0
48 -58 -52 -41 -78 0
25 76 28 57 22 34 95 66 9 46 91 56 88 70 100 87 16 51 99 79 24 6 44 81 26 94 74 61 53 35 97 58 69 23 47 43 15 14 -27 -89 -40 -12 -92 -84 -90 -49 -50 -85 -3 -21 -54 -41 -17 -11 -30 -29 -13 -18 -20 -19 -1 -8 -75 -52 -83 -86 -59 -45 -93 -55 -33 -4 -39 -7 -80 -5 -71 -31 -10 -65 -77 -98 -78 -42 -2 -67 -64 -36 -48 -63 -60 -72 -32 -38 -37 0
6 65 64 79 18 57 71 93 35 62 52 73 9 5 30 89 83 37 59 29 25 -75 -45 -80 -53 -26 -8 -46 -90 -58 -48 -67 -31 -88 -33 -10 -34 -54 -50 -100 -91 -85 -14 -40 -13 -70 0
99 31 49 78 94 16 93 25 95 27 97 21 51 18 15 24 4 66 79 74 80 -14 -38 -87 -52 -57 -88 -28 -82 -89 -36 -12 -42 -69 -35 -98 -9 -5 -45 -67 -96 -60 -37 -32 -91 -63 -23 0
45 -78 -67 -93 0
70 52 83 96 75 72 90 19 85 100 -63 -31 -54 -27 -53 -7 -12 -74 -98 -2 -48 -42 -3 0
96 97 38 45 16 29 84 7 58 79 49 77 56 33 64 44 17 74 57 81 75 78 89 34 40 72 10 92 15 54 1 25 95 88 -94 -22 -63 -39 -67 -30 -82 -18 -9 -86 -52 -11 -87 -90 -23 -5 -26 -24 -20 -80 -31 -85 -21 -8 -13 -53 -99 -46 -3 0
69 46 16 11 21 62 -60 -7 -9 -61 -34 -26 -67 -97 -88 -35 -43 -23 -95 -70 -54 -87 -6 0
96 10 4 86 70 6 99 53 37 83 77 23 8 32 2 60 36 52 3 -87 -93 -19 -73 -78 -7 -47 -92 -30 -48 -25 -75 -58 -91 -22 -81 -89 -84 -62 -76 0
64 15 96 51 33 36 55 56 72 60 93 2 13 3 11 53 5 43 67 98 69 68 50 100 47 77 18 89 75 12 41 87 79 97 61 63 74 27 45 46 -7 -28 -48 -20 -24 -22 -92 -8 -57 -14 -37 -66 -35 -29 -83 -39 -40 -31 -73 -76 -19 -81 -38 -1 -17 -90 -99 -58 -6 -86 -9 -34 -10 -94 -85 -59 -78 -30 -70 -32 -84 -23 -62 -25 -82 -54 -52 -91 -80 -65 -88 -4 -16 0
26 22 57 33 38 89 2 46 23 86 60 50 51 21 87 6 37 58 11 75 8 95 100 20 91 5 -67 -74 -42 -29 -13 -7 -32 -34 -83 -44 -4 -15 -16 -76 -43 -99 -97 -3 -25 -17 -28 -73 -78 -94 -1 -70 0
62 94 59 80 53 39 50 84 2 74 72 46 97 30 92 67 27 35 73 78 51 23 15 87 71 69 13 100 43 14 47 90 52 28 63 85 96 79 20 9 24 64 58 75 22 38 89 26 81 91 19 36 93 12 48 61 65 31 57 99 60 -32 -68 -41 -70 -7 -86 -95 -88 -18 -8 -34 -55 -98 -82 -40 -77 -25 -56 -33 -4 -21 -3 -54 -66 -16 -6 -49 -11 -83 -45 -37 -5 -76 -44 -29 -17 0
90 52 91 73 72 22 20 29 99 44 62 30 12 8 57 68 74 60 50 7 -76 -45 -53 -18 -94 -51 -28 -81 -85 -55 -69 0
3 25 15 71 23 67 53 80 47 19 48 72 95 51 33 62 66 9 5 2 59 87 37 98 34 68 69 24 74 18 83 57 10 100 54 -8 -61 -1 -82 -76 -40 -7 -96 -52 -17 -64 -88 -29 -65 -14 -84 -93 -58 -46 -92 -35 -89 -39 -11 -31 -45 -16 -36 -90 -21 -43 -91 -42 -99 -32 -22 -56 -28 -27 -63 -50 -77 -4 0
