c NeuroCodeBench 2.0 CNF formula with verdict Sat
p cnf 83 666
19 25 79 28 55 45 10 42 66 44 65 68 76 8 48 61 82 67 53 1 81 27 22 62 69 16 5 4 14 21 24 36 -9 -59 -75 -41 -3 -26 -15 -30 -83 -17 -64 -38 -51 -18 -46 -63 -52 -31 -37 -78 -12 -74 -71 -77 -35 -33 -2 -32 -54 -50 -57 0
4 8 45 65 23 72 21 33 22 66 43 6 70 50 2 46 -53 -44 -35 -49 -5 -80 -73 -39 -18 -47 -58 -56 -68 -81 -26 -78 -1 -32 -13 -41 -29 -82 -11 0
18 14 82 17 83 81 11 53 43 19 49 8 1 25 71 24 73 65 16 77 20 41 34 78 26 52 76 74 50 12 6 46 67 72 51 59 32 29 80 7 4 13 2 30 3 -10 -42 -28 -66 -75 -15 -37 -70 -40 -57 -79 -9 -58 -45 -35 -5 -39 -31 -27 -54 -36 -55 -64 -47 -38 -48 -68 -44 -21 -56 -23 -60 -62 -63 -33 0
55 6 83 26 18 2 51 68 12 3 78 56 -47 -70 -53 -82 -4 -74 -35 -7 -57 -23 -71 -61 -65 -14 -11 -46 -52 0
16 40 66 47 3 48 37 49 64 -76 -57 -30 -50 -22 -38 -72 -78 0
67 31 76 45 38 44 30 18 3 50 83 78 43 12 70 56 82 48 66 21 14 49 47 1 2 64 65 36 4 61 68 20 33 53 -77 -17 -46 -8 -74 -9 -35 -72 -32 -73 -16 -55 -22 -80 -39 -69 -60 -42 -54 -58 -6 -37 -23 -10 -11 -26 -34 -28 -52 -24 -62 -79 -51 -71 -15 -41 -81 0
34 66 61 51 81 39 56 76 48 6 2 36 22 21 64 -58 -45 -4 -25 -69 -57 -29 -50 -23 -55 -31 -47 -27 -37 -17 -1 -62 -78 -60 -14 -73 0
23 4 43 27 34 47 2 11 6 74 19 10 31 68 39 41 45 49 44 3 9 72 76 62 66 37 70 18 1 58 35 50 57 59 75 -48 -51 -80 -14 -26 -16 -54 -5 -79 -73 -69 -60 -78 -40 -28 -42 -64 -29 -7 -21 -13 -33 -20 -83 -8 -36 0
83 82 67 42 46 44 1 17 11 73 43 20 27 80 55 65 37 19 74 69 48 5 14 64 49 45 32 51 7 -38 -53 -76 -52 -40 -34 -31 -59 -81 -22 -26 -15 -9 -8 -33 -18 -2 -4 -61 -21 -23 -16 -56 -70 -54 -60 -28 0
15 5 29 10 42 11 13 27 24 40 33 -75 -37 -43 -78 -30 -16 -14 -65 -47 -4 -55 -57 -21 -68 -59 0
33 9 75 22 35 42 67 76 44 82 48 61 34 58 69 -78 -4 -45 -7 -72 -25 -37 -19 -55 0
73 19 82 54 2 83 22 38 59 23 53 55 12 4 -49 -14 -67 -52 -40 -77 -50 -71 -61 -7 -33 -76 -58 -30 -39 0
6 43 64 80 4 51 45 3 21 57 77 58 81 9 53 30 2 42 66 50 59 55 10 11 5 69 71 54 65 18 27 73 7 -25 -14 -24 -48 -63 -32 -67 -68 -13 -79 -40 -34 -78 -31 -83 -72 -8 -26 -47 -35 -41 -15 -22 -12 -75 -49 -39 -52 -1 -82 -61 -29 -46 -38 -62 -74 0
74 51 45 7 80 21 12 78 41 53 44 10 6 62 11 18 23 57 68 32 76 27 75 34 3 31 54 69 59 49 63 22 15 37 40 -61 -1 -26 -70 -52 -25 -35 -66 -47 -30 -73 -24 -28 -29 -38 -60 -13 -46 -43 -48 -65 -17 -58 -4 -42 -36 -20 -83 -9 -8 -33 0
14 65 1 16 35 79 -42 -62 -74 -47 -81 -53 -67 -15 -59 -6 -61 0
2 51 29 20 56 49 73 38 64 43 79 46 60 12 11 25 54 69 67 42 26 76 15 36 37 27 77 7 5 78 21 34 66 16 59 6 63 80 33 71 52 57 19 22 -24 -61 -72 -74 -18 -39 -9 -62 -82 -14 -44 -8 -35 -53 -17 -68 -50 -3 -75 -30 -32 -13 -81 -55 -4 -58 -47 -23 -48 -45 0
17 41 81 19 3 51 7 61 48 10 59 6 63 58 32 75 42 -74 -13 -82 -73 -34 -2 -70 -8 -24 -60 -30 -40 -69 -1 -4 -77 -28 -31 -46 -5 -62 -20 -66 -25 -23 -67 -72 -44 -68 -83 -43 -14 -9 -57 0
59 79 77 30 53 13 33 44 27 14 21 25 81 35 43 62 38 19 8 70 34 20 7 52 39 1 83 75 78 74 16 51 63 -3 -4 -31 -68 -72 -55 -58 -42 -65 -23 -67 -9 -12 -10 -41 -61 -37 -26 -11 -49 -50 -73 -6 -5 -66 -17 -47 -36 -18 -76 -80 -29 -40 -64 -71 -82 -69 -2 -15 -32 -45 -60 -48 -46 -54 -22 0
69 1 57 32 39 83 15 16 58 5 49 6 51 68 18 13 62 8 43 75 66 -28 -27 -34 -10 -41 -4 -59 -44 -60 -38 -76 -30 -45 -12 -50 -74 -21 -64 -19 -70 -65 -77 -80 -31 -79 -55 -82 -78 -67 -37 0
5 11 59 32 81 68 26 75 20 56 52 72 22 55 64 2 19 -67 -41 -17 -33 -63 -31 -62 -46 -43 -74 -16 -69 -38 -39 -24 -42 -78 0
82 76 35 42 5 20 48 37 46 -51 -63 -36 -73 -67 -10 -81 -38 -70 -77 -30 -61 -49 0
59 58 29 36 20 72 60 18 51 19 67 71 44 23 62 64 12 70 48 66 3 33 -42 -65 -16 -45 -50 -52 -75 0
36 32 12 49 5 13 39 -77 -75 -54 -28 -21 -24 -38 -82 -42 -51 -33 -7 -69 -43 -16 -18 -81 0
18 8 12 3 21 11 9 15 19 63 59 10 64 47 37 44 78 72 34 45 62 70 40 28 17 60 23 55 80 -42 -65 -43 -68 -75 -27 -26 -53 -71 -76 -69 -73 0
80 33 52 1 27 64 10 3 12 28 46 7 21 8 59 20 82 71 74 32 43 31 57 16 44 39 75 9 14 42 17 26 53 72 45 73 13 -40 -50 -22 -77 -4 -69 -18 -60 -63 -70 -68 -62 -58 -83 -49 -78 -23 -35 -66 -79 -2 -24 -67 -30 -36 -15 -55 -11 0
43 9 30 35 11 51 74 54 4 2 32 14 21 65 60 6 79 67 40 45 83 38 57 66 1 63 69 15 -76 -10 -22 -48 -61 -3 -37 -49 -25 -80 -50 -58 -52 -33 -53 -59 -62 -73 -44 -29 -18 -82 0
15 16 81 28 48 14 59 69 51 31 6 47 30 17 70 67 3 52 23 63 12 73 72 18 -45 -4 -44 -56 -26 -2 -75 -20 -64 -11 -8 -9 -49 -19 -78 -24 -66 -32 -29 -21 -13 -41 0
40 22 26 7 37 44 39 50 45 76 -38 -18 -81 -14 0
20 78 40 45 38 1 2 32 11 82 35 41 66 44 -18 -70 -60 -43 -8 -50 -22 -65 -79 -46 -6 -71 -73 -47 -51 -63 -77 0
32 43 19 6 37 53 62 -67 -27 -28 -79 -54 -10 -70 0
7 21 42 13 54 61 70 9 78 45 69 72 73 47 44 48 17 8 10 64 55 56 41 12 80 57 24 63 32 51 -43 -31 -29 -46 -62 -68 -76 -82 -66 -77 -39 -30 -15 -25 -74 -38 -11 -35 -18 -4 0
78 37 63 44 27 25 20 3 70 22 72 58 13 43 30 8 53 18 48 68 56 31 45 39 41 52 59 2 32 73 38 29 -5 -77 -79 -9 -26 -19 -49 -55 -46 -16 -80 -10 -40 -51 -76 -36 -65 -35 -28 -42 -71 -61 -62 -75 -21 -24 -69 -11 -7 -14 -67 -33 -74 -17 -66 -60 -82 -4 -81 -54 -12 -64 0
58 71 51 16 29 67 49 52 5 2 68 38 44 3 26 17 42 41 62 7 -79 -48 -56 -37 -22 -74 -4 -43 -19 -65 -47 -11 -39 -14 -53 0
59 23 8 51 61 24 18 35 62 79 29 77 56 58 53 19 69 14 41 11 48 83 28 60 17 78 73 34 26 9 50 2 16 15 20 -33 -80 -57 -67 -21 -52 -1 -10 -81 -3 -32 -43 -72 -6 -70 -12 -49 -82 -66 -68 -38 -45 -74 -7 -4 -75 -55 -64 -40 -39 -42 -27 -71 -13 -25 0
67 9 6 46 52 75 22 70 49 41 66 40 45 15 79 19 82 33 50 -39 -55 -2 -59 -13 -18 -1 -30 -16 -26 -38 -47 -72 -57 -34 -65 -80 -36 -63 -31 -12 -27 -83 -48 -8 -77 -56 -62 -53 -17 -35 0
46 39 23 25 43 36 76 33 20 13 32 59 73 15 44 10 28 34 1 -66 -65 -58 -68 -78 -82 -40 -30 -55 -2 -72 -4 -49 -50 -70 -64 -18 -51 -79 -3 -16 -47 -14 -56 -57 0
42 76 62 60 49 25 30 50 46 17 55 32 44 37 8 51 15 83 22 45 48 27 -6 -4 -63 -68 -53 -16 -18 -3 -80 -56 -20 -24 -29 -52 -11 -14 -58 0
65 37 57 78 53 63 50 20 -56 -54 -26 -74 -34 0
58 30 40 52 5 70 39 59 71 32 48 24 77 74 83 49 75 2 29 23 -9 -43 -82 -4 -8 -37 -51 -21 -79 -76 -80 -38 -14 -55 -13 -69 -17 -72 -78 -19 -50 -63 -54 -35 -68 -42 0
21 18 79 38 22 56 37 28 39 51 -78 -4 -29 -6 -16 -44 -54 -41 -43 -65 -36 -17 -48 -26 -35 0
10 81 5 36 27 69 15 79 1 31 16 30 8 2 70 7 75 71 25 47 41 6 17 4 65 68 76 78 51 54 80 37 63 83 34 13 -73 -49 -39 -35 -19 -33 -40 -38 -21 -18 -52 -74 -42 -29 -12 -82 -22 -72 -50 -59 -55 -62 -66 -58 -9 -32 -53 -61 -3 -20 -28 -64 -48 -44 -45 -26 -77 -14 -57 -23 -24 -56 -67 -43 -60 -11 0
29 44 71 4 74 58 75 55 52 83 22 79 72 73 78 19 39 3 1 8 -13 -68 -48 -40 -82 -2 -67 -66 -33 -10 -65 -46 -47 -51 -12 -50 -53 -57 -41 -61 -37 -28 -30 -23 0
18 58 14 57 37 1 78 70 11 12 38 67 41 17 59 35 83 -32 -74 -16 -80 -72 -69 -42 -73 -13 0
29 54 37 30 11 10 9 7 5 72 -22 -55 -83 -76 -19 -21 -65 -81 -4 -75 -60 -36 -16 -70 -8 0
47 58 33 66 8 65 3 6 32 -60 -63 -51 0
41 55 34 29 20 74 69 3 79 13 26 35 62 66 50 46 44 76 15 45 27 40 38 47 67 60 56 8 37 51 33 82 32 78 24 70 75 48 49 6 42 28 83 -31 -59 -12 -11 -9 -53 -57 -22 -1 -65 -23 -5 -39 -61 -68 -4 -77 -63 -25 -30 -43 -18 -17 -52 -73 -16 -64 -72 -2 0
11 38 19 -50 -53 -55 -6 -66 -80 -4 0
50 81 61 10 17 75 22 52 47 12 30 40 58 9 39 46 36 48 64 34 3 45 49 7 76 83 23 32 42 29 41 37 -2 -74 -72 -67 -6 -31 -70 -5 -13 -43 -57 -15 -25 -27 -82 -16 -26 -55 -1 -77 -51 -66 -8 -20 -54 -62 -71 -79 -38 -60 -63 -33 -14 -28 0
16 1 38 19 15 32 22 4 34 70 9 37 69 8 73 66 2 57 41 18 25 3 43 61 63 17 27 -31 -79 -48 -60 -62 -47 -71 -58 -45 -75 -40 -74 -24 -55 -14 -56 -53 -46 -33 -59 -20 -13 -54 -49 -35 -72 -11 -50 -76 -12 -52 0
69 19 33 -3 -18 -80 -12 -15 0
46 16 34 56 30 79 36 52 37 5 33 63 8 14 23 61 12 -66 -68 -69 -19 -60 -7 -62 -44 -75 -29 -82 -45 -32 -6 -49 0
70 5 58 38 8 40 75 29 27 6 22 57 82 31 39 73 68 25 64 74 34 21 56 42 23 15 2 63 19 76 7 26 55 36 4 -30 -54 -28 -51 -48 -61 -3 -13 -47 -46 -81 -59 -72 -52 -80 -43 -69 -83 -49 -11 -44 -60 -35 -1 -32 -77 -17 -45 -62 -79 -20 -65 -24 -78 -41 -71 -66 0
7 57 24 33 21 29 64 14 41 16 58 12 42 55 69 6 79 52 63 39 19 -28 -54 -36 -77 -40 -60 -43 -67 -47 -74 -32 -30 -11 -13 -83 -27 -5 -68 -61 -80 -38 -73 -20 -37 -65 -70 -72 -23 -56 -2 -71 0
27 63 76 48 17 24 73 21 20 33 75 83 51 62 54 68 18 80 53 69 4 79 50 74 6 81 8 65 15 58 46 71 57 36 77 35 14 37 39 30 43 78 -19 -10 -31 -26 -28 -55 -61 -44 -1 -38 -23 -7 -49 -56 -34 -72 -9 -32 -42 -5 -47 -29 -45 -2 -16 -22 0
39 83 18 59 69 -23 -43 -22 0
61 83 71 5 29 82 46 22 9 73 34 27 36 6 53 28 43 75 10 57 52 21 31 -48 -26 -16 -66 -55 -11 -60 -7 -65 -70 -59 -2 -76 -68 -14 -54 -74 -69 -39 -24 -3 -25 -4 0
56 63 30 5 74 78 67 60 47 24 20 2 59 46 45 62 28 81 26 51 64 80 52 68 -77 -42 -37 -14 -75 -27 -6 -7 -21 -8 -44 -83 -38 -76 -53 -49 -22 -54 -82 -48 -35 0
56 12 26 27 45 81 53 21 63 34 39 9 5 64 42 36 -78 -18 -66 -60 -65 -70 -16 -40 -69 0
12 56 79 71 34 54 83 69 24 25 58 13 -1 -21 -60 -64 -10 -19 -45 -4 -2 -14 -35 -38 0
18 70 65 1 49 25 -11 -4 -10 -26 -69 -54 0
34 43 9 7 76 2 26 49 13 56 16 48 27 42 46 -58 -23 -24 -77 -81 -82 -53 -12 -3 -44 -79 -69 -11 -8 -14 0
82 4 1 6 15 40 47 8 74 73 81 77 25 63 27 32 41 13 7 5 17 22 68 78 83 21 -44 -67 -56 -49 -72 -76 -69 -24 -33 -54 -34 -48 -45 -53 -46 -28 -35 -29 -37 -59 -11 -16 -70 -71 -31 -55 -36 -26 -60 -43 0
11 31 10 61 75 35 43 18 40 24 8 5 9 70 62 16 25 37 32 76 46 2 45 13 48 80 55 3 27 79 53 -39 -15 -19 -58 -82 -81 -29 -52 -6 -64 -36 -57 -74 -50 -56 -1 -72 -67 -59 -68 -22 -42 -34 -26 -4 -65 -12 0
5 48 12 73 26 60 58 78 16 65 6 42 28 52 67 -24 -7 -14 -83 -1 -76 -22 -77 -49 -47 -10 -21 -46 -27 -45 -79 -23 -37 -55 -57 -35 0
3 5 67 16 45 30 36 12 58 51 46 22 -14 -33 -13 -7 -53 -47 -11 -24 -49 -32 -8 -63 -34 -54 -69 -42 -83 -44 -50 -52 -82 -1 -78 -75 0
27 5 53 71 39 43 19 45 -24 -17 -11 -78 -23 -9 -1 -48 -14 -33 -22 -80 -81 -59 0
23 22 77 67 1 58 31 7 62 73 68 12 83 21 -56 -36 -81 -61 -50 -72 -32 -11 -69 -14 -38 0
25 58 16 62 23 47 42 20 8 48 4 -44 -64 -7 -38 -75 -70 -9 -1 -66 -35 -65 -33 -69 -83 -24 -82 -22 -57 -46 0
13 53 17 23 75 45 78 82 10 48 39 46 26 67 64 2 24 43 14 -36 -18 -74 -4 -50 -35 -34 -29 -60 -21 -80 -42 -59 -11 -62 -32 -19 -31 -16 -6 -5 -28 -27 -12 0
11 3 4 1 33 8 75 79 72 51 42 18 52 25 -35 -9 -53 -28 -66 -39 -54 -71 -10 -60 -37 -40 0
32 1 46 51 78 36 21 34 13 47 20 22 63 14 74 11 40 37 54 2 8 56 -59 -39 -45 -18 -23 -72 -35 -27 -81 -29 -12 -64 -49 -69 -33 -57 -4 -53 -61 -67 -6 -17 -71 0
73 5 45 50 77 51 20 72 41 21 15 68 80 14 75 62 40 53 17 47 81 3 52 28 32 74 33 36 18 76 9 58 29 4 78 6 -37 -82 -23 -43 -57 -64 -66 -59 -16 -38 -25 -11 -34 -22 -70 -31 -46 -27 -67 -60 -35 -69 -8 -13 -1 -54 -39 -83 -56 -65 -55 -42 -48 -2 -49 0
39 59 67 -80 -74 -17 0
30 0
46 17 13 7 60 63 14 12 1 27 20 79 30 31 55 26 9 16 52 5 37 77 44 70 29 8 67 45 6 -78 -19 -38 -82 -76 -54 -28 -61 -3 -24 -65 -71 -80 -48 -32 -47 -68 -39 -42 -10 -75 -40 0
2 33 35 53 63 38 62 16 52 24 44 36 37 17 8 23 -7 -66 -71 -9 -75 -59 -32 -15 -11 0
35 29 19 59 10 13 79 50 67 43 65 48 9 3 39 80 74 8 2 33 24 58 77 18 81 41 32 15 49 53 63 1 83 44 54 62 73 -36 -69 -76 -68 -30 -16 -38 -47 -40 -66 -31 -20 -4 -11 -21 -55 -25 -56 -23 -46 -7 -6 -26 -64 -51 -14 -72 -61 -52 -60 -5 -28 -75 -45 -27 -71 -82 -37 -12 -22 -57 0
47 7 64 24 19 63 -59 -69 -70 0
45 71 49 31 67 2 72 65 76 34 56 33 -23 -1 -53 -18 -69 -20 -15 -42 -13 -63 0
36 82 83 26 58 68 42 6 55 80 15 28 10 7 37 31 77 39 73 65 -33 -81 -59 -49 -4 -47 -14 -54 -2 -57 -27 -25 -8 -23 -43 -53 -60 -74 -48 -20 0
74 5 32 16 25 63 42 38 46 3 28 83 69 64 22 61 43 23 19 47 68 72 50 9 77 29 36 66 14 12 78 55 80 -27 -21 -8 -15 -58 -54 -20 -70 -53 -13 -60 -48 -18 -24 -11 -41 -59 -26 -7 -39 -76 -75 -35 -71 -6 -65 -52 -10 -34 -81 -37 -31 -4 -1 -45 -57 -51 -62 -73 -40 -33 -30 -17 0
27 34 15 45 44 -58 -1 -38 -18 0
53 38 64 71 4 22 12 42 82 77 -27 -56 -43 -24 -37 -73 -29 -14 -47 -66 -10 0
34 60 41 26 82 3 73 44 62 14 48 78 65 18 32 28 51 13 69 46 49 2 5 9 76 50 16 7 59 64 71 -29 -57 -23 -11 -1 -81 -10 -54 -12 -68 -22 -31 -75 -74 -43 -53 -40 -33 -61 -39 -15 -72 -35 -79 -6 -21 -66 -45 -20 -4 -52 0
65 66 78 37 28 43 58 35 44 81 60 22 79 38 74 45 1 4 26 13 42 70 52 83 21 68 50 31 11 27 56 41 3 49 40 34 51 -5 -53 -9 -15 -73 -8 -69 -33 -62 -16 -2 -48 -76 -36 -18 -47 -61 -17 -46 -24 -80 -10 -67 -12 -25 -23 -63 -82 -39 -59 -57 -19 -14 -30 -71 -75 -77 0
30 20 81 36 16 27 6 12 76 56 75 10 17 22 31 25 65 28 54 74 42 35 46 62 -70 -33 -13 -72 -18 -32 -51 -71 -4 -1 -79 -23 -15 -60 -49 -29 -8 -59 -2 -37 -78 -52 -34 -45 -26 -24 0
44 73 42 66 6 62 54 46 71 25 55 58 83 40 19 53 51 80 50 70 22 49 56 65 24 35 68 10 77 3 -26 -67 -45 -14 -2 -1 -17 -28 -7 -9 -33 -43 -12 -31 -81 -64 -13 -63 -37 -5 -21 -16 -41 0
56 35 18 48 -38 -45 -24 -59 0
81 21 66 59 11 61 71 30 27 31 26 80 49 29 9 45 17 38 69 10 68 75 18 32 16 74 2 15 60 28 65 72 55 1 73 70 63 14 52 50 82 6 24 76 -23 -67 -51 -8 -46 -4 -20 -33 -47 -53 -13 -42 -7 -77 -22 -43 -37 -62 -39 -54 -44 -25 -3 -83 -12 -48 -19 -56 -5 -41 -79 -36 -58 0
80 52 29 34 17 3 60 72 33 9 36 18 67 26 59 47 19 27 55 8 10 1 46 54 28 77 13 78 44 4 -61 -12 -35 -64 -42 -56 -70 -25 -37 -23 -45 -58 -5 -21 -7 -62 -81 -82 -38 -31 -50 -43 0
4 45 31 38 13 11 63 53 29 58 22 35 6 14 3 83 -21 -46 -37 -54 -68 -67 -27 -15 -12 -24 -8 -78 -64 -51 -60 0
3 77 57 8 39 78 70 58 82 23 62 48 55 81 40 54 7 16 56 32 37 -9 -25 -35 -5 -71 -6 -33 -66 -18 -80 -53 -19 -47 -26 -46 -20 -27 -60 -45 -59 -74 -14 -83 -38 -17 -50 -69 -31 -67 0
76 79 7 65 21 38 16 77 67 83 28 75 27 -74 -22 -52 -1 -36 -2 -24 -9 0
5 -31 -40 -62 -1 -50 0
69 2 37 35 43 7 5 81 8 30 23 4 67 66 65 17 61 20 13 41 57 58 56 11 73 80 -38 -15 -12 -18 -36 -33 -76 -82 -28 -29 -71 -31 -40 -79 -75 -21 0
70 35 33 71 8 9 1 76 -39 -13 -23 -38 -72 -43 0
46 6 13 -37 -67 -33 -40 0
62 13 41 67 6 48 49 1 8 11 9 58 59 31 32 70 42 53 29 22 37 44 25 21 55 16 81 4 51 -76 -74 -24 -77 -78 -56 -72 -80 -23 -47 -60 -2 -5 -3 -36 -50 -40 -30 -79 -19 -46 0
13 9 73 49 80 25 -34 -3 -58 -20 -64 -50 -42 -6 -47 0
64 71 48 20 44 53 50 11 14 9 17 78 43 45 10 56 55 12 26 74 21 8 13 7 54 28 30 27 6 3 66 22 58 73 67 42 15 33 41 2 36 -77 -82 -1 -83 -72 -46 -52 -39 -68 -4 -19 -81 -59 -75 -61 -57 -62 -40 -24 -23 -18 -16 -65 -79 -76 -49 -70 -35 -60 -25 -47 0
79 13 26 24 59 76 45 82 15 83 71 9 39 55 70 34 73 31 50 22 3 28 53 56 1 65 -10 -4 -32 -63 -51 -57 -52 -40 -16 -33 -25 -27 -43 -80 -7 -47 -62 -49 -41 -6 -60 -38 -75 -66 -23 -18 -36 0
22 24 3 83 -45 -73 0
66 26 58 -38 -59 -42 -55 -40 0
65 62 43 55 77 74 4 58 70 63 49 33 30 20 -36 -32 -10 -37 -54 -64 -38 -25 -18 -13 -44 -66 -29 -53 -48 -56 -60 0
49 52 41 8 -70 -17 -55 -32 -74 0
56 67 80 31 5 40 71 82 14 35 -27 -59 -81 -42 -58 -4 0
46 45 29 63 51 77 55 16 1 21 35 74 41 62 31 56 70 12 73 28 26 22 68 17 66 5 43 58 75 -44 -69 -72 -9 -57 -10 -23 -79 -32 -36 -27 -52 -81 -61 -4 -48 -30 -59 -25 -47 -60 -80 -8 -11 -14 -33 -20 -15 -65 -6 -76 -64 -53 -3 -19 -83 -71 -7 -38 -2 -50 -67 -18 -13 0
16 59 12 7 29 57 60 15 82 63 39 20 77 18 19 50 81 23 40 67 33 44 52 49 26 47 73 53 28 36 -51 -42 -3 -25 -72 -78 -5 -69 -76 -43 -66 -41 -27 -31 -45 -74 -46 -62 -1 -17 -13 0
69 64 49 32 4 52 33 37 38 81 14 66 55 27 62 36 48 21 8 -43 -24 -51 -16 -28 -47 -68 -6 -83 -58 -41 -18 -25 -11 -19 -44 -7 -1 -46 -74 0
22 19 11 30 1 72 68 71 39 5 35 51 31 28 24 60 61 46 -79 -21 -15 -29 -58 -57 -73 -63 -14 -76 -64 -77 -43 -20 -81 0
69 82 62 22 50 29 55 49 59 73 58 3 64 47 42 12 18 37 36 9 72 67 25 48 68 30 54 66 32 51 33 27 14 34 24 71 -79 -74 -63 -46 -15 -13 -81 -19 -44 -78 -70 -76 -21 -53 -57 -26 -75 -11 -5 -16 -45 -6 -65 -83 -8 -39 -17 -31 -41 -38 -43 -35 -10 -61 -80 -52 -20 -28 -40 -2 -4 -7 0
14 80 30 47 10 49 74 81 67 39 37 17 48 22 28 79 64 33 53 38 36 60 13 69 24 18 21 25 27 61 58 3 32 15 46 35 11 55 20 76 -77 -9 -50 -42 -6 -26 -43 -41 -70 -59 -75 -5 -72 -31 -52 -78 -23 -51 -62 -82 -73 -4 -54 -16 -44 -56 -63 -71 -68 -12 -65 -19 -8 -66 -29 -34 -57 -40 -7 -45 0
81 59 12 82 60 19 -2 0
80 31 81 23 49 72 -2 -5 -62 -1 -64 -39 -45 -30 -28 0
43 44 10 62 37 22 -77 -27 -38 -24 -60 -3 -64 -40 -53 -80 -46 0
5 80 68 32 82 70 64 71 67 27 72 40 11 49 41 56 28 6 69 21 52 26 39 10 78 36 81 77 8 42 13 61 2 20 9 51 53 30 -59 -50 -7 -58 -46 -33 -63 -35 -73 -25 -76 -19 -44 -15 -24 -55 -66 -57 -3 -60 -14 -22 -54 -74 -38 -79 -83 -17 -45 -31 -37 -23 -34 -16 -12 -18 -29 0
59 43 10 69 7 41 70 13 3 34 65 57 63 75 73 21 14 8 35 47 15 40 60 45 27 9 49 68 72 29 39 30 2 31 12 5 66 -20 -46 -33 -18 -52 -24 -48 -51 -77 -38 -81 -4 -44 -37 -25 -80 -64 -71 -42 -56 -82 -28 -62 -74 -32 -1 -55 -53 -78 -61 -54 -67 -50 -6 -11 -36 0
9 3 48 79 6 31 47 78 14 4 11 61 10 2 50 12 41 59 42 36 75 19 72 63 44 81 15 43 22 58 35 52 8 13 32 -77 -83 -53 -55 -17 -34 -40 -33 -5 -67 -76 -69 -7 -57 -39 -80 -60 -46 -16 -68 -54 -30 -73 -71 -20 -29 -26 -25 -27 -45 -1 -66 -82 0
20 77 13 71 5 48 -22 -47 -57 -53 -43 -1 -50 -49 -55 -33 -82 -41 -19 -54 -27 -59 -30 -4 -66 0
51 68 75 80 22 28 21 27 82 7 52 49 63 58 16 19 69 72 76 48 70 35 1 74 36 79 38 25 73 -50 -61 -64 -66 -11 -37 -12 -13 -3 -83 -67 -5 -17 -20 -47 -14 -43 -26 -45 -32 -6 -39 -4 -55 -18 -78 -44 0
53 19 2 12 8 47 52 24 81 18 33 34 41 48 63 40 83 61 70 77 11 5 29 46 69 25 31 80 10 4 76 -78 -73 -9 -60 -26 -68 -42 -32 -57 -23 -14 -28 -54 -74 -27 -17 -79 -58 -3 -56 -75 -72 -30 -50 0
39 54 68 8 58 75 17 5 66 76 -10 -31 -33 -69 -7 -57 -37 -29 -38 -9 -23 0
6 33 54 11 25 35 18 36 21 45 66 10 70 3 74 68 39 61 26 5 78 46 43 8 79 72 59 53 19 24 28 34 82 57 69 4 22 44 60 -7 -56 -81 -48 -30 -73 -76 -55 -50 -32 -58 -52 -16 -80 -27 -51 -63 -49 -67 -40 -42 -83 -47 -71 -13 -15 -12 -23 -41 -1 -2 -65 -20 -64 -38 -9 -37 -77 0
17 35 12 52 82 44 55 54 28 14 68 81 75 76 62 58 15 4 72 8 47 45 5 18 16 41 6 21 25 3 39 36 65 59 31 79 -83 -70 -30 -13 -57 -64 -27 -56 -40 -78 -42 -61 -29 -1 -7 -26 -19 -67 -23 -11 -80 -60 -69 -77 -48 -63 -10 -24 -20 -73 -34 -43 -71 -9 -50 -51 -22 -33 0
66 81 15 7 75 6 -12 -39 -11 -8 -60 -28 -67 -40 0
23 41 31 43 -11 -25 -35 0
21 71 29 42 1 54 55 49 43 15 62 66 69 6 27 41 17 5 40 22 8 63 33 82 48 44 50 14 37 18 68 16 28 35 19 59 34 13 45 77 10 32 78 -58 -79 -57 -2 -46 -83 -20 -3 -65 -4 -9 -24 -47 -25 -67 -81 -80 -60 -30 -38 -12 -36 -51 -56 -31 -7 -11 -26 -61 -76 -70 -64 -53 0
66 56 38 37 48 59 31 28 7 82 61 29 18 60 27 10 69 24 12 21 1 3 30 73 76 81 58 45 54 83 47 78 49 57 77 16 39 79 64 34 -51 -72 -2 -70 -35 -19 -71 -80 -62 -74 -41 -23 -26 -4 -75 -46 -63 -33 -13 -36 -53 -20 -50 -8 -15 -22 -11 -55 -68 -40 -9 -43 -42 -67 -17 -14 -6 -5 0
45 32 11 16 21 47 18 70 64 76 50 19 14 78 13 80 15 43 26 35 49 63 17 -20 -51 -55 -77 -44 -66 -42 -10 -81 -28 -3 -12 -75 -9 -57 -41 -4 -27 -30 0
16 8 59 31 29 65 81 5 74 47 67 68 52 64 15 9 25 53 -6 -71 -42 -60 -48 -3 -26 -28 -10 -24 -46 -39 -45 -1 -73 -17 -36 -33 -63 -34 -77 -62 -57 0
32 28 16 23 40 34 41 17 66 83 47 77 78 37 36 39 21 62 48 1 4 12 70 55 79 73 43 67 50 6 -25 -18 -20 -57 -75 -11 -27 -14 -38 -35 -63 -71 -7 -2 -54 -72 -13 -64 -80 -81 -51 -42 -15 -10 -82 -46 -76 -24 -44 -22 -74 -60 -65 -61 -69 -29 -56 -68 -59 -31 0
72 58 45 16 29 41 71 78 22 66 17 82 76 8 39 83 37 24 30 35 51 1 50 3 46 18 2 61 54 43 36 77 32 34 60 27 47 5 74 79 11 13 15 -25 -31 -23 -42 -49 -80 -26 -52 -44 -20 -70 -75 -21 -53 -63 -38 -28 -9 -4 -57 -55 -65 -10 -48 -62 -67 -33 -59 -69 -19 -64 -12 -6 -73 -56 -40 -68 0
48 29 2 45 52 75 30 74 33 51 36 6 42 40 5 24 50 -72 -22 -11 -39 -56 -23 -67 -78 -54 -12 -63 -9 -58 -32 -60 -25 -38 -65 -57 -3 0
5 42 58 21 66 -60 -13 -47 0
6 73 76 53 58 54 62 23 11 70 39 19 44 50 63 5 15 16 77 78 21 57 40 46 10 12 65 42 45 1 59 -35 -68 -37 -49 -29 -22 -56 -25 -75 -80 -61 -51 -24 -13 -41 -47 -4 -32 -79 -34 -27 -74 -18 -28 -31 -14 -26 -60 -8 -36 -72 -30 -55 -9 -67 -82 -2 0
57 26 19 41 29 80 83 77 31 23 33 37 71 76 70 5 69 2 21 44 66 32 15 78 54 36 20 42 48 38 24 53 -73 -16 -52 -6 -35 -13 -74 -68 -18 -40 -30 -47 -62 -7 -22 -49 -28 -61 -55 -51 -72 -64 -10 -1 -82 -63 -17 -43 -39 -9 -67 -50 -14 -25 -75 -45 0
26 38 8 58 53 17 72 71 5 74 9 63 60 10 36 15 -67 -30 -42 -2 -68 -29 -47 -62 -66 -79 -78 -34 -31 -39 -13 -6 -32 -56 -35 -69 -27 -7 -43 -83 -33 0
16 15 80 34 63 67 23 77 12 27 76 66 62 55 51 2 38 -57 -8 -35 -36 -26 -33 -72 -61 -28 -37 -7 -71 -83 -14 -1 0
1 61 23 83 39 38 53 41 26 6 54 64 13 75 62 67 15 56 73 18 12 20 46 8 63 48 3 -47 -70 -37 -71 -9 -22 -32 -60 -74 -58 -40 -10 -44 -68 -31 -30 -76 -19 0
20 41 81 3 2 24 35 40 1 73 42 53 52 66 50 14 15 32 6 16 56 10 30 38 59 67 64 12 82 54 33 75 -27 -69 -71 -29 -61 -74 -55 -70 -60 -28 -65 -48 -68 -78 -4 -57 -21 -79 -43 -83 -9 -26 -47 -72 -39 -22 -76 -7 -62 -63 -46 -80 -49 -19 -17 0
45 35 52 44 60 63 1 5 16 73 25 21 78 70 51 75 36 -30 -2 -34 -10 -9 -57 -61 -32 -26 -31 -53 -38 -8 -18 -27 -64 -59 -62 -55 -76 -67 -28 -66 -71 -77 -29 -83 -3 0
80 44 19 67 20 46 77 -63 -1 -73 -60 0
15 34 39 11 1 36 67 58 56 35 40 50 75 71 17 83 -68 -52 -46 -49 -80 -82 -43 -27 -74 -53 -37 -79 0
55 75 45 49 38 77 47 51 44 23 32 30 2 67 -63 -73 -50 -12 -58 -29 -5 -19 -18 0
8 16 70 37 54 4 9 47 50 75 56 28 5 10 27 26 33 29 57 38 62 -44 -55 -43 -34 -23 -46 -32 -15 -7 -3 -18 -61 -30 -53 -42 -63 -51 -66 -36 -20 -72 -40 -60 -35 -31 -80 -39 -65 0
15 26 52 37 1 39 46 79 78 17 36 42 7 61 57 20 80 31 24 68 49 14 71 22 63 30 34 -64 -40 -21 -50 -65 -3 -33 -53 -55 -74 -70 -12 -38 -58 -18 -59 -32 -62 -69 -5 -72 -11 -13 -67 -35 -47 -6 -10 0
23 80 63 66 5 77 22 75 46 19 -65 -29 -12 -35 -18 -9 -17 0
3 46 54 1 72 16 32 2 13 75 23 78 15 11 37 71 33 38 69 30 50 68 47 58 80 31 41 40 48 34 5 29 25 24 4 55 79 60 62 12 6 53 18 -43 -21 -36 -77 -81 -28 -51 -82 -17 -59 -20 -35 -66 -42 -63 -65 -52 -76 -61 -56 -74 -64 -57 -73 -8 -10 -7 -27 -14 -45 -9 -70 0
9 18 11 51 38 79 65 60 43 32 6 69 30 -7 -16 -39 -57 -8 -21 -34 -58 -81 -46 0
48 36 53 5 61 60 81 7 29 43 50 2 46 57 49 62 9 11 30 47 71 4 15 44 35 41 26 66 63 82 40 -22 -54 -31 -70 -74 -10 -77 -6 -55 -42 -79 -58 -23 -34 -24 -76 -20 -78 -65 -45 -1 -12 -16 -32 -25 0
80 57 16 31 76 11 24 47 56 37 82 28 1 78 32 77 74 69 58 6 73 7 25 66 4 75 64 43 62 3 35 27 52 61 48 50 53 -23 -34 -2 -15 -5 -36 -70 -81 -20 -67 -17 -18 -49 -71 -46 -10 -51 -65 -63 -60 -83 -68 -38 -59 -41 -21 -45 -44 -30 -55 -33 -79 -26 -54 -39 -72 0
60 4 27 82 51 25 41 3 77 45 75 16 26 30 62 73 52 65 10 63 23 81 68 56 39 35 36 53 46 7 14 31 48 -74 -49 -44 -80 -22 -17 -6 -33 -83 -37 -9 -32 -24 -76 -1 -66 -54 -13 -57 -29 -70 -47 -69 -11 -64 -18 -78 -19 -40 -34 -20 -15 -72 -59 0
34 7 39 11 75 59 52 50 61 74 76 13 81 5 1 32 60 57 44 79 45 83 19 28 48 -6 -58 -36 -71 -55 -56 -78 -9 -10 -38 -46 -37 -18 -40 -43 -22 -31 -47 -23 -27 -30 -25 -70 -14 -35 -80 -73 -41 -77 0
19 30 14 38 11 35 -42 -45 -15 -68 -7 -33 -72 0
6 63 82 27 70 62 74 24 75 4 19 47 78 54 31 -56 -39 -52 -76 -45 -2 -42 -80 -57 -37 -81 -9 -12 -1 -43 -20 -7 -22 -79 0
65 55 56 54 34 38 7 6 29 16 73 61 43 51 36 49 13 58 31 23 17 66 27 47 24 78 46 63 80 20 9 44 39 45 82 28 71 -12 -8 -10 -22 -77 -50 -19 -67 -48 -62 -25 -1 -30 -5 -72 -35 -68 -41 -70 -75 -74 -32 -14 -37 -42 -57 -11 -21 -52 -15 -81 -79 -76 -83 -64 -40 -53 -3 -69 0
42 68 46 12 2 61 44 8 40 3 37 83 49 53 35 27 77 15 11 22 74 7 33 10 25 -57 -24 -36 -23 -69 -55 -39 -78 -59 -17 -52 -76 -28 -14 -60 -56 -48 -80 -79 -26 -54 -62 -43 -71 -19 -63 -9 0
7 64 79 59 60 49 16 42 61 68 5 15 73 76 37 26 67 80 57 21 29 6 83 14 9 53 28 63 -17 -19 -69 -72 -24 -65 -77 -4 -54 -1 -35 -43 -47 -39 -40 -74 -33 -81 -71 -25 -38 -44 -34 -27 -13 -78 -18 -10 -2 -22 0
60 6 79 62 64 68 14 5 -63 -57 -42 -52 0
58 30 15 57 24 60 54 40 35 80 34 53 74 71 28 44 27 29 2 72 31 12 70 75 83 16 79 78 59 52 33 39 7 -81 -4 -61 -8 -41 -20 -66 -6 -50 -32 -69 -48 -38 -47 -65 -82 -68 -22 -23 -21 -17 -18 -73 -67 -11 -13 -43 -62 -63 -26 0
57 33 65 13 66 34 37 59 68 51 9 78 29 44 1 5 71 64 24 58 49 28 8 75 16 22 21 6 -56 -48 -12 -72 -74 -41 -20 -52 -11 -15 -17 -54 -18 -14 -77 -31 -2 -35 -80 -43 -55 -53 -3 -63 -62 -69 -81 -23 -45 -10 -40 -36 -82 -38 -19 -76 -50 -7 -61 -83 -27 -46 -47 -26 -39 -60 -25 -42 -67 -30 -70 -73 0
3 82 26 59 73 31 23 71 13 63 62 65 55 49 39 37 9 19 51 77 72 6 42 74 43 15 61 5 76 64 10 50 11 29 -18 -33 -52 -14 -44 -38 -27 -83 -24 -70 -17 -56 -16 -53 -60 -69 -40 -25 -1 -20 -8 -66 -54 -80 -57 -47 -79 -30 -75 -58 -78 -28 -35 -41 -21 0
64 8 33 46 48 50 59 58 -45 -19 -60 -71 -37 -74 -38 -6 -56 -35 -67 -42 -26 -21 -63 -12 0
46 38 18 36 42 64 34 -37 -40 -1 -12 -66 -9 -76 -65 -70 -68 -4 -44 0
31 47 81 73 13 58 68 33 17 52 2 15 20 42 83 38 37 78 22 26 75 -3 -41 -1 -46 -27 -6 -48 -57 -79 -23 -32 -34 -4 -55 -67 -9 -43 -77 0
54 11 7 75 3 24 16 60 13 71 69 45 65 50 62 80 79 63 6 77 61 83 42 73 8 43 21 48 30 39 67 12 5 74 53 19 55 49 64 -34 -47 -82 -10 -57 -51 -26 -40 -81 -18 -14 -66 -68 -72 -35 -32 -1 -27 -58 -22 -15 -70 -25 -36 -28 -37 -4 -46 -78 0
70 7 -82 -19 -43 0
20 50 67 77 6 23 31 62 35 7 28 29 53 45 42 68 72 21 60 47 58 44 -59 -27 -66 -34 -82 -54 -43 -76 -83 -2 -70 -18 -80 -40 -24 -75 -33 -74 -64 -79 -22 -52 -25 -16 -36 -63 -8 -78 -38 -4 0
70 66 37 47 12 27 18 69 46 74 49 31 48 30 60 25 5 58 41 63 52 -56 -61 -34 -77 -9 -42 -21 -36 -10 -33 -64 -81 -29 -22 -35 -8 -2 -80 -11 -53 -51 -3 -14 0
37 31 36 46 10 20 1 50 34 40 23 83 19 30 22 33 61 70 47 52 80 13 -72 -29 -7 -64 -8 -45 -68 -15 -51 -18 -4 -60 -81 -66 -63 -28 -12 -77 -35 -67 -9 -11 -73 -42 0
55 73 78 65 32 3 42 66 48 56 35 49 54 17 13 81 29 -5 -4 -61 -53 -10 -58 -72 -45 -23 -43 -69 -24 -1 -83 -19 -79 -15 -21 0
56 41 -37 -48 -18 -21 0
26 45 36 50 42 18 83 71 72 46 77 48 67 63 79 1 40 33 47 12 55 -37 -53 -16 -22 -6 -29 -8 -41 -31 -27 -34 -76 -54 -75 -57 -28 -20 -60 -11 -5 -65 -82 -80 -13 -52 -10 -15 -56 0
5 19 68 0
26 43 1 22 15 36 -78 -58 0
29 60 26 32 83 34 38 76 9 51 52 13 16 55 45 50 62 14 6 73 25 19 -78 -74 -46 -64 -81 -40 -1 -54 -47 -21 -24 -42 -56 -17 -2 -68 -39 -12 -49 -66 0
82 25 9 7 2 30 29 68 72 75 60 62 77 71 1 51 41 5 22 43 27 83 57 67 69 23 50 42 28 4 63 35 -52 -21 -6 -20 -64 -74 -3 -81 -79 -48 -18 -33 -38 -39 -26 -24 -34 -53 -80 -19 -61 -58 -73 -59 -54 -31 -8 -11 -14 -66 -36 -56 -49 -13 -46 0
64 14 69 55 82 72 77 63 -10 -76 -70 -35 -21 -6 0
82 80 -66 -39 -83 0
9 39 57 40 11 82 69 45 16 80 28 79 18 70 76 50 15 27 60 51 5 10 20 19 47 74 73 33 26 59 77 -24 -17 -42 -22 -56 -71 -21 -78 -52 -72 -31 -3 -61 -49 -35 -13 -68 -66 -46 -54 -65 -55 -64 -58 -44 -34 -62 -48 -32 0
64 44 53 65 51 26 76 1 33 49 24 78 34 46 52 6 58 18 82 56 42 68 23 59 38 67 62 17 73 57 5 55 21 75 35 45 -40 -63 -9 -80 -29 -32 -7 -39 -20 -27 -19 -11 -37 -16 -13 -48 -54 -43 -83 -77 -10 -74 -25 -70 -12 -2 -69 -60 -15 -14 0
52 -63 -78 -37 -32 -49 -51 -53 -22 -74 0
60 34 31 8 21 28 32 53 45 61 58 -72 -15 -66 -16 -55 -25 -30 -26 -59 -63 -44 -71 -48 -40 -62 -23 -12 0
49 50 25 39 63 60 33 72 58 42 55 32 54 68 77 69 12 35 56 36 18 52 27 21 23 61 3 82 10 79 48 59 62 14 70 19 17 40 20 80 67 24 -45 -74 -11 -9 -44 -73 -51 -71 -37 -8 -16 -76 -22 -64 -46 -83 -34 -53 -15 -26 -29 -30 -57 -81 -2 -78 -5 -65 -1 -66 -4 -41 -43 -38 -6 -13 -47 -28 -75 0
3 17 9 6 83 40 16 39 78 32 69 47 27 67 55 23 13 37 33 30 46 68 21 56 43 41 74 48 10 -31 -2 -53 -51 -50 -58 -5 -72 -18 -80 -79 -22 -63 -29 -73 -7 -59 -14 -20 -12 -65 -54 -49 -24 -71 -70 -45 -57 -60 -26 -19 -28 -1 0
38 62 14 43 65 26 69 3 71 55 37 36 1 30 23 58 82 35 61 29 54 81 77 34 50 56 75 10 22 25 33 39 48 72 20 45 19 28 -32 -76 -60 -40 -31 -73 -67 -52 -24 -7 -66 -68 -12 -5 -9 -59 -47 -17 -4 -83 -57 -18 -44 -27 -63 -8 -6 -21 -42 -80 -53 -41 -70 -46 0
39 40 55 76 81 74 41 33 79 21 65 24 43 49 29 72 30 83 -1 -68 -8 -56 -14 -18 -7 -51 -42 -70 -25 -78 -67 -2 -59 0
56 8 44 58 69 4 -59 -15 0
2 58 62 10 -3 -81 -45 -40 0
59 80 70 40 -20 -64 0
73 3 5 26 44 46 41 54 -55 -59 -25 -20 -40 -71 -16 -15 -52 0
73 14 51 55 82 63 18 62 44 70 37 30 12 24 11 79 47 27 29 57 50 32 26 72 65 1 68 22 2 42 34 81 83 76 16 4 9 39 -23 -28 -46 -58 -25 -56 -49 -54 -45 -59 -66 -53 -3 -7 -19 -38 -43 -6 -36 -67 -17 -78 0
69 3 66 58 23 20 55 77 11 41 31 27 25 65 52 67 13 30 17 26 61 4 57 29 -68 -38 -19 -22 -76 -8 -39 -47 -33 -40 -54 -1 -53 -48 -24 -2 -15 -70 -80 -75 -78 -14 0
32 61 79 43 41 30 70 3 14 21 71 5 45 65 44 38 74 73 55 77 31 -1 -54 -10 -64 -2 -35 -72 -80 -40 -78 -18 -50 -26 -75 -69 -37 -39 -4 -56 -81 -8 -12 -36 0
34 63 56 -22 -62 -43 -18 -15 -47 0
80 4 37 18 82 62 59 17 30 74 39 63 70 40 68 35 38 77 20 9 5 19 7 14 27 56 15 42 29 51 -78 -79 -72 -6 -22 -83 -34 -25 -76 -12 -64 -8 -57 -69 -66 -48 -43 -73 -2 -1 -67 -45 -44 -41 -24 -31 -11 -23 -50 -65 0
16 69 22 74 13 39 58 6 66 71 79 75 32 49 77 78 40 34 8 24 51 52 65 19 76 38 55 54 3 42 72 48 18 64 50 57 81 23 11 27 60 14 10 21 -28 -56 -46 -41 -67 -26 -17 -61 -43 -83 -9 -73 -20 -2 -7 -4 -33 -63 -31 -59 -30 -5 -53 -37 -82 -47 -68 -35 -25 -62 -80 -15 -29 -44 -36 -12 -1 -45 0
60 38 51 56 17 63 19 29 9 57 46 31 27 64 66 50 54 65 7 22 55 -16 -36 -23 -18 -72 -70 -62 -4 -37 -52 -8 -81 -49 -79 -15 -26 -45 -12 -44 -74 -76 0
53 14 33 59 12 76 39 46 43 17 35 4 58 16 23 38 68 72 67 34 69 3 70 24 48 27 36 29 8 47 20 77 65 75 50 13 30 15 22 21 5 41 1 66 -10 -45 -25 -31 -73 -81 -57 -63 -60 -78 -52 -61 -9 -80 -55 -64 -28 -49 -42 -11 -6 -19 -83 -74 -32 -71 -79 -51 -44 -40 0
34 11 10 67 15 17 56 41 7 30 74 35 12 62 80 38 16 68 27 75 39 52 73 47 78 13 65 18 76 77 71 70 3 46 61 -29 -31 -14 -60 -82 -50 -55 -28 -19 -48 -20 -25 -26 -42 -63 -4 -2 -23 -58 -43 -81 -8 -59 -64 -32 0
24 35 23 12 61 67 33 68 55 51 6 65 70 56 18 2 62 14 21 45 28 4 32 39 48 53 58 9 17 66 76 16 46 25 47 7 36 81 -75 -10 -42 -78 -63 -1 -57 -74 -52 -37 -31 -82 -38 -30 -13 -8 -34 -20 -19 -11 -43 -22 -3 -60 -27 -26 -44 -41 -77 -83 -64 -72 -59 -50 -5 -40 0
61 73 53 67 11 46 62 71 69 8 14 77 -74 -70 -19 -56 -9 -21 -30 -60 0
11 67 76 70 48 73 50 72 56 82 68 8 37 33 -51 -1 -36 -43 -78 -7 -75 -38 -41 -81 -3 -26 -27 -35 0
54 58 33 32 72 13 73 60 53 34 16 12 74 62 57 7 6 63 70 82 38 68 77 14 83 49 8 39 19 81 59 30 37 23 56 9 26 42 51 76 -47 -24 -45 -69 -79 -10 -48 -75 -61 -71 -17 -41 -36 -50 -44 -40 -65 -11 -22 -2 -64 -66 -27 -80 -5 -31 -15 -20 -55 -52 -18 -67 -25 0
40 51 52 11 16 24 43 12 71 67 5 28 20 46 27 80 50 58 65 53 26 -17 -21 -37 -32 -35 -62 -83 -15 -8 -68 -69 -38 -4 -59 -45 -48 0
22 7 31 20 34 67 66 23 55 29 -56 -72 -4 -2 -81 -54 -51 -24 0
80 83 73 64 66 28 1 32 42 16 71 33 63 2 39 7 12 6 65 24 11 10 35 58 43 19 61 79 22 36 13 26 62 41 59 -50 -68 -57 -70 -69 -18 -38 -47 -27 -14 -20 -60 -3 -37 -31 -48 -78 -29 -46 -8 -45 -25 -17 -53 -76 -44 -54 -82 -77 -56 -72 0
15 70 61 34 20 18 72 10 66 78 7 3 57 45 19 36 16 44 39 67 52 46 29 -73 -40 -41 -55 -35 -53 -74 -4 -63 -12 -1 -71 -68 -62 -11 -2 -43 -48 -54 -24 0
48 82 74 43 77 1 56 7 50 29 27 42 34 15 30 57 5 73 66 41 72 38 21 8 63 -58 -13 -59 -44 -14 -24 -18 -65 -53 -2 -22 -49 0
35 38 7 2 27 51 77 18 59 21 70 6 15 52 36 79 54 14 80 31 29 42 58 13 25 39 66 -24 -61 -45 -16 -41 -68 -48 -82 -33 -19 -8 -69 -37 -67 -23 -83 -46 -20 -74 -57 -11 -81 -73 -60 -56 -10 -30 -12 -28 -9 -47 -40 -78 -26 -44 -62 0
48 68 8 38 64 3 41 17 40 13 63 7 71 4 6 19 10 2 76 52 25 49 29 44 35 11 65 43 75 21 33 60 -24 -46 -51 -1 -66 -72 -81 -22 -53 -26 -61 -36 -70 -73 -5 -79 -74 -57 -45 -59 -20 -27 -78 -15 -16 -67 -69 -56 -83 -80 -77 -12 -55 -9 -30 -54 -62 -39 -23 -50 -47 0
50 18 73 14 17 6 81 10 68 13 7 33 32 57 66 15 4 47 -69 -26 -20 -31 -16 -56 -55 -58 -59 -23 -78 -82 -27 -34 -67 -52 -61 -3 0
20 22 73 40 17 74 59 -2 -3 -54 -79 -25 -15 -43 -67 -76 -8 -14 0
17 78 83 50 61 54 66 4 55 21 46 81 22 79 53 -6 -32 -64 -38 -57 -65 -9 -42 -20 -62 -23 -1 -59 -36 -15 -27 -69 -12 -73 -71 -45 -70 0
12 62 3 66 42 17 33 47 79 49 43 65 26 24 -82 -71 -54 -38 -76 -81 -83 -25 -41 -7 -48 -52 -31 -67 -57 -19 -35 -16 -34 -20 -5 -8 -39 -36 -61 -9 0
21 38 31 35 58 78 72 83 15 14 13 75 39 53 62 5 66 26 25 77 2 42 46 34 36 19 57 79 61 60 43 63 -20 -71 -51 -64 -74 -12 -7 -81 -23 -52 -50 -70 -80 -3 -45 -6 -32 -11 -68 -56 -9 -49 -73 -27 -8 -22 -17 -55 -67 0
1 16 19 67 58 64 41 49 25 26 71 63 34 -55 -79 -50 -8 -5 -33 -38 -54 -7 -2 -82 -15 -37 -29 -46 -78 0
18 54 75 6 13 44 70 73 72 64 9 52 32 16 46 19 65 15 47 4 14 -36 -38 -67 -28 -41 -56 -59 -2 -68 -1 -76 -20 -40 -29 -58 -45 -37 -31 -33 -42 0
54 67 2 65 37 5 22 -1 -38 -72 -44 0
73 68 81 57 62 55 52 -60 -51 -61 -46 -35 -70 0
76 0
6 16 26 12 70 72 75 28 13 54 81 8 32 17 1 57 64 25 45 79 29 -19 -31 -22 -53 -83 -15 -36 -80 -40 -44 -37 -51 -78 0
64 34 74 8 36 28 72 3 27 -38 -55 -29 -77 -39 -45 -32 -67 -63 -41 -40 -51 -14 -20 0
56 36 79 75 44 32 76 42 23 17 19 68 52 48 78 21 50 18 12 15 31 82 64 25 39 77 46 26 16 13 43 22 80 41 5 69 14 4 49 -63 -67 -3 -58 -59 -6 -57 -33 -9 -55 -27 -83 -2 -34 -62 -74 -61 -20 -8 -60 -66 -81 -51 -71 -7 -72 -10 -53 -28 -37 0
64 36 76 39 31 6 80 45 81 41 1 79 42 29 68 4 8 -75 -83 -49 -11 -67 -71 -61 -66 -21 -24 -51 -2 -5 -52 -15 -16 -30 -55 0
57 47 78 21 15 71 53 81 7 48 27 5 43 16 40 41 3 35 13 33 49 59 10 77 69 26 28 42 -61 -58 -1 -8 -83 -34 -66 -24 -50 -25 -52 -22 -74 -29 -44 -62 -64 -38 -80 -68 -20 -6 -76 -32 -65 -37 -79 -12 -2 -60 -36 -31 -54 -82 -46 -70 -75 -4 -19 -51 -9 -30 -63 0
57 7 72 80 3 4 30 52 13 75 69 28 83 53 15 45 81 10 21 39 16 8 36 29 6 77 40 51 76 33 63 -42 -31 -32 -50 -27 -54 -68 -78 -26 -14 -24 -49 -66 -38 -20 -46 -23 -34 -22 -25 -71 -56 -5 -82 0
16 59 37 57 70 78 17 2 63 29 3 47 33 15 77 54 83 -42 -19 -13 -79 -49 -69 -23 -6 -28 -20 -7 -56 -58 0
64 29 0
20 35 73 82 49 4 19 29 38 40 62 46 47 55 79 7 36 9 23 2 65 34 80 10 59 66 26 11 6 27 12 54 71 16 69 8 61 81 -74 -1 -39 -31 -21 -5 -25 -32 -76 -24 -72 -42 -15 -63 -53 -67 -22 -48 -37 -52 -56 -64 -14 -3 -77 -43 -33 -45 -18 -13 -78 -51 -57 -58 -60 -68 -30 -70 -83 -50 0
5 54 15 19 14 2 8 65 34 57 17 26 16 83 23 18 37 76 56 51 6 42 13 73 59 31 30 55 39 28 82 27 32 70 21 81 71 46 78 -12 -36 -50 -69 -80 -79 -64 -10 -45 -35 -67 -33 -38 -68 -63 -48 -43 -24 -61 -11 -52 -60 -29 -75 -44 -25 -22 -58 0
1 65 24 68 57 31 14 62 6 26 61 27 25 39 48 33 19 35 64 3 83 47 67 15 8 55 70 23 21 -52 -58 -53 -20 -13 -80 -76 -22 -71 -78 -43 -2 -44 -7 -17 -9 -41 -69 -50 -82 -36 -74 -28 -10 -11 0
53 78 52 1 50 74 65 30 20 68 71 64 54 72 61 51 7 27 44 49 14 55 75 8 82 73 32 -77 -58 -66 -63 -33 -36 -48 -42 -12 -13 -62 -46 -24 -83 -21 -47 -81 -56 -6 -70 -76 -9 -15 -26 -60 -25 -29 0
10 33 19 66 39 67 27 18 21 47 26 79 16 29 53 55 45 3 7 23 15 64 9 58 63 78 30 71 73 34 22 6 -83 -61 -51 -2 -13 -46 -5 -81 -11 -69 -48 -31 -12 -80 -52 -77 -4 -74 -43 -24 -68 -56 -40 -54 -70 -37 -17 -25 0
50 19 65 20 55 81 52 78 32 39 31 22 82 5 58 75 13 67 6 54 63 27 70 1 76 68 56 60 15 69 41 44 83 21 53 57 80 28 71 -79 -2 -14 -38 -33 -72 -3 -9 -34 -42 -17 -16 -7 -37 -29 -26 -24 -10 -11 -66 -49 -51 -64 -77 -36 -43 -12 -48 -23 -30 -47 -8 -4 -73 -74 -40 -18 -62 -35 -45 -59 -25 -46 0
55 80 7 -68 -75 0
38 13 73 66 25 7 70 63 55 74 61 27 34 58 29 18 17 4 3 -11 -71 -65 -81 -43 -14 -36 -32 -57 -46 -28 -78 -53 -9 -76 -68 -62 -56 -77 -40 -82 -22 -33 -48 -80 -52 -30 -79 -8 -19 -26 -37 -50 -75 -42 -16 -10 -6 0
58 25 6 37 45 24 44 47 51 70 79 16 78 28 10 8 53 74 29 12 73 20 59 4 9 -41 -18 -49 -38 -71 -52 -68 -42 -30 -50 -57 -33 -7 -64 -55 -39 -76 -27 -35 -19 -31 -1 0
25 71 76 61 83 29 -23 -81 -7 -48 0
70 42 14 32 1 30 12 80 -13 -71 -6 -29 -36 0
10 37 83 66 63 14 62 39 38 52 67 51 82 15 12 41 3 16 -54 -49 -9 -8 -27 -43 -58 -24 -45 -23 -77 -19 -73 -42 -25 -11 -57 -61 -80 -78 0
30 80 57 22 17 69 54 66 11 72 40 61 29 10 65 31 60 71 48 34 33 7 3 82 64 23 68 6 73 81 74 41 78 19 50 38 -26 -55 -15 -12 -27 -36 -70 -67 -37 -16 -45 -59 -63 -75 -1 -56 -5 -49 -44 -62 -21 -53 -52 -14 -58 -25 -18 -4 -43 -39 0
58 6 30 75 41 80 21 47 69 81 38 63 1 11 45 61 36 65 83 27 33 53 54 13 31 20 37 64 34 51 50 44 24 79 18 43 49 -4 -10 -17 -12 -42 -82 -59 -52 -2 -66 -28 -73 -32 -46 -26 -9 -68 -60 -57 -15 -8 -71 -78 -3 -55 -23 -67 -35 -16 -56 -25 -29 -48 -62 -40 -5 -74 -7 -14 -39 -76 0
32 26 44 5 68 55 4 33 70 47 64 77 71 57 43 51 -48 -10 -38 -56 -53 -15 -3 -63 -9 -25 -37 -65 -83 -72 -20 -1 -62 -74 0
13 64 29 72 5 66 75 15 81 -6 -35 -79 -71 0
50 38 45 11 9 8 26 71 14 58 44 35 20 1 23 72 74 81 21 78 51 60 73 41 75 68 -80 -31 -24 -33 -53 -82 -13 -64 -28 -15 -7 -83 -4 -19 -55 -47 -69 0
24 61 52 81 47 65 41 53 9 19 29 -57 -35 -28 -83 -77 -32 -78 -63 -16 -10 -39 -3 -75 -79 -70 -68 -30 0
33 53 34 48 49 41 30 65 47 6 66 -71 -43 -18 -80 -78 -57 -14 -35 -28 -83 -63 -72 -56 -77 0
5 83 45 71 -68 -27 0
40 83 6 12 39 38 56 76 45 22 47 44 80 57 1 71 66 63 30 28 29 -65 -53 -36 -59 -73 -23 -49 -9 -27 -24 -48 -5 -32 -72 -20 -19 -7 -3 -31 -13 -74 -8 -58 -35 -21 -17 -46 -41 -79 -18 -37 -43 -33 0
25 60 68 45 59 46 54 28 65 64 -26 -1 -21 -70 -39 -58 -47 -34 -8 -3 -74 -20 -24 -72 -31 -6 -61 -10 -12 0
20 83 80 75 19 -6 -42 -81 0
11 58 4 7 47 32 10 35 82 60 55 70 57 56 24 16 45 8 -6 -73 -41 -43 -64 -49 -80 -12 -25 -59 -54 -79 -52 -65 -1 -66 -46 -67 0
13 54 44 57 48 46 51 62 71 74 64 6 33 79 82 59 56 24 37 80 58 3 8 36 45 65 14 25 53 60 70 9 18 22 81 41 28 35 -30 -11 -29 -73 -20 -72 -76 -21 -1 -23 -83 -67 -27 -16 -75 -69 -77 -38 -43 -55 -7 -34 -78 -49 -52 -26 -40 -50 -2 -5 -10 -12 -17 -31 -4 -66 -19 -15 -68 0
81 45 82 79 62 43 46 74 20 24 61 22 13 56 11 54 9 26 12 29 59 72 73 41 66 70 52 6 37 5 2 36 28 34 75 3 32 63 -30 -64 -76 -40 -27 -23 -51 -71 -42 -83 -69 -19 -7 -39 -4 -44 -60 -17 -1 -68 -55 -49 -77 -10 0
38 24 43 53 49 58 46 64 70 37 61 76 22 -1 -81 -32 -31 -12 -6 -59 -8 -19 -80 -40 0
57 69 22 40 43 76 65 32 35 64 39 29 48 33 27 41 58 78 34 74 6 80 26 79 21 60 67 -24 -28 -4 -10 -44 -38 -12 -62 -14 -5 -18 -70 -23 -19 -42 -8 -13 -54 -55 -75 -66 -82 0
29 59 41 35 50 71 17 37 -66 -13 -3 -36 -73 0
44 74 67 30 23 31 72 73 -28 -57 -34 -46 -81 -35 -60 -16 -55 0
78 54 11 31 21 57 79 26 -75 -36 -47 -68 -12 -55 0
16 33 75 70 38 32 36 62 68 59 53 35 48 49 66 2 19 43 44 8 14 34 71 78 73 82 72 81 24 51 76 10 54 41 55 29 80 37 -42 -22 -30 -67 -65 -17 -61 -74 -83 -56 -40 -46 -77 -39 -13 -28 -3 -20 -45 -12 -15 -31 -6 -50 -63 -52 -23 -79 -27 -5 -21 -9 -64 -4 -7 -18 -69 -26 -1 -58 -11 -57 -25 -47 0
45 61 53 32 44 80 17 50 36 57 40 -67 -65 -19 -28 -68 -42 -8 -64 -39 -74 -6 0
25 23 78 35 39 31 4 24 29 49 28 42 15 60 10 76 63 3 74 73 77 40 54 69 75 50 30 83 13 -1 -55 -38 -71 -5 -11 -58 -12 -57 -68 -9 -20 -66 -14 -19 -37 -32 -65 -82 -80 -41 -36 -59 -44 -43 -16 -64 -2 -72 -26 -52 -27 -70 -47 -53 -17 -79 -21 -45 -18 -62 -34 -67 -51 -8 -81 -56 0
1 27 65 33 48 58 39 82 11 15 57 5 62 60 37 80 13 42 14 44 29 43 75 24 18 -69 -40 -77 -56 -66 -26 -10 -63 -30 -16 -41 -2 -23 -70 -64 -3 -74 -45 -61 -8 -31 -71 0
26 53 37 78 12 63 28 45 58 76 43 14 16 24 3 57 8 54 74 6 17 27 10 33 40 -70 -18 -29 -44 -30 -15 -82 -75 -22 -48 -35 -36 -32 -71 -77 -9 -65 -83 -19 -73 -25 -49 -7 -31 -61 0
7 66 8 16 18 51 30 55 29 53 77 45 37 70 32 64 10 57 9 6 75 2 46 81 28 83 3 65 61 68 35 71 22 17 82 76 25 49 58 43 20 34 -27 -52 -13 -78 -21 -54 -38 -48 -26 -14 -62 -73 -79 -31 -4 -47 -50 -40 -11 -59 -67 -69 -72 -39 -15 -36 -24 -42 -44 -74 -63 -56 -80 -33 -23 -12 -41 0
33 42 57 31 3 8 11 29 35 26 68 41 54 40 7 62 52 18 80 4 48 36 5 38 1 23 66 2 44 70 79 13 53 63 69 45 6 10 81 65 49 25 72 32 9 15 -73 -16 -76 -64 -78 -56 -12 -43 -47 -34 -27 -55 -50 -24 -61 -28 -39 -83 -67 -77 -20 -21 -51 -71 -37 -14 -17 -19 -60 -75 -22 -58 -74 0
24 9 69 6 21 3 7 -74 -73 -46 -81 0
1 32 26 52 18 7 59 42 77 43 -48 -19 -64 -30 -81 -67 -76 -8 -22 -70 0
58 37 41 15 3 21 83 23 50 38 63 73 69 82 7 34 44 53 60 66 27 56 -10 -31 -40 -59 -45 -14 -33 -54 -67 -43 -64 -6 -74 -8 -55 -80 -17 -20 -13 -36 -32 -26 -12 -5 0
48 37 77 22 68 76 81 47 44 38 3 54 31 72 25 34 1 14 11 23 66 35 16 75 59 24 -80 -28 -53 -30 -13 -65 -45 -71 -17 -69 -6 -12 -26 -36 -51 -39 -56 -29 -83 0
26 52 35 1 75 28 23 68 20 19 74 54 53 37 9 78 81 30 17 29 36 -43 -38 -82 -83 -70 -50 -58 -3 -76 -67 -55 -24 -61 -25 -8 -62 -45 -16 -27 -32 -77 -31 -13 0
34 22 63 8 67 40 38 49 35 57 75 42 74 68 71 66 18 6 72 64 61 60 32 37 77 50 23 1 20 79 14 30 69 48 45 81 3 17 43 41 26 82 62 -73 -78 -21 -5 -29 -83 -28 -53 -25 -70 -13 -58 -55 -76 -47 -24 -56 -46 -33 -31 -11 -7 -52 -65 -12 -80 -44 -54 -9 -10 -27 -16 -39 -59 -51 -4 -36 -19 -15 0
72 2 45 32 12 20 47 42 22 4 76 49 8 3 59 -64 -1 -51 -62 -75 -48 -16 -7 -67 -65 -24 -25 -10 -73 -15 -11 -14 -82 0
50 76 52 8 -65 -43 0
24 61 36 32 64 59 43 44 3 12 57 46 56 1 68 78 35 38 7 63 42 81 40 14 30 69 34 47 70 18 52 20 17 13 5 25 -16 -72 -45 -79 -60 -73 -19 -29 -4 -2 -26 -58 -62 -51 -27 -33 -74 -39 -15 -50 -6 -66 -22 -23 -67 -76 -31 -75 -28 -10 -82 0
63 54 81 83 9 78 79 22 29 -28 -50 -6 -37 -33 -58 -61 -15 -2 -49 -27 -3 -10 -34 0
77 83 54 34 22 14 13 30 47 60 61 46 2 64 79 82 9 56 20 11 68 6 52 32 69 38 36 17 80 5 70 74 39 7 78 43 49 3 31 -16 -62 -73 -67 -75 -57 -35 -24 -44 -15 -29 -19 -51 -26 -71 -23 -81 -53 -21 -59 -45 -65 -28 -66 -37 -27 -1 -10 -48 -63 -33 -41 -40 0
30 23 24 74 73 2 79 50 31 26 60 16 40 41 6 49 33 62 67 10 32 5 3 15 71 27 19 17 52 57 46 28 20 66 69 -47 -83 -64 -70 -1 -59 -38 -81 -75 -34 -13 -77 -11 -14 -12 -55 -18 -37 -44 -42 -36 -21 -76 -39 -82 0
76 6 49 5 19 60 66 69 7 15 58 16 3 43 68 42 11 52 36 77 74 63 23 45 10 30 25 8 35 22 79 9 44 31 20 51 24 62 56 39 59 53 18 -37 -50 -17 -71 -38 -75 -40 -57 -46 -14 -80 -64 -83 -47 -61 -67 -70 -55 -13 -73 -33 -4 -2 -81 -41 -34 -29 -21 -1 -28 -54 -72 -26 -32 -12 -48 0
10 59 1 62 11 24 53 16 45 78 44 76 83 13 22 77 4 6 7 57 9 36 30 5 29 71 27 80 28 19 18 66 51 58 23 38 52 -50 -75 -25 -33 -20 -2 -79 -40 -32 -54 -64 -39 -65 -12 -46 -37 -74 -60 -56 -3 -35 -82 -68 -69 0
62 18 23 74 27 40 43 30 7 36 81 14 67 82 10 16 3 53 35 50 79 52 29 48 37 75 57 -26 -59 -70 -41 -55 -72 -28 -17 -68 -46 -34 -19 -69 -56 -65 -54 -49 -73 -78 -44 -12 0
66 26 39 19 75 65 22 38 63 62 32 33 4 56 5 83 80 7 1 8 53 46 67 71 16 57 29 70 51 -12 -47 -28 -76 -74 -17 -72 -42 -69 -36 -3 -41 -2 -54 -10 -14 -18 -73 -40 -43 -24 -6 -35 -52 -13 -21 -20 -31 -37 -82 -78 -68 -30 -64 0
52 0
57 49 -72 -34 -22 -36 -3 0
46 79 78 11 69 60 77 54 24 68 58 72 73 62 52 43 8 75 56 12 -5 -21 -74 -14 -81 -63 -82 -25 -23 -41 -47 -49 -33 -38 -83 -18 -32 0
60 77 83 33 78 3 67 15 36 70 24 7 66 46 12 22 64 76 13 19 2 81 82 -42 -72 -5 -47 -17 -20 -40 -52 -51 -54 -10 -39 -21 -48 -14 -57 -34 -49 -28 -45 -43 -32 -44 -8 -27 -11 0
81 6 21 37 71 65 60 66 19 83 13 39 4 29 10 36 78 73 62 69 76 56 15 2 68 44 47 59 52 34 55 48 79 72 -17 -26 -18 -74 -24 -20 -64 -53 -75 -23 -54 -27 -35 -63 -43 -70 -46 -61 -7 -67 -77 -40 -82 -8 -25 -3 -41 -51 -58 -50 -33 -5 -28 -42 -31 -11 -38 -1 -22 -45 0
60 45 9 10 64 12 6 35 65 70 44 61 38 46 53 74 43 40 63 80 36 37 -75 -11 -58 -54 -69 -24 -41 -56 -82 -14 -83 -73 -67 -5 -3 -16 -77 -71 -68 -62 0
3 23 60 72 24 79 13 26 12 8 -11 -16 -51 -1 -38 -50 -58 -6 -48 0
26 13 1 76 71 74 69 67 40 3 7 44 12 48 82 28 36 27 77 64 63 4 57 35 33 80 55 16 72 79 24 70 20 65 10 14 42 29 8 23 22 56 59 6 45 49 47 81 -83 -19 -54 -62 -73 -2 -75 -41 -39 -78 -38 -30 -18 -66 -34 -68 -25 -53 -58 -32 -43 -52 -50 -15 -5 -46 -21 -31 -51 -9 -11 -37 -17 0
12 49 54 53 58 31 50 42 76 24 68 40 11 14 2 15 9 33 59 16 25 81 83 65 39 71 74 67 69 72 19 23 30 38 -36 -62 -79 -3 -5 -1 -22 -73 -52 -21 -45 -55 -61 -70 -46 -10 -26 -20 -80 -60 -44 -43 -66 -64 -32 -27 -41 -6 -56 -13 0
62 1 9 13 11 49 23 50 34 6 73 21 61 58 27 78 68 28 3 14 52 40 -60 -4 -16 -32 -74 -82 -51 -41 -22 -33 -19 -31 -24 -81 -57 -36 -83 -15 -76 -29 0
57 13 61 22 20 29 74 64 -1 -31 -46 -35 -40 -9 -49 -37 0
44 40 31 74 72 8 46 76 11 6 77 3 83 26 28 65 13 45 82 60 20 67 -35 -64 -41 -9 -37 -49 -71 -61 -73 -63 -5 -14 -1 -21 -24 -69 -29 -79 -78 -51 -23 -34 -62 -47 -25 -75 -33 -36 -32 -17 -53 -19 -7 -15 0
59 58 49 23 32 53 50 20 73 10 66 16 17 41 18 30 65 37 40 14 26 2 27 64 36 -48 -9 -76 -38 -35 -22 -47 -13 -70 -60 -44 -8 -51 -39 -75 -43 -57 -52 -19 0
51 12 -14 -47 -52 -81 -39 0
56 16 31 61 14 44 73 77 60 6 49 75 45 72 59 24 20 25 11 -83 -81 -4 -29 -47 -7 -36 -50 -26 -41 -69 -62 -19 -48 -71 -30 -28 -82 -1 -33 0
17 23 59 25 22 11 70 82 53 72 31 10 36 42 6 65 81 45 3 8 35 -50 -73 -52 -47 -21 -76 -14 -43 -20 -51 -37 -69 -26 -7 -64 -55 -40 -41 -60 0
58 66 52 60 37 13 56 38 -24 -10 -5 -18 -61 -35 -72 0
57 82 17 56 60 42 1 51 40 72 13 8 83 7 66 30 12 15 47 2 61 78 6 26 59 80 67 -53 -39 -23 -32 -31 -73 -21 -36 -79 -70 -62 -64 -46 -4 -55 -33 -28 -35 -75 -5 -49 -68 -65 -18 -11 -34 -3 -71 -41 -43 -25 -37 -58 -63 -54 -22 0
63 71 57 40 31 67 50 54 20 62 2 24 37 44 39 32 78 76 29 59 65 27 26 46 10 42 77 80 53 36 9 6 74 83 17 52 8 35 -73 -25 -82 -43 -49 -60 -56 -45 -4 -48 -51 -18 -55 -34 -66 -22 -19 -21 -5 -81 -38 -69 -72 -68 0
14 58 49 21 16 44 17 40 1 80 20 75 -65 -70 -64 -22 -72 -46 -5 -41 -52 -7 -47 -45 -25 -82 -54 0
65 63 60 41 36 51 52 1 45 54 32 33 21 42 56 82 74 44 38 37 5 73 83 40 7 -29 -61 -68 -78 -28 -57 -24 -17 -80 -14 -59 -64 -55 -22 -3 -9 -31 -19 -8 0
18 22 40 66 75 58 43 52 7 57 28 80 4 11 36 82 34 39 76 64 45 65 33 51 3 70 20 26 35 68 21 54 30 10 62 25 59 6 -78 -79 -41 -1 -19 -27 -42 -72 -53 -61 -50 -55 -47 -77 -23 -63 -74 -56 -69 -2 -46 -15 -5 -71 -48 -67 -31 -38 -14 -81 -17 -73 -44 -32 -24 0
34 4 15 73 57 46 7 28 23 -79 -29 -75 -82 -36 -54 -78 -12 -17 -53 0
52 9 73 36 23 1 34 82 -28 -65 -48 0
18 20 33 74 80 55 56 17 45 70 9 52 39 24 -26 -49 -5 -1 -67 -6 -47 -77 -51 -82 -4 -28 -72 -32 -29 0
38 5 55 -37 -58 -83 0
18 41 59 15 4 74 56 36 78 -71 -26 -23 -14 -68 -64 -67 -22 -54 -52 -37 -29 -9 -65 0
34 14 35 32 30 68 59 11 71 53 31 43 80 58 82 20 62 25 75 67 18 21 10 60 1 57 4 74 70 46 66 69 81 65 9 50 -39 -37 -12 -77 -15 -16 -42 -29 -36 -24 -63 -48 -41 -73 -5 -33 -28 -49 -19 -8 -79 -56 -83 -26 -17 -78 -23 -51 -2 -13 -64 -22 -76 -3 -45 -72 0
27 17 16 10 2 30 37 68 40 57 75 55 62 4 51 -12 -46 -60 -45 -13 -39 -54 -34 -32 0
47 5 79 59 2 21 8 22 50 42 7 9 4 20 41 55 28 19 62 43 61 -39 -34 -72 -53 -31 -65 -44 -6 -52 -71 -82 -35 -75 -64 -49 -16 -66 -70 -1 -38 -36 0
64 49 78 79 43 41 10 45 33 30 58 5 82 81 12 48 9 7 61 26 38 14 66 40 4 28 3 83 70 73 23 37 29 24 13 47 76 77 42 17 65 21 46 80 27 56 6 51 72 19 -69 -59 -67 -16 -63 -15 -53 -8 -32 -52 -55 -44 -20 -11 -62 -57 -18 -68 -36 -1 -34 -75 -60 -74 -35 -31 -71 -54 0
75 51 2 20 64 19 40 22 66 73 62 49 11 28 72 50 41 6 57 16 58 26 43 10 77 -5 -76 -83 -59 -52 -15 -14 -54 -21 -9 -29 -35 -80 -55 -24 -39 -18 -71 -12 -56 -23 -33 -36 -67 -61 -7 -38 -70 -69 -32 -31 -42 0
15 50 25 45 11 30 37 58 23 1 74 54 34 43 80 -64 -78 -63 -32 -67 -39 -48 -41 -3 -38 -81 -62 -51 0
78 56 76 12 66 61 16 68 19 33 43 48 32 3 45 64 7 18 4 25 31 38 62 -28 -58 -59 -67 -36 -55 -50 -17 -69 -73 -20 -53 -63 -14 -71 -60 -72 -79 -54 -74 -80 -75 -5 -23 -70 -8 -47 -15 -13 -49 -27 -35 -83 -1 -21 -44 0
10 59 12 77 76 33 31 47 34 41 55 1 19 9 32 7 -61 -40 -80 -79 -71 -42 -81 -21 -5 -23 -46 -52 -82 -70 -3 -72 -26 -45 -30 0
64 1 57 68 40 25 34 50 2 11 48 65 44 74 76 33 20 22 59 56 62 8 30 13 63 81 83 71 35 16 24 27 39 58 37 -28 -66 -47 -21 -4 -12 -77 -61 -79 -32 -7 -41 -52 -78 -82 -5 -55 -75 -43 -53 -14 -73 -38 -29 -60 -49 -23 -17 -10 -80 -26 -51 -54 -3 -18 -15 -19 -36 -70 -67 -69 -9 -72 -42 -6 -46 0
4 14 25 51 27 57 81 16 28 49 23 26 39 24 21 55 12 77 63 53 60 32 61 20 65 67 72 18 1 -3 -34 -74 -59 -82 -38 -76 -56 -42 -29 -13 -62 -43 -35 -83 -36 0
78 55 58 19 9 75 22 16 37 68 7 50 15 33 49 21 30 -44 -62 -83 -48 -31 -20 -6 -47 -57 -11 -70 -25 -64 -29 -10 0
47 13 1 79 11 18 70 71 54 45 64 76 57 17 41 16 4 24 58 66 42 2 65 53 61 19 69 44 50 68 33 63 48 51 75 32 40 77 14 -3 -21 -74 -35 -29 -36 -56 -10 -25 -83 -27 -12 -49 -80 -31 -30 -9 -81 -72 -26 -15 -22 -38 -78 -28 -39 -20 -37 -7 -5 -59 -23 -6 -60 -34 -46 -62 -55 -67 -82 -43 -73 0
53 32 59 23 13 22 77 73 67 55 81 -47 -29 -31 -21 -36 0
5 48 32 75 73 25 33 16 65 15 18 70 20 12 60 34 56 53 72 17 6 44 22 61 29 64 38 -57 -71 -80 -14 -41 -67 -35 -24 -23 -83 -26 -49 -31 -28 -21 -50 -52 -3 -51 -55 -54 -7 -69 0
12 21 7 28 57 18 54 74 3 19 66 70 15 50 38 9 16 24 40 4 22 77 17 58 14 43 41 48 26 63 35 64 45 11 56 33 -42 -73 -29 -51 -69 -82 -67 -59 -62 -72 -25 -8 -6 -1 -13 -34 -52 -37 -80 -10 -47 -2 -81 -78 -79 -36 -32 -46 -31 -60 -68 -65 -39 -75 -30 -61 -53 -20 -76 -71 -27 0
7 17 36 73 68 66 39 67 61 58 35 37 29 79 51 -69 -28 -43 -56 -12 -41 -49 -65 -50 -18 -71 -77 0
52 81 78 18 21 13 22 14 59 71 37 -72 -42 -1 -39 -4 -25 -56 -51 -63 -38 -46 -68 -48 -10 -55 -16 -70 -32 -50 -30 -40 -49 -57 -41 -77 -33 -62 -73 -3 0
81 13 7 5 21 28 83 68 43 6 75 11 55 45 78 20 34 77 23 -38 -49 -30 -47 -3 -61 -36 -69 -40 -27 -15 -76 -12 -37 -52 -62 0
81 34 71 18 19 -69 -35 -43 -31 -65 -3 -45 0
80 26 22 3 44 75 17 16 34 47 67 73 -5 -11 -51 -42 -62 -19 -63 -59 -68 -61 -32 -57 0
22 38 67 41 64 17 42 33 70 11 50 54 53 72 29 9 26 57 2 71 28 59 43 80 51 61 46 77 35 56 44 82 -49 -12 -78 -23 -74 -19 -60 -81 -45 -39 -47 -83 -32 -10 -58 -5 -14 -30 -34 -68 -55 -65 -20 -1 -79 -27 -69 -52 -66 0
40 20 9 29 12 70 32 48 58 18 52 67 46 15 43 24 22 34 49 41 74 33 7 75 65 31 3 17 76 66 71 78 -79 -16 -25 -35 -39 -54 -57 -45 -50 -10 -1 -72 -77 -64 -28 -62 -11 -47 -61 -73 -53 -42 -81 -6 -14 -37 -69 0
65 23 7 59 11 67 60 52 1 6 8 42 14 64 41 62 19 48 80 25 13 18 28 -70 -74 -46 -2 -35 -55 -33 -27 -83 -82 -10 -73 -43 -16 0
62 40 32 77 71 74 61 66 16 57 6 41 2 78 18 60 7 65 25 1 64 50 70 51 5 47 68 10 53 24 29 27 9 22 55 -59 -43 -42 -67 -15 -63 -83 -73 -4 -46 -36 -26 -58 -31 -79 -34 -35 -44 -82 -48 -21 -80 -30 -56 -8 0
20 5 12 60 76 38 72 67 58 16 15 24 66 21 81 23 40 10 30 56 46 37 22 51 52 75 74 64 14 55 57 78 32 35 9 61 33 -65 -19 -26 -25 -2 -39 -63 -44 -47 -68 -18 -3 -79 -13 -59 -77 -27 -62 -49 -36 -69 -71 -11 -1 -31 0
83 38 57 35 58 22 41 15 25 70 52 74 49 54 -3 -79 -4 -42 -71 -1 -53 -30 -81 -19 -12 -26 -43 -67 -34 -6 -65 -20 -32 -50 -77 0
71 55 79 64 -62 -3 0
11 63 76 68 5 37 70 58 72 4 24 47 21 16 39 12 30 43 15 22 82 46 6 14 9 13 32 65 56 83 81 25 73 17 3 35 52 -40 -75 -55 -64 -41 -2 -7 -71 -1 -51 -42 -50 -29 -61 -38 -69 -77 -80 -48 -10 -59 -20 -79 -62 -45 -19 -23 -44 -33 -36 -66 -18 -67 -74 -78 -34 -60 -57 -26 -49 -27 0
23 25 30 24 5 46 47 65 51 62 77 35 15 28 44 80 39 38 -70 -8 -27 -13 -63 -48 -12 -54 -71 -57 -58 -32 -74 -66 -42 -67 0
76 53 8 -81 -54 0
65 28 3 52 38 18 83 23 45 12 35 82 34 64 56 63 20 66 69 41 26 -22 -46 -62 -72 -76 -37 -17 -7 -81 -11 -21 -8 -70 -42 -74 -67 -13 -2 -36 -80 -55 -44 -75 -78 -1 0
34 9 57 2 44 6 59 61 74 52 27 50 23 48 54 80 55 31 56 62 19 58 3 17 26 51 21 38 20 41 79 -25 -49 -68 -83 -8 -70 -73 -60 -46 -37 -13 -22 -35 -16 -14 -82 -53 -15 -69 -75 -63 -30 -7 -67 -71 -45 -72 0
8 -1 -63 -77 -31 -44 0
2 6 19 43 29 52 33 82 65 59 71 30 24 79 14 31 25 70 34 35 9 67 18 58 27 21 -51 -5 -28 -63 -4 -17 -42 -64 -69 -48 -7 -46 -47 -57 -55 -49 -38 -72 -10 -8 -22 -40 -16 -13 -12 -83 -66 0
68 69 70 33 47 26 65 64 43 66 51 58 18 46 60 -75 -9 -14 -34 -80 -12 -22 -32 -3 -56 -67 -13 -21 -71 -41 -20 -76 0
37 54 62 63 82 7 52 -5 -61 -74 -70 -46 -12 -40 -55 -19 -65 0
13 41 79 3 48 4 39 69 10 68 76 58 27 83 59 40 14 6 1 56 78 43 35 67 82 50 61 51 22 12 34 20 60 66 70 81 45 9 -75 -54 -55 -44 -23 -38 -65 -72 -17 -16 -62 -53 -31 -21 -57 -28 -8 -24 -25 -19 -64 -49 -36 -2 -5 -32 -80 -18 -52 -37 -77 -29 -11 -7 -26 -42 -15 -47 -71 0
1 80 65 49 15 44 74 37 82 51 66 19 75 79 59 71 23 4 -42 -17 -60 -52 -21 -39 -57 -13 -12 -53 -55 -81 -56 -67 -48 -43 -5 -76 -31 -64 -27 -47 -7 0
22 63 67 54 72 81 31 39 36 12 76 78 82 29 79 44 32 40 37 65 10 6 17 21 35 55 70 -9 -64 -83 -77 -60 -52 -75 -53 -57 -34 -16 -43 -33 -51 -23 -49 -24 -69 -73 -19 -74 -20 -46 -14 -41 -42 -8 -30 -3 -48 -38 -11 -58 -4 -66 -62 -18 -7 0
61 43 83 65 75 33 8 -24 -19 -73 -2 -74 -5 -62 -81 -53 -10 -38 -77 -1 -41 -21 -7 -72 -12 -80 0
49 40 9 35 70 3 28 -5 -82 -50 -83 -10 -58 -23 -17 -67 -33 -29 -18 -59 0
3 13 44 69 16 68 74 66 1 11 55 83 45 8 36 17 79 65 61 5 82 35 51 75 58 2 67 72 71 28 34 49 54 15 24 38 48 -27 -50 -22 -10 -52 -43 -77 -80 -63 -57 -70 -53 -37 -18 -21 -47 -19 -60 -4 -40 -30 -7 -73 -6 -59 -25 -78 -42 -20 -9 -23 -26 -32 -39 -29 -76 -46 -31 0
7 16 12 24 50 -57 -30 -55 -76 -10 -41 -9 -29 -6 -46 0
9 33 31 74 56 7 30 20 35 48 81 13 69 5 76 43 37 16 65 63 29 23 79 -46 -8 -50 -53 -49 -11 -68 -51 -44 -24 -67 -17 -42 -83 -73 -64 0
35 31 46 66 11 29 61 51 48 25 62 14 72 16 56 64 5 81 47 33 18 55 30 34 22 23 15 -82 -19 -36 -49 -76 -52 -27 -58 -17 -39 -74 -12 -3 -77 -79 -59 -37 -42 -78 -80 -60 -75 -4 -71 -38 -28 -67 -43 0
28 72 39 26 37 10 -11 -20 -12 -56 -34 -40 -62 0
50 77 23 82 76 52 51 2 27 18 29 53 47 7 22 56 71 15 39 37 34 57 65 1 4 19 43 68 67 55 59 10 9 -8 -54 -5 -25 -75 -21 -66 -16 -49 -24 -26 -31 -13 -33 -38 -78 -32 -3 -14 -46 -81 0
24 74 32 23 9 11 47 77 50 56 52 49 2 58 67 71 17 42 70 28 81 44 4 34 40 20 59 -39 -14 -13 -41 -60 -69 -38 -25 -43 -64 -10 -63 -83 -8 -5 -30 -78 -31 -27 -22 -7 -55 -62 -3 -36 -15 -19 -80 0
69 63 49 -77 -72 -35 -17 0
63 81 64 2 3 65 4 7 58 50 13 31 11 -27 -44 -33 -34 -9 -79 -28 -29 -47 -71 -8 -46 -56 0
57 18 43 61 19 71 80 41 42 63 59 17 79 15 60 83 78 49 -51 -39 -31 -82 -5 -2 -52 -22 -16 -13 -68 -1 -10 -36 -70 -62 -76 -8 -72 -35 -24 0
20 36 34 77 46 71 39 22 11 51 9 28 43 6 44 13 27 4 7 12 82 65 -69 -57 -59 -30 -38 -83 -50 -79 -33 -72 -52 -49 -45 -25 -3 -32 -42 0
35 26 43 20 37 66 71 18 51 3 36 16 65 57 15 33 22 47 63 39 75 70 5 7 12 73 25 32 79 61 69 17 81 23 54 34 82 62 -80 -64 -77 -44 -58 -67 -30 -14 -31 -9 -46 -59 -6 -38 -24 -48 -74 -21 -56 -68 -4 -13 -50 -41 -60 -49 -2 -28 -19 -1 -40 -42 -76 -83 -27 0
54 39 34 31 29 62 -78 -37 -58 -45 0
65 82 67 49 27 -17 -46 -9 -8 -43 -73 -10 -47 -55 -23 -15 -2 -19 -48 0
36 42 82 13 48 83 37 53 -76 -70 -49 -39 -52 -47 -20 -17 -2 -22 -12 -55 -14 0
29 13 40 82 80 4 33 59 6 70 23 42 63 19 10 25 37 57 11 5 60 21 68 43 51 45 56 27 17 12 7 2 67 50 14 55 44 -52 -30 -53 -66 -64 -20 -16 -3 -15 -35 -9 -48 -34 -83 -22 -73 -18 -24 -49 -41 -78 -75 -36 -81 -26 -32 -8 -65 -31 -74 -72 -79 0
29 35 32 4 -75 -83 0
59 49 32 63 12 67 41 31 7 57 69 55 29 13 71 52 43 -77 -48 -16 -35 -66 -26 -44 -25 -5 -14 -76 -83 -50 -19 0
58 59 43 80 57 60 70 -47 -75 -8 -56 -25 0
76 71 39 79 14 6 37 38 12 41 43 58 53 49 11 25 59 52 4 19 54 1 36 42 70 5 15 61 17 60 7 -23 -77 -10 -65 -32 -73 -75 -26 -55 -13 -33 -68 -82 -62 -22 -47 -63 -8 -24 -28 -31 -72 -83 -29 -81 -50 -66 -45 -2 -44 0
65 2 26 21 79 40 60 15 36 43 27 46 59 38 4 51 8 52 30 54 28 6 49 19 -12 -16 -57 -83 -7 -72 -3 -47 -55 -9 -23 -41 -33 -39 -82 -71 -77 -14 -74 -31 -44 -76 -78 0
44 6 28 63 65 51 32 53 19 83 59 75 80 67 -52 -16 -36 -24 -9 -11 -18 -81 -47 -31 -20 -78 -35 -49 0
38 83 33 14 57 18 45 47 81 8 29 30 52 66 82 71 72 17 73 61 31 64 68 -51 -2 -37 -50 -43 -77 -19 -1 -46 -54 -56 -21 -62 -15 -5 -48 -16 -70 -27 -55 -32 -11 -35 -6 -36 -41 -53 -3 -12 0
24 44 26 20 72 -29 -25 -75 -41 0
15 35 12 74 41 36 73 60 78 29 57 59 2 7 76 56 13 23 -1 -68 -61 -64 -46 -55 -18 -28 -37 -6 -65 -54 -26 -53 -17 -31 -30 -75 -66 -34 -50 -51 -43 -11 -45 0
47 75 36 19 50 43 11 64 74 70 78 26 7 9 83 71 40 37 39 5 -67 -65 -6 -38 -34 -58 -13 -52 -3 -16 -31 -30 -66 -33 -46 -17 -20 0
2 10 56 51 64 6 16 69 75 25 31 13 22 28 66 63 41 67 5 48 33 52 30 11 34 50 61 60 12 46 -14 -23 -36 -29 -74 -71 -73 -43 -17 -76 -44 -8 -38 -37 -68 -47 -77 -79 -53 -62 -7 -21 -3 -4 -57 -27 -40 -39 -42 -78 -19 -59 -72 -70 -80 -55 -82 -45 -26 0
5 36 57 52 67 26 10 15 16 11 49 7 18 33 76 13 63 19 20 64 54 -8 -51 -69 -41 -3 -17 -29 -1 -2 -81 -83 -56 -62 0
12 20 4 47 33 46 8 73 68 15 79 62 64 63 42 24 41 21 61 67 81 44 34 32 17 82 51 1 13 14 30 22 40 38 55 45 70 74 18 66 -71 -7 -58 -69 -31 -2 -53 -76 -29 -80 -10 -48 -11 -26 -6 -39 -49 -19 -60 -37 -9 -83 -43 -57 -35 -77 -28 -50 -16 -54 -25 -78 0
36 76 63 30 3 66 4 39 73 29 48 9 52 23 24 45 -44 -34 -71 -79 -31 -41 -74 -53 -78 -62 -82 -19 -35 -18 -67 -50 -40 -55 -83 -8 -59 -25 -27 0
31 30 58 76 78 55 46 33 8 64 9 48 70 22 -37 -61 -42 -2 -47 -4 -66 -75 -53 -59 0
13 24 48 34 20 12 49 75 82 27 37 3 76 45 32 79 57 42 6 4 63 77 17 36 72 51 60 30 81 66 40 15 83 44 31 53 68 41 38 25 -33 -67 -14 -35 -59 -47 -29 -64 -46 -80 -52 -54 -28 -39 -2 -74 -5 -50 -16 -11 -55 -62 -7 -78 -70 -71 -9 -23 -19 -65 -58 -22 -1 0
6 63 68 28 55 40 32 3 50 38 26 79 22 49 76 67 17 19 47 30 -15 -66 -70 -60 -39 -33 -46 -27 -81 -56 -11 -13 -53 -20 -7 -10 -41 -59 -72 -23 -45 -2 -35 -71 0
42 -44 -48 -31 0
37 22 66 4 68 30 10 23 63 14 32 29 8 52 43 21 19 51 44 55 57 18 16 48 9 39 26 40 31 59 69 24 12 15 36 49 45 74 25 62 34 7 5 82 56 67 11 47 -60 -64 -35 -42 -53 -77 -41 -58 -83 -70 -17 -80 -13 -76 -20 -73 -75 -28 -3 -27 -33 -46 -2 -81 -72 -65 -6 -1 -78 -79 -54 -38 -71 0
28 23 2 6 64 38 -29 -70 -51 -49 -63 -25 -16 -14 0
13 23 58 21 79 57 14 55 51 40 65 47 4 29 36 52 50 67 44 1 5 48 26 30 6 68 11 -70 -22 -18 -78 -46 -35 -59 -69 -31 -12 -2 -16 -63 -66 -80 -45 -8 -61 -15 -49 -3 -72 -82 -60 -62 -64 -77 -76 -42 -38 -71 -74 -34 -83 -19 -28 -54 -37 -56 -73 -9 -81 -27 0
23 66 26 1 2 35 69 12 40 16 31 6 39 10 25 37 49 73 8 82 24 53 30 57 65 60 27 51 -81 -48 -50 -64 -67 -52 -28 -77 -79 -14 -83 -22 -43 -19 -4 -62 -9 -3 -32 -38 -17 -54 -47 -36 -34 -71 -7 -44 -18 -63 0
76 80 17 15 70 24 -34 -25 -69 -29 -22 -27 -46 -23 -40 -50 -8 -51 -21 -12 -30 -59 -68 -1 0
23 14 64 77 10 15 42 65 43 45 71 41 33 59 73 56 31 6 12 7 44 78 19 18 29 16 -27 -39 -34 -51 -69 -58 -25 -75 -9 -17 0
50 25 74 55 54 52 37 35 56 38 13 36 67 30 78 51 14 47 2 6 7 31 18 -53 -59 -72 -5 -42 -3 -82 -75 -69 -41 -76 -44 -19 -71 -28 -43 -49 -11 -48 -1 -66 -40 -27 -65 -20 -58 -21 -12 -23 0
41 20 34 29 66 9 13 44 56 76 25 51 48 52 65 5 1 17 54 32 55 11 3 33 27 30 63 -12 -79 -73 -10 -42 -60 -8 -72 -62 -2 -21 -82 -57 -4 -80 -67 -49 -59 -26 -68 -81 -24 -7 0
16 48 69 44 79 57 52 36 71 35 59 45 21 37 10 15 54 33 41 64 67 40 1 3 29 34 19 74 22 20 6 53 73 82 39 23 56 58 12 43 -76 -38 -2 -28 -25 -51 -80 -42 -31 -46 -4 -11 -83 -70 -65 -66 -78 -8 -55 -30 -47 -14 -32 -61 -26 -27 -60 -63 -17 -81 -9 -5 -75 -7 -77 -24 0
35 40 59 23 26 27 7 57 1 37 36 63 79 48 74 22 82 42 33 11 71 14 5 55 70 49 9 73 -54 -45 -75 -76 -47 -50 -3 -29 -13 -81 -16 -60 -39 -30 -25 -32 -69 -17 -28 -44 -64 -31 0
17 73 63 34 15 20 72 8 48 2 45 19 55 38 46 47 69 82 7 32 41 78 13 9 65 26 16 83 39 44 62 36 14 61 35 70 68 79 81 31 29 77 -64 -12 -21 -42 -33 -51 -49 -1 -23 -67 -52 -66 -5 -27 -25 -37 -40 -10 -80 -3 -71 -43 -74 -24 -50 -58 -4 -22 -28 -53 -30 -54 -11 -76 -60 -57 0
14 48 67 66 17 69 8 1 35 30 41 55 63 71 -73 -5 -54 -12 -37 -11 -47 -77 -61 0
25 41 7 64 50 28 39 82 79 16 61 5 45 40 3 9 63 48 52 49 11 54 36 2 73 19 62 14 74 30 42 18 35 24 70 38 27 12 8 23 83 55 20 4 80 -15 -69 -32 -17 -6 -67 -59 -56 -68 -22 -1 -57 -34 -51 -33 -81 -31 -43 -53 -13 -10 -77 -46 -66 -72 -58 -37 -75 -21 -78 -76 -60 -71 -44 -65 -26 -47 0
34 61 31 9 77 30 52 65 75 35 56 57 8 63 17 80 28 71 79 22 47 69 60 66 41 62 1 23 25 67 26 83 -4 -72 -82 -3 -55 -29 -38 -6 -14 -42 -39 -44 -33 -15 -81 -5 -7 -20 -19 -18 -68 -78 -48 -37 -58 -64 -70 -45 -74 -36 -76 -27 -54 -73 -12 -16 -21 -53 -10 0
71 6 29 20 9 39 38 4 7 18 2 32 53 76 40 12 83 19 51 13 30 46 64 44 42 73 79 26 37 -58 -49 -17 -69 -77 -14 -43 -15 -8 -59 -28 -62 -65 -61 -48 -57 -36 -74 -50 -60 -66 -1 -21 -80 -27 -78 -23 -68 -54 -24 -5 -31 -41 -3 -52 -55 -63 -47 0
46 54 62 65 78 21 45 27 12 61 52 26 66 64 25 73 13 1 31 17 49 6 37 80 42 43 23 8 28 18 -75 -3 -76 -40 -11 -63 -9 -22 -71 -55 -5 -68 -39 -67 -16 -53 -58 -47 -38 -30 -36 -34 -70 -82 -83 -57 -2 -56 -14 -7 -48 -69 0
65 8 76 77 27 5 31 46 59 49 70 22 13 83 78 3 23 71 39 35 33 44 54 55 29 61 74 57 69 26 52 21 79 58 75 15 24 45 -62 -28 -72 -14 -7 -47 -64 -19 -34 -42 -60 -51 -25 -63 -1 -73 -68 -17 -56 -43 -30 -10 -20 -32 -41 -2 -16 -12 -9 -36 -67 -6 -11 -80 -82 -48 -38 -4 0
46 19 47 29 39 65 33 41 3 56 15 72 11 60 74 81 71 31 70 2 10 -80 -57 -73 -34 -61 -62 -55 -53 -4 -76 -16 -67 -38 -6 -68 0
3 13 18 31 65 61 12 78 66 46 79 75 37 32 56 7 68 43 38 59 55 -67 -20 -35 -60 -69 -1 -33 -70 -5 -8 -41 -48 -24 -4 -62 -82 -42 -51 -21 -6 -77 -73 -16 0
62 4 51 64 53 73 40 13 58 35 72 59 71 56 10 6 82 7 22 23 17 20 1 47 81 45 12 60 57 70 42 83 28 36 76 -5 -37 -55 -32 -33 -43 -74 -27 -30 -75 -21 -9 -80 -63 -41 -31 -29 -67 -78 -61 -65 -49 -16 -2 -3 -18 -48 -44 -52 -39 -50 -24 -14 -69 -34 -8 -79 -38 -66 -19 -11 0
50 9 31 54 -17 -23 -49 -44 -77 -79 -47 -19 -8 -64 0
57 43 53 82 58 66 35 69 22 60 77 27 80 36 48 63 5 4 28 59 45 29 50 51 37 2 55 32 25 49 78 42 52 11 46 67 18 41 -54 -75 -47 -16 -70 -61 -40 -17 -12 -26 -14 -74 -83 -7 -1 -9 -20 -64 -3 -68 -62 -8 -76 -33 -44 -10 -34 -13 -31 -38 -65 -21 -15 -39 -79 -24 -19 -30 0
37 42 30 27 55 50 71 43 61 23 25 66 68 72 9 67 6 49 13 7 1 20 -15 -62 -28 -39 -74 -18 -73 -82 -33 -56 -63 -34 -38 -22 -65 -79 -45 -41 -8 -12 -46 -77 -11 -31 0
50 2 53 80 39 33 14 30 78 35 49 81 45 1 15 76 21 66 11 60 27 -73 -16 -71 -63 -54 -38 -19 -10 -42 -44 -75 -31 -51 -9 -12 -82 -58 -40 -26 -68 0
42 79 66 37 18 29 3 52 11 80 14 12 45 10 51 8 57 35 83 59 -39 -76 -27 -43 -68 -15 -13 -1 -82 -31 -33 -74 -77 -22 -19 -20 -78 -36 0
57 2 4 18 14 7 75 48 60 73 72 37 27 47 42 49 59 63 45 78 12 10 8 16 76 23 21 40 38 67 31 3 9 64 -22 -51 -65 -74 -58 -11 -71 -34 -77 -44 -26 -20 -35 -70 -62 -30 -82 -32 -15 -53 -56 -54 -6 -83 0
40 10 33 80 5 61 50 6 35 41 60 9 28 32 57 72 18 58 31 12 78 36 47 49 69 45 23 83 59 74 71 -2 -68 -13 -70 -8 -30 -29 -38 -34 -37 -56 -17 -24 -52 -43 -22 -64 -79 -82 -46 -20 -25 -51 -73 -81 -3 -44 -53 -14 -65 -11 -66 -67 -27 -4 -39 -15 -76 -1 -42 0
20 55 29 45 35 37 21 16 68 50 34 56 83 71 -81 -54 -65 -79 -53 -41 -7 -51 0
71 66 42 51 55 9 59 32 26 11 52 46 17 44 56 27 20 28 24 58 30 10 33 21 50 7 18 76 68 -62 -73 -47 -2 -36 -53 -6 -31 -75 -77 -69 -1 -78 -38 -14 -64 -3 -41 -12 -57 -82 -35 -79 -29 -43 -16 -60 -4 -8 -81 -70 -15 -80 -40 -13 -37 -61 0
55 75 12 42 7 5 76 1 33 31 63 21 3 77 27 57 24 6 17 44 15 -66 -38 -40 -11 -67 -58 -49 -29 -80 -32 -37 -28 -51 -46 -73 -82 -41 -18 -30 -2 -35 -9 -61 -69 -54 -83 -10 -25 -4 -39 -23 0
38 6 3 12 19 75 7 13 29 46 66 27 69 18 76 64 65 81 -48 -37 -4 -78 -45 -15 -33 -72 -53 -23 -9 -36 -2 -68 -42 -8 -74 -51 0
80 70 30 51 54 49 13 27 74 34 73 47 6 82 67 -58 -71 -9 -19 -43 -35 -24 -48 -79 -18 -41 -77 -60 -78 -62 -66 -52 -38 -50 -40 -33 -37 0
61 48 72 10 38 52 69 6 24 47 66 81 57 80 25 40 55 37 36 62 73 34 70 27 65 21 22 63 23 51 8 56 16 44 5 31 33 53 30 29 68 -64 -7 -54 -49 -46 -71 -45 -39 -1 -19 -83 -2 -58 -15 -3 -14 -78 -76 -67 -75 -79 -35 -59 -28 -17 -42 -82 -74 0
72 51 20 61 73 30 70 33 39 -78 -23 -44 -31 -40 -77 -47 -34 -59 -65 -15 -25 -62 0
65 19 28 32 42 4 21 1 53 38 24 63 47 22 77 69 54 17 79 6 26 49 41 51 13 50 12 78 34 33 71 25 8 16 81 15 29 -11 -75 -62 -43 -5 -73 -23 -66 -83 -68 -46 -27 -59 -36 -72 -74 -67 -58 -2 -55 -57 -56 -18 -76 -60 -20 -80 -44 -9 -64 -10 -30 -82 -70 -52 -37 -45 -31 -3 -7 -39 -14 -40 0
44 23 77 7 35 30 18 61 29 76 74 55 24 15 37 59 70 -1 -39 -10 -62 -81 -19 -47 -25 -16 -78 -69 -51 -8 -17 -6 -32 -12 -72 0
58 24 65 23 61 82 13 32 63 1 83 21 64 3 72 8 49 25 45 69 50 40 78 15 73 39 18 48 33 46 60 29 9 80 35 5 4 68 7 59 12 -81 -47 -77 -43 -53 -54 -71 -56 -26 -36 -11 -20 -6 -66 -2 -57 -38 -16 -28 -17 -55 -51 -67 -42 -27 -41 -74 -62 -34 -30 -31 0
61 66 75 36 15 7 57 37 69 38 71 58 23 4 63 42 -22 -70 -8 -49 -31 -30 -55 -78 -65 -33 -24 -45 -60 -72 -77 -82 -50 -34 -76 -73 -51 -3 -41 -43 -12 -17 -83 -47 -67 -13 -2 -54 0
69 17 81 26 80 46 47 24 63 83 10 27 44 60 9 2 56 11 45 13 77 79 40 8 74 52 18 -38 -64 -78 -51 -82 -32 -35 -73 -29 -3 -39 -12 -43 -14 -42 -53 -59 -36 -25 -34 -72 -16 0
68 79 42 12 45 33 77 36 37 17 49 44 63 23 58 67 61 25 -60 -56 -13 -11 -34 -64 -15 -59 -74 -53 -72 -14 -73 -48 -35 -78 -54 0
31 36 74 43 51 62 70 8 41 81 75 18 46 16 44 15 30 68 80 33 61 25 12 35 39 14 67 27 47 34 55 32 6 42 45 82 37 58 54 38 -52 -29 -9 -24 -49 -50 -19 -72 -17 -66 -79 -11 -40 -64 -63 -23 -76 -13 -83 -57 -2 -48 -20 -28 -26 -22 -7 -5 -21 -71 -59 -73 -65 -53 -4 -69 -10 -1 0
37 32 57 19 10 3 34 24 12 29 36 14 67 72 35 70 42 18 17 69 -53 -66 -28 -38 -33 -49 -15 -80 -22 -50 -26 -79 -76 -68 -83 -9 -20 -74 -48 -11 -54 -51 -8 -7 -5 -43 -2 -55 -41 -4 -58 -77 -81 0
46 24 49 10 11 27 55 61 44 59 78 81 83 57 68 -67 -72 -28 -40 -12 -37 -69 -71 -82 -45 -26 0
31 25 47 23 28 41 20 30 72 80 75 16 17 35 64 5 66 46 38 60 26 22 3 13 63 34 40 78 79 10 58 71 39 43 -52 -73 -54 -29 -11 -56 -61 -45 -36 -44 -51 -1 -76 -33 -77 -8 -62 -74 -57 -50 -27 -59 -65 -19 -21 -81 -49 -37 -4 -53 -7 -83 -55 -9 -68 -42 -14 -32 -12 -15 -69 -82 -2 -67 0
9 37 5 59 69 15 21 68 27 28 70 72 75 7 77 17 22 3 16 56 35 41 57 33 66 32 39 25 49 43 14 2 61 64 48 10 40 73 45 -34 -51 -71 -65 -26 -79 -19 -74 -67 -11 -55 -6 -81 -8 -54 -1 -62 -82 -60 -4 -78 -80 -63 -12 -58 -38 -18 -53 -24 -36 -52 -42 -44 -20 -76 -13 -50 -23 -30 0
4 2 78 76 33 46 71 17 27 34 82 11 21 32 5 58 6 74 55 31 50 45 83 54 -73 -18 -80 -22 -61 -67 -3 -69 -59 -25 -12 -9 -56 -28 -63 -43 -65 -24 -57 -1 -8 -53 -26 -29 0
47 68 34 58 78 33 -60 -70 -20 0
11 1 82 20 4 70 52 34 5 51 53 76 57 -27 -46 -83 -48 -63 -80 -71 -9 -7 -66 0
23 30 57 82 34 9 75 65 6 12 20 28 16 10 36 4 24 33 66 58 13 64 29 74 69 71 56 80 21 50 -81 -55 -46 -60 -43 -83 -1 -32 -5 -42 -52 -54 -77 -44 -19 -76 -27 -25 -48 -7 -8 -15 -59 -47 -17 -37 -72 -22 -61 -3 -51 -38 -78 -49 -39 -2 -63 -67 -62 -35 0
56 62 44 -35 0
9 18 71 73 4 21 15 13 23 66 24 6 40 54 78 50 28 75 7 10 36 62 81 46 42 76 12 77 16 51 34 14 60 -67 -61 -38 -53 -11 -74 -80 -39 -79 -29 -17 -1 -27 -3 -59 -41 -32 -64 -33 -48 -45 -49 -5 -30 -31 -47 -2 -43 -25 -69 -22 -37 -44 0
77 19 53 36 39 4 46 57 29 69 81 10 22 40 79 -35 -70 -9 -32 -48 -17 -34 -28 -33 -15 -6 -52 -49 -11 -41 -7 0
73 25 4 74 78 14 15 -53 -72 -64 -33 -2 -19 0
69 43 46 36 77 47 72 71 30 9 14 3 26 2 51 79 35 11 81 42 1 -31 -19 -63 -52 -23 -7 -32 -61 -54 -66 -18 -68 -60 -49 -41 -57 -34 -70 -64 -38 -58 -27 -12 -13 -15 -6 0
27 30 71 25 79 76 1 65 28 45 24 18 74 8 22 36 67 40 64 4 17 59 20 56 60 63 -72 -55 -68 -6 -39 -50 -77 -16 -53 -81 -80 -73 -41 -32 -83 -35 -48 -58 -29 -66 -14 -3 -69 -61 -57 -62 -7 -37 -21 -51 -44 -11 -5 -82 -78 -23 -70 -10 -43 -47 -49 -13 -42 -12 -33 -31 0
39 12 49 63 34 81 25 64 72 -35 -54 -17 -37 -36 -15 -78 -44 -66 -28 -26 -50 -56 0
82 20 64 2 53 81 -13 -15 -32 -80 -43 -48 -75 0
32 9 3 37 2 59 40 14 16 66 45 71 34 73 20 68 41 12 57 64 26 76 33 62 -56 -35 -83 -51 -21 -23 -10 -6 -60 -31 -13 -54 -22 -15 -43 -53 -36 -55 -11 -7 -47 0
4 53 7 9 55 71 51 54 76 73 68 47 28 35 62 18 61 29 64 57 43 65 5 31 13 49 27 58 56 50 6 74 3 -83 -15 -78 -46 -21 -14 -32 -24 -52 -40 -25 -36 -22 -42 -75 -26 -72 -16 -77 -66 -80 -20 -23 -45 -79 -69 -17 -41 -39 -10 -59 -38 -30 -48 -34 0
78 31 22 -81 0
26 19 34 40 33 71 54 15 6 37 29 38 62 45 74 5 -42 -67 -76 -44 -65 -58 -28 -30 -72 -56 -21 -9 -57 -50 -23 -27 -16 -75 -77 -41 0
27 64 78 77 67 18 -15 -2 -42 -24 -83 -61 -66 -6 0
76 -73 0
52 25 14 27 60 8 53 33 38 57 42 46 45 15 5 31 75 65 13 -40 -83 -11 -37 -36 -43 -70 -2 -17 -63 -10 -76 -58 0
63 64 41 21 65 5 17 80 76 19 -43 -77 -20 -53 -58 -39 -57 -18 -61 -35 -68 -6 -27 -79 0
39 37 17 1 38 14 60 34 78 33 71 63 73 6 20 67 79 22 50 24 26 18 36 42 45 83 12 68 -10 -52 -23 -58 -15 -4 -44 -65 -61 -54 -28 -46 -9 -11 -76 -2 -51 -55 -29 -77 -72 -74 -21 -70 -53 -56 0
52 41 55 15 62 75 66 25 17 -64 -72 -12 -29 -27 -26 -81 -68 -77 -83 -24 -74 0
28 14 64 54 55 25 20 60 30 22 19 15 50 43 40 35 33 5 81 41 21 77 12 68 23 39 45 72 44 13 70 17 58 7 -18 -62 -63 -16 -79 -49 -66 -8 -65 -6 -37 -1 -46 -76 -32 -27 -73 -59 -9 -74 -67 -29 -53 -51 -4 -31 -47 0
39 -49 -47 0
7 73 48 50 69 16 67 28 15 14 18 82 47 78 2 32 -5 -13 -49 -23 -75 -30 -1 -52 -68 -6 -36 -66 -81 -31 -29 -46 -42 0
69 47 24 29 78 26 23 25 27 33 53 20 51 1 79 58 38 56 59 39 40 60 83 82 45 12 10 18 74 70 62 3 57 43 7 49 8 -80 -67 -2 -21 -35 -6 -16 -48 -54 -17 -30 -44 -34 -64 -46 -15 -31 -41 -11 -37 -77 -22 -4 -14 -55 -71 -52 -68 -19 -13 -50 -76 -42 0
69 17 6 47 41 20 80 2 33 61 35 12 34 13 53 65 52 70 63 5 44 60 58 23 7 78 37 21 1 51 10 -9 -64 -81 -66 -59 -55 -83 -39 -25 -43 -19 -57 -48 -8 -30 -11 -68 -28 -77 -79 -72 -62 -26 -67 -29 -40 -74 -76 -56 -36 -75 -82 -49 -15 -32 -27 -38 -54 -14 -4 0
36 42 82 65 77 3 58 43 5 80 26 51 62 61 12 23 54 79 21 70 73 75 7 71 -17 -69 -32 -27 -13 -37 -30 -14 -6 -20 -24 -28 -56 -66 -18 -45 -48 -59 -60 -19 -9 -64 -81 -74 -10 0
5 61 33 39 53 4 40 15 20 75 19 80 70 16 26 18 49 30 35 65 23 55 45 6 12 7 28 -17 -34 -56 -36 -27 -67 -9 -57 -31 -41 -2 -13 -8 -64 -52 -3 -51 -74 -71 -10 -42 -68 -66 -24 -32 -83 -73 -62 -63 -21 -14 -47 -44 -11 -81 -77 -69 -1 -76 0
39 22 11 53 55 48 46 58 70 35 31 17 18 79 -16 -10 -77 -25 -6 -24 -52 -41 -51 -50 0
28 18 14 61 43 16 66 21 63 24 42 30 79 53 71 77 37 -80 -23 -7 -57 -41 -78 -68 -40 -22 -5 -54 -50 -3 -29 -64 -8 0
24 6 40 17 61 45 25 72 19 23 46 66 62 36 48 54 82 83 5 39 37 33 71 56 70 58 78 51 52 80 13 63 79 55 -10 -4 -3 -21 -15 -7 -74 -41 -28 -76 -42 -18 -29 -73 -64 -44 -32 -77 -16 -20 0
57 24 54 21 -68 -56 -27 -61 -11 -34 -52 -81 -16 -49 -50 -17 -39 0
1 18 19 20 14 37 43 72 66 56 58 24 53 81 47 49 22 73 74 69 33 17 82 44 27 63 28 76 16 52 75 -46 -5 -21 -31 -10 -11 -67 -34 -15 -39 -23 -71 -51 -12 -36 -7 -54 -4 -79 -41 -65 -77 -25 0
70 4 65 33 54 63 14 41 76 77 50 40 16 11 22 34 73 28 32 52 26 46 30 1 44 83 31 55 42 66 6 17 3 29 81 69 74 13 57 53 38 80 64 -82 -58 -49 -68 -5 -25 -8 -43 -79 -45 -48 -67 -61 -7 -56 -20 -60 -12 -9 -78 -36 -59 -27 -39 -24 -15 -21 -10 -18 -72 -71 -51 -75 -35 -37 -23 -2 -19 0
15 17 6 -38 -82 -64 -5 0
12 79 2 59 74 26 72 41 50 46 67 10 45 43 55 75 63 57 49 19 -62 -15 -37 -61 -48 -60 -22 -35 -18 -71 0
38 76 6 9 74 68 -40 -56 -71 -58 -5 -78 -15 -11 -18 0
43 42 57 47 83 61 8 78 3 23 -56 -55 -15 -29 -46 -58 -76 -39 -53 -19 -60 -82 -26 0
34 63 14 37 56 52 57 51 83 12 75 81 15 29 4 50 6 39 22 44 23 3 38 7 47 33 49 20 -73 -54 -13 -11 -31 -69 -35 -30 -48 -43 -60 -21 -46 -68 -72 0
25 4 82 46 45 73 8 33 22 35 27 21 -44 -80 -12 -41 -75 -62 0
24 52 34 42 7 -39 -26 -12 0
46 67 4 17 43 54 63 35 16 61 58 1 12 20 53 15 70 41 38 74 23 -25 -69 -45 -60 -30 -8 -39 -51 -47 -52 -80 -32 -78 -42 -76 -10 -82 -62 -66 0
33 62 21 14 7 4 -50 -64 -52 -37 -65 -47 -40 -27 -75 0
65 13 74 66 83 27 68 81 70 59 22 45 57 54 18 47 50 60 10 76 14 33 53 8 6 -29 -63 -12 -19 -46 -24 -49 -37 -23 -72 -38 -64 -11 -52 -42 -4 -16 -71 -75 -48 -31 -44 -9 0
52 21 29 78 71 70 22 5 54 27 7 2 14 64 76 74 23 35 81 49 31 82 61 56 51 45 16 34 69 73 28 40 4 -41 -80 -6 -25 -10 -62 -47 -68 -55 -44 -79 -39 -63 -30 -15 -32 -42 -48 -33 -50 -59 -20 -65 -26 0
50 48 46 71 51 49 1 58 83 26 31 73 34 57 12 67 2 33 37 10 3 42 19 11 17 6 -24 -62 -76 -13 -66 -43 -4 -60 -36 -54 -59 -30 -41 -81 -20 -9 -35 -77 -22 -65 -74 -52 -47 -64 -7 -16 -21 -70 -23 -53 -28 -75 -56 -39 -72 -27 -38 -8 -61 0
11 37 35 19 65 56 66 75 33 63 45 14 1 47 78 83 41 77 34 16 80 -6 -52 -31 -76 -64 -82 -48 -25 -12 -20 -15 -38 -36 -44 -30 -39 -13 -2 -23 -5 -4 0
39 3 71 19 75 83 73 51 48 31 55 65 81 5 16 78 29 56 22 18 77 23 20 57 62 33 6 54 14 34 2 44 36 72 21 26 38 40 80 -69 -11 -9 -28 -32 -79 -67 -46 -74 -61 -76 -41 -82 -17 -37 -10 -64 -59 -63 -58 -50 -1 -49 -70 -27 -42 -30 -35 -66 -15 -53 -68 -52 -4 -60 -12 0
63 66 11 61 26 43 22 54 15 20 68 1 28 55 57 56 25 31 18 58 -24 -40 -83 -44 -47 -3 -30 -65 -48 -52 -78 -82 -34 -17 0
51 80 73 57 60 50 38 47 22 81 61 54 4 64 13 65 76 69 34 15 9 36 35 24 31 11 52 42 72 14 1 53 83 33 26 -39 -44 -30 -8 -17 -46 -10 -55 -12 -63 -32 -6 -27 -21 -40 -75 -74 -2 -25 -58 -7 -48 -18 -62 -68 -56 -29 -59 -66 -71 -45 -41 -3 -28 -19 -43 -37 -77 0
82 50 76 3 25 79 23 19 29 70 63 35 38 65 73 42 31 48 45 83 15 39 46 1 64 9 21 41 28 51 47 80 58 61 40 34 7 71 -37 -12 -62 -60 -36 -33 -69 -20 -14 -55 -16 -2 -5 -75 -68 -77 -11 -43 -67 -32 -4 -53 -81 -24 -57 -78 -22 -13 -52 -10 -26 -56 -54 -8 -49 -44 -27 -74 -59 -72 -17 -66 -18 0
30 40 48 67 38 54 10 15 55 41 73 33 65 22 32 4 49 19 21 27 60 17 68 43 -6 -72 -8 -37 -23 -47 -52 -82 -64 -74 -44 -29 -11 -7 -50 -61 -16 -62 -58 -34 -66 -56 -31 -83 -79 -71 -24 -26 0
28 33 67 23 9 63 -73 -44 -21 -49 -77 0
32 23 75 55 -62 -83 -69 -36 -66 0
32 9 19 78 59 35 34 7 61 1 -45 -33 -70 -77 -81 -68 -23 -16 -31 -71 -22 -13 0
21 2 70 4 50 18 82 14 19 77 15 23 57 60 75 73 49 9 62 67 32 7 17 71 68 55 -6 -33 -13 -76 -37 -64 -83 -65 -45 -44 -5 -11 -79 -81 -31 -42 -47 -59 -16 -26 -46 -35 -54 -1 -61 -29 -72 -30 -74 -36 -80 0
64 78 0
34 45 24 25 11 7 53 75 77 -17 -78 -67 -3 -42 -6 -51 -63 -50 -43 -47 -36 0
34 45 38 36 72 3 54 -50 -60 -35 -51 0
68 13 1 49 33 5 74 26 34 56 72 45 65 29 37 11 54 62 42 30 61 70 10 18 16 52 40 38 8 21 48 9 59 3 51 80 58 12 6 -73 -27 -14 -7 -50 -24 -46 -66 -15 -63 -76 -4 -79 -22 -20 -41 -43 -17 -75 -60 -57 -44 -2 -25 -82 -36 -31 -32 -28 -23 -77 -71 -81 0
82 63 38 1 70 40 20 56 26 29 66 7 80 45 35 73 3 42 19 10 54 2 79 77 47 81 36 59 61 53 15 72 -50 -48 -60 -14 -41 -44 -34 -5 -55 -23 -68 -52 -32 -43 -37 -74 -46 -22 -57 -49 -67 -78 -71 -13 0
20 51 79 63 -38 -66 -65 0
1 52 10 55 40 24 3 11 26 65 27 62 30 72 22 47 6 76 19 4 9 54 73 66 58 74 42 45 71 80 43 61 41 38 -56 -14 -48 -31 -79 -32 -17 -60 -16 -21 -36 -28 -5 -2 -63 -8 -81 -25 -20 -77 -23 -67 -83 -12 -33 -34 -29 -69 -44 -18 -39 -46 -78 -64 -35 -13 -7 -70 -49 -68 -53 -37 -50 -82 -51 -75 0
33 37 29 5 50 14 35 70 79 67 47 72 2 62 25 54 73 65 82 53 26 -36 -58 -24 -3 -41 -46 -48 -80 -23 -42 -83 -38 -45 -56 -28 -39 -10 -9 -40 -60 -30 -21 -52 -75 0
15 40 1 48 35 14 71 76 39 50 41 3 9 70 31 32 18 24 55 64 10 61 7 23 27 17 58 6 36 46 77 34 -30 -79 -83 -74 -19 -69 -25 -52 -73 -63 -12 -44 -62 -78 -29 -47 -37 -28 -72 -4 -42 0
33 8 55 30 79 6 82 3 45 43 34 80 60 25 77 36 21 57 54 10 28 46 31 74 69 71 68 -59 -67 -39 -41 -53 -13 -63 -66 -75 -58 -23 -24 -26 -38 -83 -5 -70 -76 -17 -7 -29 -51 -72 0
34 68 32 19 74 13 71 59 28 79 50 30 54 48 41 1 26 78 35 83 7 38 52 42 69 10 60 -82 -5 -4 -58 -67 -55 -51 -9 -49 -77 -15 -20 -53 -11 -24 -37 -61 -64 -14 -16 -73 -17 -39 -12 -33 -3 -72 -56 0
49 31 33 60 26 7 16 54 50 1 29 20 81 52 4 75 -53 -80 -76 -11 -82 -39 -56 -48 -79 -74 -44 -2 0
75 -44 -21 -31 0
65 13 69 72 58 47 49 76 55 32 67 37 33 39 40 28 59 22 51 5 60 52 10 75 34 18 82 16 79 74 54 73 25 27 42 43 7 9 81 -46 -62 -57 -38 -56 -12 -3 -71 -30 -78 -63 -41 -31 -2 -61 -8 -23 -70 -20 -29 -77 -53 -35 -11 -17 -80 -15 -6 -44 -14 -45 -24 -48 -68 -19 -50 -64 -4 0
48 12 6 81 37 45 59 2 22 24 76 63 29 39 38 25 31 -57 -54 -80 -58 -83 -77 -34 -79 -35 -53 -61 -44 0
16 1 60 75 2 66 59 57 25 64 14 7 26 10 74 13 36 28 27 72 35 50 20 58 -55 -11 -79 -30 -42 -61 -77 -8 -3 -23 -12 -83 -34 -9 -51 -43 -4 -53 -68 -52 0
2 43 3 74 49 81 4 37 14 32 20 31 8 50 5 22 58 34 11 62 56 45 10 78 77 75 65 72 63 59 67 19 80 17 60 1 68 -73 -13 -47 -18 -38 -41 -42 -30 -6 -36 -82 -52 -23 -51 -15 -24 -54 -29 -83 -28 -69 -21 -53 -48 -55 -44 -39 -70 -9 -27 -25 -7 -79 -64 -26 -66 -33 -57 -71 -40 -16 -12 -61 -35 -46 0
45 58 82 11 44 49 77 16 20 9 10 67 55 37 2 61 68 25 14 -80 -50 -33 -47 -29 -19 -6 -70 -59 -24 -21 -23 -31 -22 -66 -43 -13 0
6 16 83 75 77 29 9 60 39 49 21 2 82 55 24 69 -20 -61 -73 -17 -62 -28 -4 -80 -32 -19 -57 -11 -76 0
52 65 2 28 32 16 44 79 64 30 5 19 8 43 27 26 70 72 17 60 29 63 10 50 31 15 62 67 53 58 36 82 56 6 46 75 38 -42 -4 -55 -47 -35 -21 -39 -48 -76 -11 -41 -18 -57 -3 -7 -66 -49 -83 -20 -59 -45 -71 -69 -78 -37 -25 -40 -14 -24 -23 -51 -34 -68 -1 -13 -80 -61 -33 -81 -73 -54 -74 0
34 82 69 8 6 12 62 80 81 9 2 45 38 39 56 43 31 35 15 21 11 72 29 17 44 27 50 77 55 47 3 42 1 60 83 37 76 40 58 59 20 41 79 52 57 78 32 36 49 -68 -28 -24 -7 -46 -23 -54 -10 -63 -19 -51 -61 -30 -22 -4 -33 -65 -18 -5 -53 -25 -13 -74 -71 -48 -64 -16 -26 -75 -66 0
29 5 -24 -37 0
58 66 61 12 3 34 65 31 5 70 17 35 59 45 74 11 53 51 39 15 33 -52 -54 -14 -43 -83 -79 -55 -21 -24 -64 -76 -50 -44 -32 -10 -7 -27 -71 -29 -19 -9 -28 -38 -18 -26 -81 -67 -57 0
68 6 64 21 44 31 22 58 82 81 49 52 30 37 10 80 69 20 40 17 71 60 16 43 41 50 63 65 78 15 34 14 -45 -25 -36 -19 -7 -29 -18 -73 -62 -77 -42 -46 -57 -3 -61 -33 -76 -53 -47 -2 -24 -4 -79 -8 -72 -70 -75 -51 -56 0
25 79 20 59 30 77 56 53 50 24 70 34 19 4 43 73 66 78 60 15 11 -16 -75 -80 -63 -9 -27 -26 -23 -14 -72 -83 -21 -49 -74 -10 -67 -32 -17 -76 -39 -18 -61 -64 0
57 6 52 42 21 3 67 34 14 63 2 59 17 -4 -16 -73 -27 -31 -50 -36 0
72 51 35 33 45 52 12 58 26 14 77 -38 -46 -4 -13 -30 -70 -21 -83 -57 -27 -48 0
44 29 65 71 45 22 31 6 57 13 41 81 47 64 52 78 20 33 -3 -70 -62 -46 -4 -28 -53 -61 -55 -35 -63 -72 -19 -12 -51 -34 -25 -68 -69 -48 -37 0
52 43 19 31 37 8 18 63 23 65 76 42 3 53 36 81 79 77 54 28 17 -60 -41 -73 -49 -80 -35 -40 -26 -47 -15 0
73 82 50 59 36 62 43 21 33 66 70 63 46 13 56 25 14 7 74 18 39 57 65 28 32 51 10 15 9 79 41 49 19 35 80 5 -48 -17 -71 -42 -27 -77 -47 -72 -78 -55 -64 -34 -38 -40 -20 -11 -8 -16 -37 -4 -83 -53 -54 -24 -6 -26 -31 -3 -58 -75 -69 -1 -2 -60 -44 -81 -30 -45 0
70 36 75 23 59 81 69 65 56 62 74 44 64 22 21 77 71 78 83 55 47 51 -25 -50 -27 -49 -12 -33 -38 -45 -67 -42 -48 -13 -34 -68 -37 -18 -32 -40 -52 -66 -19 -43 -9 -24 -53 -8 0
81 19 24 47 23 59 6 77 35 67 9 51 60 40 75 5 1 76 66 32 53 83 22 18 26 8 -45 -27 -38 -25 -63 -74 -61 -49 -10 -36 -80 -69 -21 -41 -39 -20 -12 -48 -72 -78 -2 -54 -44 -14 -50 -79 -68 -62 -33 -46 -71 -42 -3 0
60 61 19 57 80 16 15 27 73 12 37 78 24 66 22 34 74 29 26 25 31 45 41 13 82 4 50 18 49 21 70 48 83 9 -6 -28 -63 -54 -7 -55 -11 -65 -46 -47 -81 -3 -58 -76 -14 -67 -23 -10 -35 -51 -33 -53 -43 -75 -30 -52 -36 -20 -59 -62 -8 -5 -1 -42 -69 -56 -64 -2 -38 -79 -71 -17 -72 -40 -77 0
55 31 50 11 40 44 51 80 22 77 74 57 5 49 14 73 29 33 66 35 3 69 76 27 25 13 23 75 4 61 58 68 79 62 65 28 -34 -18 -38 -24 -71 -72 -45 -42 -17 -26 -60 -36 -47 -83 -56 -10 -39 -46 -78 -70 -54 -64 -81 -12 -43 -37 -6 -67 -20 -63 0
70 43 54 49 67 78 51 13 41 29 11 52 79 34 28 39 30 24 59 48 47 25 26 45 37 56 64 15 7 80 18 53 17 66 20 36 55 31 57 -72 -77 -50 -62 -42 -27 -4 -63 -74 -32 -61 -21 -8 -33 -5 -1 -14 -65 -12 -44 -81 -35 -68 -10 -23 -83 -2 0
2 27 31 34 79 51 5 12 9 14 41 11 24 19 38 54 18 29 74 77 56 61 81 6 50 80 62 60 73 1 13 57 30 39 -4 -26 -64 -43 -25 -45 -78 -58 -10 -76 -3 -28 -32 -63 -69 -44 -36 -17 -37 -16 -40 -53 -49 -75 -48 -65 -35 -59 -47 -82 -15 -66 -70 -52 -8 -55 -7 -21 0
37 46 14 15 7 78 20 9 32 47 19 8 50 1 55 40 11 80 81 49 23 42 66 -36 -12 -61 -77 -60 -28 -83 -57 -62 -21 -65 -74 -79 -38 -5 -30 -58 -72 -64 -6 -25 -71 -45 -2 -76 -39 -59 -27 -68 -43 -26 -75 -53 -18 -22 -24 -82 -63 -67 -44 -48 -51 -3 0
74 19 58 29 11 35 49 83 51 31 38 20 63 73 46 12 76 40 15 72 65 -44 -43 -10 -21 -77 -24 -54 -6 -4 -16 -67 -25 -45 -78 -1 -60 -64 -14 -80 -48 0
36 13 76 21 80 39 10 29 59 55 74 4 1 60 46 11 22 35 83 8 67 44 7 66 15 -14 -52 -53 -6 -65 -48 -34 -42 -79 -43 -63 -17 -70 -54 -19 -64 -18 -62 -45 -38 -82 -30 -16 -71 -58 -57 -24 -56 -61 -50 -23 -69 -73 -27 -40 -20 -37 0
12 28 59 5 34 78 82 69 67 29 17 52 57 72 44 15 56 68 83 58 14 41 54 51 39 37 65 73 19 10 26 81 43 80 77 71 24 46 31 -66 -63 -42 -1 -22 -38 -32 -7 -35 -70 -25 -76 -48 -30 -40 -23 -60 -50 -20 -47 -79 -75 -55 -8 -13 -4 -62 -74 -33 -16 -3 -53 -18 -21 -64 -6 -9 -2 -36 -45 -11 -27 0
22 11 39 1 26 8 4 72 30 56 38 46 24 36 2 7 31 40 28 25 33 53 60 66 65 15 76 80 59 70 50 48 62 37 -73 -32 -82 -61 -27 -69 -35 -12 -23 -41 -79 -71 -67 -78 -3 -6 -5 -17 -29 -49 -75 -16 -58 -68 -63 -52 -77 -42 -55 -57 -18 -45 -13 -14 -21 -43 0
41 58 5 50 7 39 49 12 17 76 81 61 21 32 48 40 8 34 20 82 10 75 36 62 46 74 77 23 -80 -72 -18 -22 -59 -6 -70 -53 -9 -69 -3 -63 -33 -56 -35 -54 -43 -2 -51 -15 -28 -64 -13 -14 -4 -45 -60 0
51 42 57 66 18 10 5 20 61 25 63 64 17 78 50 49 79 31 37 45 54 62 8 -77 -72 -60 -46 -28 -43 -26 -35 -83 -73 -21 -82 -22 -81 -30 -74 -36 0
55 57 18 77 81 36 9 37 30 28 73 72 31 75 2 80 8 68 45 71 64 56 78 38 40 -51 -1 -76 -20 -53 -62 -26 -21 -74 -47 -33 -65 -12 -42 -41 -22 -10 -79 0
4 64 74 44 43 59 72 41 22 55 -58 -45 -12 -68 -3 -6 -15 -42 0
3 59 35 45 24 58 49 69 7 81 51 55 82 5 33 19 68 23 8 79 48 46 76 -22 -50 -17 -34 -74 -67 -41 -70 -12 -4 -47 -77 -25 -44 -63 -62 -28 -21 -31 -26 -32 -57 -10 -71 -9 -80 -18 -66 -15 -37 0
37 57 38 9 21 25 63 30 48 2 66 40 83 56 81 -78 -64 -16 -28 -72 -71 -17 -50 -13 -58 -6 -42 0
76 19 48 33 26 6 44 27 43 52 56 39 24 60 41 7 3 20 23 1 29 64 57 30 55 82 -50 -66 -16 -53 -69 -11 -58 -79 -59 -54 -45 -10 -28 -65 -21 -71 -31 -9 -72 -35 0
67 40 17 28 31 8 53 37 50 74 30 9 44 54 78 68 46 12 14 19 59 25 82 22 62 48 36 34 65 66 80 32 24 72 42 49 56 61 81 2 18 76 20 -16 -52 -69 -43 -3 -21 -13 -23 -29 -1 -39 -55 -27 -79 -60 -73 -35 -41 -47 -45 -71 -26 -5 -4 -75 -6 -11 -70 -63 0
82 75 74 73 12 47 28 77 2 62 20 69 6 49 35 26 25 9 51 80 41 15 56 48 24 53 -43 -38 -19 -30 -54 -64 -13 -17 -63 -32 -52 -55 -33 -14 -78 -65 -1 -23 -10 -46 -36 -21 0
77 83 74 53 21 65 78 32 15 82 3 48 79 33 31 37 19 70 7 28 80 22 5 64 24 50 -72 -73 -16 -45 -56 -18 -26 -25 -61 -39 -40 -71 -4 -63 -29 -14 -38 -57 -54 -34 -75 -23 -36 -12 -46 -55 -66 -2 -81 -68 0
63 32 51 30 21 3 17 5 79 12 38 24 39 37 15 78 45 41 81 11 67 43 10 59 50 31 13 61 1 -77 -23 -14 -65 -48 -49 -64 -20 -68 -58 -4 -71 -53 -8 -42 -16 -54 -29 -34 -46 -76 -55 -44 -72 -73 -80 -22 -75 -74 -27 -33 -69 -83 -7 -2 -36 -56 -19 -35 -40 0
13 72 40 3 57 10 20 68 11 45 7 4 26 76 -43 -50 -52 -74 -71 -41 -12 -77 -56 -70 -8 -19 -73 -49 -38 -29 -65 -6 0
78 76 33 58 48 30 -41 -40 -7 -69 -24 -38 -59 0
27 83 14 5 50 25 22 11 13 57 34 55 37 41 3 26 72 81 58 59 74 46 1 18 64 9 35 21 56 45 7 82 33 -6 -68 -24 -16 -54 -15 -39 -51 -43 -73 -70 -69 -19 -76 -36 -80 -29 -75 -12 -79 -53 -4 -2 -52 -78 -20 -44 -31 -62 -60 -66 -47 -38 -65 -42 -17 -10 0
10 77 78 57 63 18 66 70 47 50 14 56 73 43 16 55 62 5 49 58 9 61 53 -29 -13 -76 -80 -37 -19 -44 -46 -81 -34 -8 -69 -39 -40 -31 -68 -28 -67 -54 -22 -51 0
20 79 19 42 44 47 60 78 67 83 11 1 35 73 26 2 45 29 12 41 71 9 37 55 -49 -24 -68 -65 -75 -54 -36 -72 -30 -82 -5 -39 -21 -18 -51 -32 -10 -61 -50 -52 -8 -58 -28 -31 -23 -63 0
36 56 18 1 78 19 5 -13 -26 -28 -12 -9 -44 0
50 59 42 68 77 49 11 12 67 70 4 32 83 43 71 75 31 5 53 8 69 1 81 20 27 37 72 55 -73 -22 -64 -36 -76 -58 -65 -35 -66 -57 -74 -80 -7 -29 -82 -44 -61 -30 -51 -78 -79 -63 -33 -14 -47 -34 -3 -18 -10 -54 -45 -26 -24 -38 -56 0
-29 0
40 6 80 16 33 58 74 28 81 34 78 54 18 57 53 68 62 23 66 4 42 46 2 12 37 32 21 31 61 8 29 60 26 59 64 14 56 36 65 10 -67 -44 -71 -1 -19 -27 -35 -70 -30 -22 -77 -11 -41 -38 -55 -48 -24 -82 -83 -25 -17 -73 -75 -3 -5 -79 -39 -49 -50 -43 -9 -7 -51 0
16 50 72 62 42 2 83 53 66 43 13 5 8 18 58 64 4 10 79 23 70 17 44 33 21 39 41 65 11 78 73 14 45 26 37 74 59 71 25 80 -31 -1 -24 -46 -49 -6 -75 -67 -9 -47 -56 -29 -48 -54 -7 -36 -60 -35 -28 -68 -40 -81 -15 -82 -38 -52 -51 -22 -32 -76 -12 -77 -55 -63 -61 -20 -3 -19 -34 -30 0
20 41 12 25 46 53 4 83 80 70 6 18 35 34 21 74 72 32 79 44 -60 -9 -26 -50 -81 -71 -61 -69 -8 -19 -52 -37 -29 -5 -59 -58 -17 -49 -62 -23 -75 -40 -30 0
75 42 2 57 32 26 77 27 83 25 20 22 67 51 9 35 4 65 3 49 80 68 39 34 6 16 31 40 28 60 12 50 64 15 76 54 56 70 -18 -36 -1 -71 -19 -24 -30 -11 -41 -38 -82 -59 -62 -21 -44 -74 -52 -45 -10 -58 -66 -48 -5 -33 -47 -17 -13 -79 -63 -61 -23 -73 -29 0
60 59 47 58 13 22 4 50 15 72 76 39 80 52 3 44 -68 -56 -83 -70 -51 -57 -74 -31 -32 -35 -79 -78 -17 -61 -38 -9 -2 -6 -40 -34 -5 -20 -73 -42 -55 -1 -18 -12 0
82 33 12 1 66 7 77 64 80 73 8 54 50 22 39 36 2 71 65 6 81 41 47 21 25 9 14 63 35 4 42 76 16 72 32 78 24 45 57 68 52 30 79 -28 -31 -40 -61 -44 -13 -38 -43 -37 -83 -48 -20 -56 -49 -59 -23 -15 -46 -18 -29 -3 -53 -17 -70 -34 -26 -5 -27 -10 -11 -74 -58 -75 -19 -55 -60 -51 -62 -69 0
18 52 35 66 7 3 79 63 51 5 17 34 9 69 16 10 77 68 21 13 15 -38 -43 -1 -23 -28 -47 -61 -75 -32 -55 -39 -49 -31 -50 -41 -82 -78 -36 -27 -67 -59 -37 -6 -22 -73 -57 -33 -4 -64 -83 -60 0
23 63 5 80 77 20 29 30 37 3 39 6 10 75 34 81 41 9 57 45 69 82 43 54 22 52 62 49 67 59 13 -46 -40 -21 -27 -66 -50 -32 -26 -7 -16 -48 -55 -2 -4 -58 -8 -19 -36 -11 -56 -72 -17 -68 -33 -65 -18 -14 0
23 5 63 56 43 10 27 8 36 69 47 53 50 80 33 -29 -39 -73 -15 -25 -22 -34 -12 -64 -2 0
56 30 22 9 24 2 37 23 6 44 49 32 28 18 46 68 51 4 70 26 61 57 20 52 64 1 59 17 12 -72 -13 -36 -25 -65 -81 -67 -76 -73 -66 -19 -38 -69 -80 -31 -39 -33 -27 -5 -48 0
83 23 15 4 69 16 45 24 78 21 81 7 22 57 34 50 80 82 2 37 19 61 31 14 60 33 66 20 25 79 30 -43 -63 -42 -36 -35 -6 -68 -38 -26 -10 -75 -70 -76 -1 -32 -3 -73 -53 -27 -8 -56 -64 -39 -71 -55 -11 -47 -41 -58 -40 -46 -65 -67 0
66 64 10 61 18 30 19 20 75 32 57 80 54 83 39 22 63 82 74 28 15 52 14 36 21 33 56 12 25 50 13 9 58 47 43 62 49 11 34 51 53 -3 -76 -6 -24 -71 -1 -70 -31 -46 -48 -59 -27 -8 -69 -5 -44 -60 -29 -23 -26 -81 -4 -77 -37 -35 -67 -7 -17 -72 -79 -65 -55 -78 -73 -45 -41 -42 -2 -38 -16 -40 0
49 48 42 35 82 20 37 46 4 8 30 65 43 52 76 29 24 -36 -50 -13 -19 -73 -1 -40 -71 -60 -22 -74 -70 -75 -69 0
55 22 60 77 62 50 78 32 29 46 61 82 68 -57 -19 -53 -26 -52 -47 0
32 81 10 55 15 -69 -51 -70 -18 -30 -16 -3 -45 0
68 45 69 82 75 18 74 30 42 51 2 48 31 17 3 21 58 60 54 62 61 78 35 10 79 19 24 49 67 70 -80 -14 -72 -57 -47 -50 -53 -28 -39 -33 -73 -11 -41 -5 -71 -52 -81 -43 -44 -22 -37 -63 -29 -34 -40 -7 -36 -64 0
44 42 60 47 59 16 21 50 17 5 53 4 41 52 31 34 65 66 81 39 64 22 -10 -19 -76 -9 -73 -25 -6 -24 -62 -20 -83 -78 -57 -75 -26 -14 -2 -54 -77 -55 -23 -32 -46 -7 -36 -48 -58 -13 -74 -63 -12 -1 -35 -33 -8 -30 -18 -71 -38 -68 -79 -11 -82 -69 -3 -72 -29 -80 -28 -70 0
14 15 64 42 47 8 51 71 19 13 74 46 68 66 72 79 58 65 18 26 34 49 50 61 20 57 41 45 60 24 -30 -23 -43 -44 -63 -53 -69 -77 -5 -33 -6 -81 -48 -55 -36 -7 -70 -3 -56 -78 -80 -40 -38 -12 0
58 14 46 59 9 83 78 -73 -1 -64 -80 0
11 18 26 35 10 61 30 57 42 14 15 49 33 43 54 1 81 60 2 70 8 48 75 55 72 24 68 37 53 74 7 9 -71 -80 -45 -23 -44 -19 -31 -76 -12 -63 -65 -47 -4 -21 -32 -6 -38 -39 -36 -46 -3 -82 -64 -25 -41 -59 -29 -67 -34 -77 -56 -78 -5 0
35 57 52 18 37 2 26 63 9 19 32 30 66 20 3 83 21 53 48 36 47 68 29 7 38 31 14 75 6 71 73 10 34 1 5 54 22 23 28 4 78 45 40 46 42 81 82 59 -11 -44 -51 -77 -50 -69 -76 -49 -62 -79 -67 -60 -16 -39 -65 -13 -80 -33 -25 -56 -24 -58 -17 -72 -8 -61 -55 -70 -12 -74 -27 -15 -64 0
75 18 56 38 28 1 3 67 29 -49 -76 -80 -35 -7 -41 -30 -40 0
53 70 67 34 58 -11 -35 -68 -44 -38 -2 -10 -80 -15 -61 -78 0
51 14 1 52 72 68 3 43 12 58 44 42 8 63 64 39 80 55 16 24 20 45 65 26 50 53 67 15 5 38 29 71 9 35 32 13 56 21 73 27 40 78 60 -54 -74 -82 -57 -11 -18 -7 -69 -31 -23 -10 -75 -36 -41 0
66 44 18 17 49 53 28 22 55 67 71 77 48 60 -39 -42 -29 0
48 41 36 37 64 43 71 82 4 19 51 61 54 34 58 21 50 70 -30 -83 -12 -20 -1 -53 -73 -9 -80 -63 -65 -27 -28 -15 0
1 59 15 64 2 11 41 74 33 17 50 21 28 -30 -77 -72 -67 -4 -16 -62 -48 -52 -26 -82 -5 -53 -31 -80 -79 0
61 39 70 79 10 2 14 -80 -5 -40 -77 -73 -83 -13 -8 -43 -12 -55 -56 0
74 38 27 41 59 73 15 76 22 24 1 70 44 68 -39 -72 -61 -9 -78 -83 -5 -69 -10 -43 -57 -56 0
3 30 66 44 56 79 17 42 70 63 34 26 13 43 33 -9 -18 -5 -16 -52 -21 -20 -25 -53 -61 -54 -32 -41 -31 -81 -82 -58 -47 -46 -57 -71 -72 -23 -7 0
16 2 71 30 28 8 58 63 47 73 81 23 26 -77 -41 -56 -57 -60 -38 -20 -75 -76 -54 -10 -1 -4 -32 0
71 58 64 73 4 14 27 33 80 28 5 39 55 82 16 15 62 43 36 34 67 52 7 31 48 65 18 9 13 50 -42 -81 -68 -74 -72 -53 -23 -11 -32 -60 -24 -41 -2 -57 -76 -6 -40 -54 -77 -79 -26 -59 -51 -21 -12 -44 -25 -20 -45 -70 -66 -8 -17 0
69 18 7 42 45 73 14 67 3 6 1 68 53 82 24 51 61 8 83 27 20 65 -39 -71 -81 -48 -59 -22 -47 -9 -25 -64 -31 -57 -41 -50 -15 -16 -76 -10 -19 -33 -12 0
34 61 73 39 52 -55 0
55 21 36 50 31 32 71 2 20 47 14 73 25 28 8 16 11 12 75 18 77 83 82 46 19 63 44 41 1 49 54 9 4 67 -24 -35 -59 -5 -72 -43 -34 -3 -17 -68 -38 -39 -66 -76 -74 -58 -48 -80 -78 -13 -23 -40 -70 -42 -69 -81 -57 -26 -56 -64 -62 -65 -79 -30 -53 -29 -7 -27 0
17 54 82 41 81 66 45 48 73 44 26 75 64 72 6 62 21 51 80 -24 -1 -38 -33 -18 -8 -2 -28 -5 -35 -14 -13 -31 -60 -70 -3 -39 0
14 11 62 51 10 13 71 65 8 -35 -70 -29 -12 -61 0
39 20 58 5 66 69 21 4 34 27 12 76 18 68 83 22 3 62 1 73 35 80 16 13 41 56 -33 -54 -36 -11 -46 -82 -77 -48 -64 -49 -17 -55 -40 -61 -45 -26 -67 -25 -15 -28 -50 -32 -65 -43 -51 -38 -81 -2 -42 -24 -31 -14 -23 -30 -60 0
4 33 57 36 1 46 23 38 3 2 44 71 19 27 76 74 14 17 51 69 56 60 48 32 6 55 24 61 5 22 40 47 20 52 73 21 -58 -81 -50 -31 -79 -83 -82 -77 -16 -42 -7 -15 -37 -72 -18 -67 -34 -59 -68 -66 -9 -65 -11 -12 -10 -53 -49 -28 -64 -30 -80 -75 -35 0
82 74 37 76 21 43 9 73 7 30 62 6 58 12 40 53 69 15 52 19 83 75 22 56 46 -17 -80 -49 -16 -13 -25 -28 -77 -3 -67 -45 -26 -68 -51 -63 -79 -20 -59 -81 -55 -65 -29 -24 0
65 78 59 38 68 13 47 58 71 77 17 20 82 51 33 49 66 18 64 43 16 10 8 40 4 27 36 -19 -30 -7 -5 -62 -75 -53 -52 -25 -31 -79 -67 -34 -48 -22 -42 -60 -81 -2 -72 -39 -11 -69 -26 -9 -76 0
66 28 2 69 9 64 3 39 7 48 12 37 29 20 35 14 10 36 82 54 67 33 24 63 44 50 30 38 26 72 61 31 55 79 60 58 16 57 6 -41 -65 -18 -11 -23 -8 -34 -76 -4 -40 -19 -22 -71 -81 -15 -75 -62 -52 -53 -46 -32 -56 -17 -70 -77 -5 -21 -13 0
9 15 70 21 29 6 41 13 56 78 55 58 54 27 50 32 76 43 -61 -26 -75 -46 -31 -17 -74 -3 -65 -10 -62 -49 -52 -44 -53 -1 -40 -19 -42 -59 -47 -33 -39 -28 -35 -71 -51 0
17 14 4 1 52 77 3 51 18 29 69 38 27 -48 -21 -68 -76 -22 -30 -41 -47 -5 -34 -37 -44 -80 -64 -72 -50 0
35 46 41 25 47 60 51 81 2 18 15 3 31 57 -16 -67 -32 -70 -27 -76 -53 -80 -8 -56 -79 -7 -20 0
22 48 36 -61 -64 0
65 45 51 43 57 64 2 39 37 77 1 52 78 60 25 35 20 42 31 3 55 21 76 68 26 30 14 17 19 82 5 81 79 16 44 8 10 23 9 66 -4 -12 -49 -62 -46 -13 -74 -7 -72 -83 -6 -36 -80 -47 -29 -32 -63 -73 -56 -15 -41 -54 -48 -40 -61 -27 -22 -58 -33 -11 -24 -70 -34 0
32 30 69 41 65 31 35 -60 -16 -7 -82 -9 0
63 54 41 48 68 73 8 49 -28 -79 -72 -57 -59 -34 -5 -82 -7 0
73 34 30 13 68 14 6 -25 -52 -40 -65 -28 -57 -26 -33 -69 -75 0
37 19 2 54 18 25 15 47 35 20 27 39 17 53 80 60 48 79 71 72 68 33 24 44 23 75 6 66 16 78 36 45 1 8 43 55 70 77 21 12 7 83 57 -76 -14 -42 -9 -46 -41 -50 -52 -28 -11 -34 -58 -59 -10 -74 -13 -73 -64 -51 -29 -4 -63 -38 -61 -49 -26 -82 -32 -67 -22 -56 0
62 34 53 20 17 59 71 6 28 79 74 75 11 21 56 58 38 83 13 29 41 27 35 81 57 39 -45 -43 -55 -69 -50 -68 -73 -76 -42 -15 -4 -25 -3 -26 -23 -63 -61 -67 -47 -46 -19 -64 0
36 51 48 78 79 65 64 70 5 14 17 1 38 20 47 69 -28 -18 -29 -83 -2 -34 -61 -56 -10 -39 -4 -25 -37 -21 -7 -27 -33 -52 -53 0
11 61 48 7 4 24 31 43 45 30 -65 -69 -35 -23 -73 0
52 80 35 2 3 15 16 51 19 68 -30 -41 -70 -62 -10 -4 -77 -22 -63 -59 -9 -31 -69 0
72 39 32 82 27 42 24 83 38 4 35 33 -69 -80 -81 -64 -45 -10 -79 -62 -25 0
77 11 37 30 20 65 3 23 75 10 36 54 63 45 29 64 57 28 19 -56 -73 -40 -41 -6 -68 -81 -72 -46 -35 -67 -82 -14 -5 -69 -49 -24 -39 -32 -66 -17 -26 -8 -51 -22 -53 -38 0
66 35 17 5 33 30 70 73 60 15 75 29 47 77 74 54 21 14 4 49 71 32 68 34 6 41 72 42 7 9 57 64 2 45 55 50 58 37 61 1 -31 -76 -53 -82 -63 -81 -3 -28 -10 -27 -36 -69 -62 -23 -65 -46 -24 -19 -83 -44 -22 -59 -20 -18 -80 -51 -79 -26 -13 -39 -38 -48 -16 -25 0
55 57 2 28 69 67 50 9 64 65 82 21 33 41 73 68 63 13 47 23 66 39 78 35 32 31 43 -4 -10 -15 -52 -34 -26 -19 -51 -40 -46 -3 -36 -83 -61 -79 -12 -6 -77 -80 -56 -1 -11 -8 -30 -75 -24 -20 -37 -44 -62 -29 -81 -18 -16 -5 0
82 61 41 32 51 46 25 65 73 5 16 50 19 74 22 8 -12 -7 -26 -20 -59 -27 -58 -78 -75 -21 -6 -11 -64 -56 -48 -40 -67 -31 -24 -39 0
76 69 81 28 5 59 7 29 75 45 20 26 18 55 64 16 46 10 21 6 23 17 11 67 1 19 82 56 49 24 83 52 15 66 53 43 -37 -14 -80 -58 -73 -72 -35 -61 -77 -8 -62 -34 -4 -39 -60 -42 -2 -40 -68 -33 -63 -71 -9 -54 -48 -51 -13 -31 -30 -27 -78 -47 -74 -44 -3 -57 -12 -32 -50 -38 -65 -22 0
62 76 69 9 53 40 19 -58 -82 -27 -48 -34 -38 -25 -17 0
30 46 49 20 72 39 26 18 73 54 44 23 42 17 50 4 10 12 5 11 57 25 29 48 83 -62 -31 -38 -6 -74 -14 -53 -15 -22 -36 -58 0
29 47 38 31 64 55 54 52 59 80 -62 -34 -61 -69 -28 -21 -75 -15 -13 -10 -24 -40 -53 -32 -81 0
49 22 43 16 32 23 42 11 4 63 34 73 28 67 -25 -65 -13 -30 -55 -60 -83 -48 -33 -6 -37 -26 -3 -36 -66 -71 -61 -2 -64 -41 0
46 57 70 16 76 45 67 62 27 21 32 17 60 11 29 35 65 81 47 59 20 48 80 15 -74 -52 -10 -79 -56 -51 -54 -12 -6 -37 -63 -42 -53 -1 0
37 76 57 65 22 35 6 71 69 17 -30 -44 -26 -82 -51 -31 -77 -47 -43 -79 -52 -40 -50 -72 0
7 49 25 45 33 38 66 74 58 56 63 65 71 24 16 60 19 81 36 26 1 32 12 82 3 17 54 -10 -41 -77 -50 -43 -52 -13 -61 -34 -35 -62 -27 -79 -21 -11 -5 -57 -70 -23 -76 -80 -4 -67 -51 -18 -72 -44 -55 -46 -15 -78 -37 -47 -6 -59 -48 0
34 25 4 11 18 26 7 -5 -36 0
17 22 31 1 12 27 10 55 77 59 41 71 36 60 76 53 18 49 5 -7 -63 -6 -11 -33 -57 -78 -67 -16 -65 -37 -29 -52 0
16 47 17 5 69 56 64 52 54 1 74 60 59 43 19 25 28 63 23 38 22 36 8 3 70 81 -37 -75 -21 -82 -51 -73 -32 -7 -79 -67 -53 -44 -41 -2 -13 -80 -20 -14 -26 -9 -29 -12 -68 -33 -27 -31 -66 -11 -62 -30 0
39 12 2 53 10 -59 -57 -62 -81 -4 -48 0
23 65 39 9 1 81 11 68 28 3 20 16 61 38 77 32 34 54 70 2 14 79 75 10 15 -64 -43 -31 -30 -62 -78 -60 -36 -40 -5 -66 -69 -21 -12 -83 -41 -82 -44 0
76 60 71 82 49 13 79 57 65 -22 -70 -27 -45 -17 -63 -59 -81 0
48 71 67 21 78 23 16 44 18 68 1 32 79 61 9 69 65 56 38 -15 -63 -36 -5 -57 -42 -76 -54 -72 -51 -41 -35 -55 -33 0
61 28 3 22 52 56 58 49 9 46 51 78 11 71 40 42 60 25 18 31 74 37 21 43 65 62 10 82 50 17 8 53 32 29 48 57 12 70 72 35 63 -20 -59 -67 -14 -55 -13 -39 -81 -33 -19 -34 -77 -27 -16 -69 -6 -68 -73 -80 -64 -83 -36 -54 -5 -45 -2 -15 -38 -79 -26 -41 -1 -7 -24 -66 -30 -23 -75 -47 -76 -4 0
42 30 60 39 75 76 49 73 81 41 5 32 40 7 -8 -37 -68 -36 -16 -2 -9 -64 -80 -62 -23 0
46 68 76 80 41 83 4 81 43 66 3 12 39 16 13 -26 -33 -69 -73 -79 -32 -48 -23 -61 -35 -11 -9 -77 -22 -50 -82 0
17 68 72 18 14 59 16 3 54 -55 -83 -12 -74 -42 0
73 17 39 16 61 37 52 83 62 44 74 6 59 42 45 40 53 14 7 64 49 66 22 -11 -36 -71 -81 -5 -63 -57 -19 -34 -46 -80 -51 -20 -1 -72 -50 -75 -2 -76 -79 -65 -58 -35 -26 -30 -43 -12 -69 0
20 50 -64 -74 0
26 71 54 51 25 50 7 40 63 55 46 49 2 15 34 47 77 33 31 75 39 37 80 14 65 9 78 56 21 6 1 83 29 59 38 18 69 43 66 52 28 -76 -3 -64 -10 -42 -5 -58 -20 -61 -73 -35 -57 -45 -12 -8 -53 -13 -72 -60 -11 -16 -74 -23 -30 -48 -19 -79 -32 -17 -44 -82 -41 -81 -27 -4 -36 -68 -70 -67 -62 0
76 24 -44 -3 -80 0
50 69 10 55 58 7 82 49 11 47 15 79 -14 -31 -75 -4 -21 -80 -13 -24 -63 -2 -61 -46 -36 -60 -76 0
79 52 64 22 42 54 17 73 4 29 81 30 69 43 44 71 -80 -1 -75 -74 -59 -58 -38 -60 -77 -23 -7 -67 -51 -14 -25 -28 -31 -39 -35 -6 -16 -3 -27 0
38 8 10 40 19 51 77 26 21 75 14 73 18 41 46 65 9 32 45 57 5 35 24 59 63 28 48 37 60 33 -30 -2 -82 -78 -39 -7 -15 -61 -55 -54 -36 -56 -11 -17 -74 -69 -43 -71 -50 -4 -83 -3 -67 0
80 63 24 72 -45 -47 0
21 18 27 44 80 64 74 8 11 2 15 39 81 63 60 17 16 78 48 75 77 57 41 26 25 33 -70 -10 -68 -6 -67 -53 -35 -69 -42 -55 -43 -72 -5 -31 -45 -12 -40 -24 -29 -47 0
1 38 11 21 36 23 58 52 26 33 4 19 60 65 13 55 8 34 31 44 82 24 57 37 27 54 45 68 62 41 22 12 -69 -9 -7 -50 -5 -15 -14 -47 -30 -20 -29 -17 -25 -75 -70 -67 -42 -32 -6 -74 -10 -77 -61 -53 -64 -79 -3 -40 -81 0
70 53 17 31 2 7 4 24 75 62 38 27 19 33 68 58 83 10 6 74 63 80 81 -45 -28 -39 -22 -3 -78 -49 -47 -61 -42 -51 -67 -46 -41 -11 -34 -29 -36 -8 -43 -25 -71 -57 -16 -65 -64 0
14 11 82 55 78 46 26 8 24 44 3 16 25 53 10 65 59 81 74 9 69 34 62 32 56 75 21 45 -68 -2 -42 -48 -23 -40 -52 -35 -30 -83 -47 -27 -15 -51 -41 -79 -38 -5 -37 -58 -57 -13 -50 -64 -33 -36 -72 0
38 51 45 10 29 32 61 20 12 80 72 70 42 5 44 23 24 40 60 34 68 47 35 67 46 13 81 3 66 69 1 82 77 21 37 36 39 4 55 17 -33 -65 -26 -43 -8 -14 -71 -30 -78 -31 -15 -9 -28 -52 -83 -58 -64 -62 -74 -56 -49 -50 -22 -75 -6 -41 -79 -48 -2 -63 -57 -18 -7 -25 -73 -19 0
66 79 20 77 59 5 23 30 70 41 81 15 65 -12 -17 -50 -39 -7 -58 -4 -44 -21 -52 -43 -54 -78 -42 0
76 22 30 77 54 57 80 2 60 39 35 68 9 48 23 63 45 64 52 70 46 21 6 25 79 61 56 17 37 33 82 24 74 65 -19 -75 -36 -1 -49 -28 -43 -40 -16 -42 -72 -62 -55 -13 -78 -38 -26 -14 -53 -7 -34 -58 -69 -44 -41 -8 -4 -73 -71 -15 -11 -66 -29 -59 -3 -83 -50 -51 0
27 62 17 6 20 19 3 16 33 59 54 83 55 63 74 -61 -37 -9 -53 -44 -81 -69 -2 -34 -78 -5 -12 -82 -52 -13 -31 0
31 41 82 67 17 15 36 -58 -54 -57 -52 -53 -32 -33 -50 -47 -21 -14 0
36 19 46 14 56 41 71 28 67 73 76 23 81 32 59 39 17 55 75 63 29 66 79 61 22 44 3 8 9 53 25 80 16 20 2 -24 -37 -6 -78 -48 -40 -83 -12 -54 -43 -74 -35 -77 -82 -52 -10 -18 -64 -60 -7 -33 -69 -15 -1 -72 -45 -57 -30 -49 -58 -27 -11 -47 0
37 14 44 83 12 64 21 42 35 40 7 19 28 55 16 54 48 25 20 53 -71 -58 -39 -2 -50 -3 -81 -9 -47 -68 -70 -49 -33 -41 -22 0
50 78 25 27 32 -10 -29 0
42 35 79 11 74 30 39 10 55 83 76 52 50 4 71 22 80 20 18 38 17 25 82 49 57 66 78 29 43 -58 -64 -34 -51 -9 -53 -69 -67 -46 -15 -2 -40 -26 -3 -68 -59 -60 -5 0
35 12 26 76 39 72 16 49 -79 -61 0
15 14 1 40 66 30 51 48 71 52 63 73 -4 -68 -5 -24 -32 -72 0
56 46 58 41 26 68 8 15 66 4 37 39 80 63 43 59 36 65 83 73 14 27 44 28 32 72 54 12 17 52 3 23 -78 -70 -71 -20 -60 -55 -19 -42 -51 -5 -30 -24 -7 -21 -25 -69 -62 -40 -29 -67 -75 -31 -81 -34 -79 -57 -13 -50 -2 -61 -10 -22 -47 -64 -45 -48 -53 -82 0
61 22 29 -35 0
38 39 40 12 78 77 66 33 11 37 80 22 83 75 60 71 34 31 10 13 44 53 8 36 2 5 29 7 47 59 -4 -1 -68 -20 -81 -62 -51 -25 -30 -28 -35 -19 -41 -72 -49 -14 -43 -79 -64 -17 -69 -23 -42 -55 -6 -82 0
44 66 27 56 71 16 81 52 70 54 58 65 32 80 10 72 37 12 51 68 22 30 -31 -53 -7 -42 -41 -40 -38 -48 -69 -4 -6 -43 -21 -76 -46 -28 -8 -26 0
46 39 82 35 75 27 3 -13 -44 -15 -57 -7 -76 0
56 64 -41 0
7 30 23 63 3 41 61 22 77 25 51 48 80 16 46 55 6 54 68 82 27 29 12 19 36 32 76 47 -31 -53 -67 -21 -18 -20 -11 -69 -73 -81 -62 -72 -70 -45 -26 -64 -34 -1 -17 -60 -38 -43 -14 -13 -4 -59 -71 -83 -66 -35 -75 -9 -39 -79 -10 -15 -78 -57 -58 -8 -74 -40 -44 -5 -56 0
26 55 77 21 74 42 14 52 34 -44 -72 -11 -49 -43 -31 -47 -22 -6 -82 -17 -38 -12 -81 -27 -83 0
72 39 64 71 56 36 32 11 2 3 82 65 73 10 57 54 31 45 59 60 8 49 70 20 34 16 30 18 78 83 27 77 68 55 74 52 33 9 13 6 7 -5 -61 -17 -28 -42 -69 -25 -80 -4 -51 -46 -41 -67 -44 -63 -24 -76 -12 -15 -79 -14 -75 -48 -37 -58 -50 -23 -43 -53 -26 -47 -19 -29 -62 -21 -81 0
59 31 13 34 7 52 42 69 54 70 58 66 53 39 61 30 76 40 56 51 67 18 20 32 11 79 26 68 15 43 80 35 -81 -78 -10 -5 -6 -83 -74 -82 -41 -64 -72 -12 -36 -14 -50 -8 -48 -75 -45 0
56 29 77 82 75 81 15 50 20 80 18 37 24 13 44 16 26 -22 -21 -68 -14 -5 -45 -62 -40 -79 -38 0
62 60 66 79 38 55 54 16 75 51 19 46 56 36 68 3 24 4 63 71 8 29 9 64 35 -11 -59 -49 -37 -58 -77 -45 -22 -20 -40 -70 -23 -48 -50 -2 -32 -21 -47 -12 -17 -18 -82 -33 -30 -14 -31 -65 -72 -25 0
39 1 17 78 30 10 72 59 16 56 60 2 44 48 49 80 23 22 41 68 54 21 57 7 77 20 74 34 42 13 63 -71 -4 -69 -66 -38 -70 -62 -53 -33 -6 -5 -14 -19 -27 -9 -40 -32 -43 -79 -58 -50 -28 -83 -55 -51 -61 -12 -26 -65 -75 -35 -11 -52 -25 -18 -36 -31 -8 0
34 7 63 68 38 70 64 76 8 29 73 20 80 25 43 17 48 33 11 67 50 56 4 2 72 58 18 51 21 66 75 27 47 -55 -83 -28 -31 -65 -13 -9 -5 -52 -44 -36 -74 -14 -49 -69 -57 -41 -39 -40 -81 -19 -24 -42 -79 -16 -71 -35 -15 -23 -46 -54 -26 -30 -59 -77 -1 -22 -61 0
19 81 44 30 3 16 74 48 -29 -4 -24 -60 -33 -71 -32 0
54 70 16 5 61 17 72 83 60 52 50 3 58 1 48 53 64 -66 -20 -51 -59 -74 -26 -25 -75 -33 -34 -8 -82 -14 -77 -38 -55 -45 -68 -15 -69 -23 -36 -76 0
30 12 29 70 65 59 72 83 13 23 27 42 40 -82 -20 -8 -11 -9 -6 -77 -64 -76 -43 -37 -25 -69 -55 -34 -68 -4 -50 0
