c NeuroCodeBench 2.0 CNF formula with verdict Sat
p cnf 64 275
23 8 -4 -49 -18 -28 -30 -31 -60 0
7 9 29 4 39 59 6 8 36 49 16 30 53 40 2 35 19 17 -51 -63 -24 -57 -13 -12 -60 -18 -38 -10 -32 -37 -3 -61 -20 -5 -62 -46 -23 -31 -11 0
37 61 39 -59 -31 0
59 64 7 34 17 22 31 55 8 -25 -9 -30 -10 -23 -1 -18 -12 0
-43 -39 0
16 41 28 46 13 43 52 -39 -36 -47 -57 -55 -7 -6 -58 -32 -61 0
45 16 20 27 22 58 53 21 32 42 62 23 34 1 43 28 14 50 63 26 38 41 7 6 46 37 -25 -55 -5 -35 -24 -59 -2 -39 -52 -48 -49 -61 -64 -10 -4 -9 -33 -11 -18 -30 -17 -47 -36 -57 -15 -19 -56 -40 -29 -3 -54 -8 -31 0
4 60 28 34 3 38 11 64 43 54 58 51 18 37 6 63 1 62 41 16 14 -17 -27 -53 -50 -33 -45 -20 -8 -55 -9 -2 -61 -49 -12 0
24 40 4 16 62 60 47 10 36 43 34 3 19 41 -7 -49 -2 -30 -25 -63 -20 -50 -29 -15 -27 -42 0
5 64 37 28 3 15 53 55 43 22 14 6 48 10 4 19 -11 -58 -44 -45 -25 -7 -36 -38 -56 -27 -23 -47 -41 0
50 37 7 12 38 57 29 48 41 42 63 35 8 59 49 47 28 -60 -39 -16 -21 -20 -19 -56 -33 -18 -27 -45 -61 -53 -44 -55 -31 -46 -23 -13 -5 -4 -43 -30 -24 -9 -6 -26 0
42 31 43 24 30 54 -15 -1 -49 -27 0
21 13 57 29 50 23 7 34 45 37 40 5 6 49 -20 -9 -54 -41 -52 -58 -64 -55 -24 -11 -44 0
13 10 59 45 43 57 58 49 61 51 55 27 46 9 44 42 26 38 12 16 54 31 6 28 1 41 37 50 -60 -52 -25 -33 -32 -29 -40 -53 -24 -56 -39 -47 -15 -5 -17 -21 -63 -30 -22 -35 -8 -4 -64 0
43 59 35 32 51 56 39 1 50 52 12 27 14 64 46 41 2 23 30 58 45 49 25 55 13 24 63 34 3 -10 -19 -44 -31 -38 -21 -22 -33 -20 -18 -62 -47 -48 -16 -26 -11 -17 -9 -40 -5 -36 -61 -42 -57 -54 -60 -37 -4 -53 -28 -6 -8 -29 -7 0
23 47 6 52 53 25 43 37 42 38 18 11 41 34 12 59 16 44 56 21 1 50 -36 -13 -35 -45 -49 -4 -51 -54 -10 -9 -39 -19 -28 -33 -61 -8 -40 -5 -3 -58 -46 -15 -27 -17 -2 -57 -14 -60 -63 -22 -29 -26 -62 -55 -64 0
27 61 55 53 37 20 54 10 50 14 60 22 18 25 48 62 12 3 45 34 4 47 7 33 64 59 11 13 46 36 56 -23 -15 -8 -2 -32 -6 -35 -58 -31 -57 -49 -38 -39 -42 -63 -5 -28 -21 -41 -30 -52 0
61 40 53 51 52 26 18 42 56 19 58 23 17 36 31 44 46 30 3 13 50 24 22 25 37 43 8 6 11 -1 -38 -5 -7 -27 -29 -57 -55 -54 -15 -14 -28 -48 -64 -9 -20 -4 -59 -49 -12 -63 -34 -60 -33 -35 -21 -2 -47 -62 -16 -45 0
6 44 60 2 5 27 47 -3 -45 -40 -25 -55 0
59 34 35 39 13 40 41 58 60 30 21 53 36 15 43 -62 -50 -2 -12 -18 -64 -52 -44 -42 -19 -49 -4 -6 -11 -8 -17 -61 -5 -3 -56 -22 -48 -26 -25 0
37 27 42 22 2 64 32 20 40 63 19 21 24 -41 -11 -16 -3 -30 -1 -51 -15 -13 -44 -6 0
3 55 30 24 5 14 58 64 29 4 54 60 31 47 56 63 40 13 28 -20 -59 -61 -23 -27 -1 -42 -21 -41 -18 -52 -2 -17 -22 -53 -10 -9 -7 -15 -46 -12 -57 -6 -19 -43 -38 0
53 42 -20 -17 -12 0
47 14 42 39 8 61 17 4 25 49 57 63 54 3 21 28 11 -34 -52 -50 -5 -26 -27 -32 -41 -64 -33 -9 -38 -6 -35 -31 -13 0
11 38 -39 -13 -24 0
54 63 58 12 16 -7 -48 -37 -6 -42 -14 -30 -11 0
27 62 42 57 31 16 17 13 43 7 32 23 26 53 8 35 58 20 -63 -51 -15 -18 -47 -48 -37 -6 -44 -9 -11 -33 -50 -4 -24 -34 -56 -5 -22 -49 -1 -60 0
-24 0
27 61 48 34 16 -5 -2 -10 -15 -56 0
57 25 29 33 3 5 55 61 59 62 53 26 51 16 8 64 38 36 -58 -41 -44 -63 -27 -45 -18 -39 -13 -21 -60 -1 -34 -46 -19 -2 -56 -24 -42 0
9 37 8 54 23 47 7 12 -15 -56 -39 0
62 30 53 7 50 61 37 8 35 11 13 17 33 31 43 22 32 -29 -46 -39 -64 -36 -48 -49 -40 -58 -55 -52 -23 -63 -20 -60 -38 -25 -24 -42 -34 -28 -26 -18 -54 -2 -51 0
26 43 46 55 10 53 27 11 63 58 45 -23 -9 -50 -39 -18 -44 -38 -59 -12 0
39 57 19 31 26 51 41 30 43 15 58 17 9 62 13 55 53 2 64 10 8 24 -49 -61 -35 -45 -42 -4 -46 -21 -33 -40 -37 -32 -47 -14 -50 -60 -56 -11 -54 -63 -5 -18 -23 -27 0
17 11 9 48 35 38 58 43 60 14 32 22 51 40 61 52 30 27 44 29 37 18 45 25 36 42 -31 -23 -41 -2 -49 -16 -10 -26 -7 -59 -63 -4 -3 -55 -19 -50 -62 -54 -13 -24 -12 -56 -20 -8 -5 0
62 40 48 57 43 31 1 59 32 -3 -10 -19 -47 -9 -20 -53 -21 -8 -18 -35 -51 -22 -17 -23 0
51 24 4 49 19 47 61 41 1 33 14 18 62 59 9 58 32 15 27 36 48 11 28 16 54 64 7 20 45 56 46 -60 -63 -52 -10 -2 -21 -53 -3 -23 -8 -6 -12 -43 -13 -39 -5 -57 -38 -50 -44 -29 -25 -30 -22 -42 -26 -31 -37 -17 -40 -34 0
2 17 26 23 62 57 59 -47 -7 -61 -36 -52 -1 -28 -15 -46 -56 -40 -58 -44 -25 0
25 40 17 31 19 12 42 3 20 -8 -16 -50 -5 -15 -53 -2 -43 -24 -48 -4 -61 0
8 2 3 21 51 32 12 18 17 55 58 5 59 4 48 -63 -56 -14 -57 -15 -7 -46 -42 -41 -45 -44 -25 0
62 8 32 28 47 37 42 38 14 33 30 48 17 59 46 44 18 49 60 55 21 16 56 36 24 3 50 20 58 29 -34 -31 -12 -2 -45 -41 -13 -11 -51 -26 -22 -52 -6 -40 -43 -7 -25 -19 -27 -23 -57 -64 -39 -4 -53 -5 -15 -9 -35 -54 -61 0
23 61 49 5 45 63 57 -32 -54 -46 -11 -18 -51 -52 -40 -36 -1 -44 -35 -4 0
33 41 31 28 20 10 50 34 35 17 6 11 22 9 1 38 -21 -59 -46 -29 -7 -36 -23 -32 -26 -63 -48 -4 -51 -43 -64 -13 -18 -2 -5 -39 -55 -15 -8 -24 -61 -44 -25 -40 0
28 59 6 13 43 63 50 40 53 27 51 29 48 9 19 45 17 26 42 46 12 49 39 57 62 20 58 37 3 -56 -4 -32 -64 -52 -21 -11 -55 -25 -18 -22 -47 -61 -38 -14 -31 -16 -33 -1 -10 -8 -2 -41 -60 -15 -5 -30 -35 0
5 51 37 -38 -60 -28 -36 -34 -47 0
-58 0
41 35 20 0
52 47 25 35 46 33 23 22 7 -41 -49 -17 -1 -64 -42 -8 -6 -43 -2 -18 -39 -10 0
20 56 64 40 32 53 57 24 7 1 5 4 35 30 2 63 38 51 13 27 29 36 -15 -45 -61 -62 -31 -6 -11 -60 -55 -48 -33 -42 -46 -3 -43 -26 -50 -21 -39 -47 -16 -54 0
61 2 39 17 44 4 34 45 26 56 18 30 11 38 23 12 9 28 35 25 15 59 7 16 6 62 33 58 -43 -19 -55 -41 -53 -22 -5 -54 -27 -20 -48 -37 -21 -10 -1 -24 -40 -52 0
57 64 33 58 46 30 -6 -34 -7 -5 -61 -9 -19 0
2 60 35 57 24 31 43 1 40 3 37 19 28 7 27 14 47 55 52 16 8 56 36 5 38 12 46 61 30 45 21 -10 -41 -53 -32 -17 -59 -50 -9 -51 -20 -64 -58 -48 -39 -4 -25 -49 -54 -13 -34 -18 -23 -33 -44 -11 -63 -42 -15 0
9 35 47 7 50 45 36 3 46 30 5 6 63 38 49 25 8 21 43 64 52 22 56 53 60 44 33 28 62 18 -55 -1 -4 -27 -32 -34 -54 -37 -10 -61 -14 -42 -11 -12 -24 -16 -40 -58 -17 -19 -26 -51 -15 -48 -31 -41 -57 -13 -20 -59 -23 -29 -2 0
59 33 7 22 43 46 20 1 14 53 30 5 9 51 35 56 63 50 41 2 28 57 10 19 3 -25 -32 -38 -60 -61 -45 -44 -58 -40 -49 -62 -21 -12 -55 -37 -31 -26 -4 -48 -11 -18 0
7 57 5 60 23 30 -25 -47 -8 -37 -64 -50 -63 -16 -17 0
23 28 24 31 -13 -3 -58 -6 -4 0
45 25 54 33 14 3 12 11 48 21 63 51 43 -6 -23 -50 -24 -41 -46 -64 -15 -62 -60 -2 -35 -44 -42 0
44 -37 -53 -25 -41 -1 -27 0
56 36 49 44 32 14 1 25 47 13 41 29 30 11 -50 -51 -40 -4 -20 -22 -17 -64 0
39 16 43 4 2 41 24 57 33 9 27 37 -7 -63 -10 -49 -28 -12 -56 -47 -38 -23 -20 -26 -60 -31 -30 -13 0
48 31 27 9 41 25 20 59 15 52 2 22 56 30 6 8 43 11 32 13 53 28 57 49 64 24 35 7 63 51 -46 -17 -4 -40 -26 -45 -10 -29 -61 -39 -44 -5 -34 -33 -18 -60 0
14 61 51 28 43 19 9 4 32 58 37 44 10 49 7 -40 -17 -33 -23 -63 -26 -46 -34 -21 -2 -59 -47 -31 -50 -57 -13 -30 -27 -54 0
54 52 30 45 38 25 26 32 55 53 13 -23 -4 -40 -28 -42 -14 -1 -46 0
-8 -50 0
10 57 45 19 49 50 1 18 32 58 2 14 35 64 34 -36 -55 -56 -5 -61 -27 -33 -17 -24 -42 -54 -60 -23 -25 -39 -21 0
31 51 42 19 12 15 18 4 53 54 2 11 32 34 5 10 27 17 55 58 59 48 21 57 64 61 25 7 40 8 6 30 50 41 45 29 60 -52 -33 -44 -23 -16 -49 -37 -47 -22 -43 -24 -36 -9 -28 -3 -26 -35 -39 0
6 20 41 45 57 28 39 15 33 18 47 -26 -32 -50 -7 -51 -4 -42 -43 -19 -10 -58 -13 -34 -11 -44 -2 -61 0
56 40 34 1 3 37 25 50 61 60 10 49 58 17 -2 -27 -18 -4 -30 -32 -9 -52 -7 -22 -8 -23 -57 -54 -15 -20 -6 -11 -41 0
21 7 14 16 29 40 30 45 3 27 2 4 51 38 28 22 31 15 57 -24 -52 -54 -62 -10 -53 -64 -42 -46 -56 -5 -19 -59 -23 -18 -61 -17 -44 -58 -35 -1 -41 -20 -33 -6 -43 -26 -36 -50 -60 -49 -34 -39 -25 -13 -47 -63 -48 0
40 43 46 44 33 16 51 12 9 37 19 -14 -4 -34 -49 -52 -36 -47 -30 -8 -39 -41 -22 -25 -24 0
2 58 31 52 4 -49 -64 -47 -55 -38 -27 0
26 37 25 38 51 52 19 53 32 30 16 60 46 20 4 15 42 22 64 2 11 31 44 41 62 -13 -27 -3 -8 -39 -7 -34 -14 -29 -10 -23 -61 -17 -18 0
40 64 8 21 34 29 55 23 12 5 18 -39 -43 -27 -14 -61 -1 -37 -54 -57 -9 -50 -49 -48 -30 -6 0
47 64 27 13 15 14 3 40 22 63 55 48 29 37 31 -39 -6 -1 -30 -18 -5 -4 -16 -21 -61 -56 -17 -53 -41 -32 -58 -44 -23 -33 -46 -28 -34 -25 -10 -36 -50 0
8 45 27 53 39 57 11 29 34 51 -12 -60 -48 -33 -3 -22 -19 -1 -16 -54 0
55 40 62 29 25 47 32 36 39 6 16 43 45 -5 -60 -27 -63 -22 -54 -2 -8 -41 -21 -17 -19 -48 -53 -13 -7 -46 -52 -4 -37 -24 -50 0
18 54 2 15 16 59 55 39 5 61 38 10 8 28 50 37 60 13 34 47 64 58 9 14 36 53 29 7 23 35 -63 -52 -48 -41 -25 -17 -51 -24 -27 -4 -62 -11 -12 -1 -32 -19 -31 -20 -22 -42 -49 0
27 37 40 17 31 53 6 52 33 32 1 58 54 43 26 19 -45 -55 -59 -28 -20 -56 -3 -47 -14 -11 -62 -25 -7 -34 -50 -2 -48 -36 -9 -8 0
19 25 51 12 41 30 62 11 20 47 59 54 1 57 -45 -40 -60 -4 -32 -58 -15 -28 -36 -2 -44 0
15 42 13 39 33 45 52 36 23 59 54 60 11 24 41 4 32 31 63 6 64 2 25 -5 -46 -48 -17 -7 -43 -16 -34 -57 -26 -29 -35 -22 -55 -61 -37 -47 -53 -8 -21 -51 -18 -49 -27 -28 -1 -62 -20 0
39 25 36 9 62 32 42 41 47 45 -24 -56 -52 -10 -46 -27 -33 -23 -1 -59 0
11 29 4 60 15 42 12 61 20 52 57 34 62 35 33 3 63 17 53 5 58 44 43 59 10 24 -56 -32 -50 -46 -39 -28 -16 -8 -1 -23 -7 -54 -37 -27 -9 -18 -2 -55 -14 -38 -48 -36 -64 -31 -22 -49 -51 -25 -6 -40 -13 -19 -47 0
40 32 28 44 25 12 26 38 22 8 24 7 -53 -52 -20 -57 -9 -3 -48 -54 -39 -42 0
61 54 6 40 3 7 4 31 14 23 38 60 39 10 48 12 16 37 46 63 -11 -18 -64 -35 -5 -52 -28 -57 -33 -56 -47 -41 -51 -44 0
52 21 25 60 4 64 10 50 29 41 38 57 17 39 9 44 46 8 26 -13 -16 -35 -37 -36 0
60 32 3 59 31 62 29 27 6 15 23 51 -45 -39 -50 -14 -48 -41 -38 -54 -20 -18 -43 -57 0
45 64 34 50 60 31 37 30 55 25 18 5 8 26 21 59 61 7 42 54 33 13 3 35 1 -22 -16 -62 -52 -24 -49 -40 -27 -20 -6 -28 -2 -51 -15 -46 -47 -10 -4 -11 -57 -44 -36 -19 -43 -48 -38 -9 -14 -17 -63 -53 -12 -39 -23 0
62 60 20 56 32 37 12 54 26 27 36 31 1 18 58 17 2 23 40 13 25 9 19 49 43 -48 -30 -22 -46 -24 -11 -3 -33 -64 -41 -63 -8 -29 -34 -57 -51 -6 -50 -42 -21 -39 -35 -59 -10 -4 -45 -7 -44 -52 -61 -5 -14 0
9 33 61 28 32 24 31 48 45 59 35 34 62 39 41 21 49 17 26 38 55 8 14 -44 -58 -52 -56 -5 -43 -23 -53 -20 -6 -60 -29 -27 -37 -57 -51 -2 -36 -64 -40 -3 -22 0
32 28 26 47 37 55 42 14 5 1 39 57 27 54 -11 -2 -20 -4 -58 -53 -48 -19 -30 -31 0
46 38 43 29 47 2 53 62 20 17 35 19 45 8 60 48 42 5 22 24 56 33 16 -63 -40 -15 -13 -10 -51 -12 -44 -58 -52 -28 -34 -55 -9 -61 -21 -3 -26 -31 -14 -49 -36 -7 -32 -59 -25 -11 0
4 58 35 49 55 21 19 30 52 27 59 54 47 34 22 7 -53 -56 -44 -23 -60 -10 -40 -13 -32 -14 -48 -51 -3 -31 -63 0
31 3 30 53 28 42 5 52 14 54 49 40 22 55 16 35 2 9 47 18 64 32 29 58 17 24 12 6 -39 -21 -44 -10 -61 -20 -15 -37 -33 -19 -56 -27 -46 -13 -4 -7 -57 -1 -8 -43 -36 0
39 14 57 26 42 6 32 61 23 55 31 54 52 38 -34 -10 -24 -63 -35 -58 -9 -50 -62 -49 -64 -41 -4 -29 -7 -18 -60 0
27 7 17 24 34 22 13 1 2 48 47 30 42 32 51 33 29 23 46 8 6 35 31 16 63 55 37 19 60 57 53 62 11 59 38 -36 -44 -39 -43 -54 -40 -26 -9 -15 -20 -28 -56 -45 -49 -41 -3 -58 -64 -50 -10 -5 -21 -61 0
28 9 44 45 63 52 24 8 36 10 17 27 54 60 39 -35 -22 -12 -11 -32 -34 -47 -48 -53 -26 -21 -57 -31 0
9 59 26 55 20 28 8 42 27 64 18 54 11 6 47 25 41 31 29 57 50 1 12 -52 -53 -15 -45 -40 -3 -5 -48 -43 -58 -56 -60 -39 -35 -30 -23 -38 -44 0
58 62 1 29 26 20 5 12 31 48 32 -24 -63 -38 -4 -49 0
62 37 45 2 23 47 51 64 46 50 28 3 12 27 18 17 35 21 16 26 33 43 1 5 60 48 53 14 40 49 25 11 4 56 63 -36 -15 -58 -39 -44 -30 -10 -8 -6 -34 -52 -24 -7 -61 -59 -13 -41 -22 -9 -38 -32 -54 -55 -31 -20 -19 -29 -42 0
17 62 3 47 1 -14 -16 -25 0
44 34 24 -32 -13 -53 -57 0
9 52 39 18 64 45 27 51 56 40 -17 -35 -30 -36 -26 -55 -44 -2 0
33 17 26 24 54 16 55 59 44 47 58 35 49 63 52 9 23 12 25 28 53 1 7 5 -40 -11 -3 -31 -57 -30 -46 -62 -60 -13 -34 -37 -8 -50 -61 -18 -6 -15 -48 -38 -10 -27 -22 -20 -41 0
59 24 33 37 13 23 30 18 54 48 51 49 16 62 36 2 56 47 7 26 35 32 52 11 -1 -60 -50 -8 -45 -43 -58 -20 -29 -31 -40 -4 -25 -63 -15 -9 -61 -27 -53 -21 -17 -5 -3 0
36 27 30 18 51 11 41 2 44 40 25 15 37 63 6 54 60 48 8 58 29 24 31 17 9 14 -12 -38 -22 -53 -33 -34 -61 -19 -52 -4 -23 -13 -62 -43 -49 -46 -16 -5 -56 -45 -28 -39 -20 0
49 25 50 43 38 17 16 12 61 31 47 40 -33 -52 -1 -48 -3 -35 -13 -51 -5 -55 -58 -64 -57 -2 -10 -32 -53 -29 -44 -24 -34 -60 -46 -8 -9 -6 -11 -41 0
10 60 28 32 24 63 40 41 50 33 11 26 64 8 39 62 13 47 14 1 46 -36 -20 -49 -17 -35 -21 -4 -43 -51 -12 -53 -45 -44 -31 -27 -16 -37 -54 -18 -48 -55 0
37 55 52 -63 0
38 17 39 51 30 13 56 31 6 16 -20 -47 -28 -23 -25 -58 0
31 15 7 21 56 64 37 36 42 26 52 48 -1 -54 -49 -39 -13 -9 -25 -20 -22 0
43 59 19 33 28 57 30 17 -3 -14 -1 -48 -16 -40 0
1 37 10 33 7 22 -64 -42 0
10 42 54 55 15 19 6 16 33 59 31 61 26 29 32 48 44 49 46 41 18 8 17 40 1 64 7 37 45 -38 -27 -58 -57 -21 -12 -24 -5 -4 -34 -43 -36 -9 -56 -50 -51 -25 -53 -60 -13 -47 -3 -62 -63 -39 -30 0
50 15 38 12 42 54 14 11 40 55 23 47 29 20 45 32 -57 -33 -53 -60 -9 -16 -63 -61 -1 -41 -59 -49 -21 -46 0
26 48 56 24 18 34 14 35 15 11 8 16 3 27 37 55 20 5 31 61 9 44 17 -64 -40 -30 -12 -47 -2 -33 -49 -28 -57 -10 -38 -63 -54 -60 -50 -23 -52 -42 -22 -41 -62 -46 -53 -36 -29 -39 -43 -13 -59 -32 -7 -4 -51 -25 -21 -19 0
32 -12 -56 -1 -41 -5 -25 -34 0
63 55 42 44 14 13 26 57 40 52 45 19 41 8 37 43 53 64 62 50 54 30 10 58 18 17 16 27 22 -34 -35 -4 -33 -46 -49 -25 -47 -28 -11 -48 -24 -29 -38 -56 -39 -6 -21 -31 -5 -12 -15 -2 -1 -20 -51 -23 -3 -61 -59 -36 0
51 55 21 38 54 50 20 41 13 52 22 10 58 62 -7 -53 -39 -28 -3 -12 -4 -15 -11 -31 -23 -43 -27 -46 -24 -34 -44 -26 0
34 62 41 -40 0
5 45 27 21 40 3 30 51 44 53 24 59 -17 -35 -60 -55 -6 -41 -13 -64 0
20 17 31 37 18 12 25 4 42 35 24 32 2 8 40 58 30 49 57 6 60 62 -59 -3 -47 -55 -28 -15 -46 -61 -51 -11 -53 -50 -14 -26 -52 -38 -34 -5 -23 -19 -36 -9 -29 -27 -7 -1 -39 -41 -10 0
62 50 23 48 13 63 17 30 33 16 -37 -38 -40 -3 -55 -29 -61 -53 -58 -8 -18 0
27 3 34 35 46 53 59 16 1 11 37 2 42 -63 -28 -19 -58 -22 -47 -12 -36 -39 -21 -18 -41 -55 -51 -7 -64 0
27 19 48 16 39 59 10 4 -47 -22 -50 -25 -34 -62 -31 -30 -43 -37 -53 -61 -63 -12 -52 0
63 9 53 48 38 62 56 45 19 25 16 46 3 4 30 24 5 20 43 64 6 55 -42 -51 -27 -37 -34 -33 -11 -49 -40 -50 -54 -41 -36 -31 -60 -15 -52 -17 -58 -47 -28 -59 -61 0
8 25 59 54 52 10 29 58 34 15 28 12 53 33 23 32 47 40 31 27 64 2 24 39 45 43 21 -42 -22 -7 -11 -4 -1 -48 -63 -44 -6 -35 -26 -49 -62 -17 -38 -5 -60 -3 -16 0
47 14 53 7 -24 -63 -13 -57 -17 -22 -16 -48 0
51 50 46 56 53 37 20 55 64 60 34 16 32 45 47 11 40 14 -39 -33 -7 -36 -4 -9 -29 -3 -43 -23 -2 -57 -48 -26 -15 -63 -17 -13 -49 -10 -44 0
39 -2 -31 -8 -15 -49 -58 0
34 17 51 56 46 9 13 12 49 45 16 -2 -61 -50 -20 -7 -14 -35 -24 -32 -15 -55 -58 -43 0
39 40 27 55 50 13 -30 -42 -59 -54 -49 -63 -38 -48 -1 0
44 57 51 56 45 59 21 15 34 43 49 27 10 38 31 7 12 54 6 33 -23 -46 -5 -25 -20 -29 -41 -36 -17 -50 -52 -63 -30 -16 -13 -39 -8 0
59 61 28 64 3 42 20 -25 -5 -57 -2 -39 -14 -16 -52 -8 0
64 6 58 11 52 8 29 4 50 33 35 44 62 59 32 54 21 22 49 60 3 48 36 43 9 31 15 38 25 42 17 -1 -7 -34 -41 -23 -30 -12 -20 -13 -55 -63 -39 -53 -14 -28 -27 -16 -5 -26 -40 -2 -56 -51 -37 -18 -46 -24 -10 0
60 5 32 4 62 6 23 14 45 27 42 11 47 35 48 37 1 55 39 46 41 -24 -57 -19 -36 -49 -30 -13 -43 -61 -54 -53 -12 -33 -20 -18 -25 -29 -10 -26 -38 -9 -7 0
7 37 59 63 35 46 64 15 33 24 20 32 -12 -58 -21 -17 -28 -5 -1 -2 -41 -49 -23 -3 0
19 52 10 11 41 47 20 7 17 31 36 23 57 27 54 35 22 2 42 3 62 34 9 53 16 59 64 4 44 48 8 32 33 -51 -56 -13 -49 -40 -14 -50 -55 -39 -26 -15 -29 -12 -63 -61 -6 -24 -46 -43 -28 -21 -60 -1 -38 -25 -18 -5 0
3 32 19 9 -62 -21 -13 0
50 2 7 42 5 52 4 11 60 40 3 43 59 17 -8 -1 -36 -46 -41 -51 -26 -24 -31 -10 -30 -56 -37 0
15 34 9 3 36 17 54 2 52 19 56 41 61 10 4 30 49 28 42 18 25 12 23 -44 -1 -43 -50 -26 -33 -39 -24 -32 -16 -35 -46 -14 -8 -58 -62 -13 -57 -11 -31 -22 -38 -47 -29 -63 -20 -48 -60 -51 -55 -53 -40 -45 0
35 47 21 33 4 29 38 14 2 52 26 61 64 43 44 50 3 34 8 48 15 55 40 6 11 -1 -9 -51 -7 -54 -36 -31 -53 -32 -24 -28 -60 -63 -5 -46 -57 -39 -45 0
59 62 35 38 53 15 32 28 60 21 43 12 58 26 52 42 46 25 41 24 4 13 7 11 31 -29 -40 -19 -30 -27 -33 -61 -49 -45 -8 -54 -10 -14 -16 -48 -9 -56 -47 -55 -51 -5 -50 -17 -2 -37 -3 -36 -23 -63 -18 0
20 7 51 24 27 6 19 10 38 35 62 57 28 54 31 56 1 -3 -13 -48 -59 -9 -25 -18 -44 -36 -2 -43 -34 -11 -52 -39 -49 -46 -4 -33 -64 -37 -45 0
34 2 56 29 46 1 21 40 24 44 14 9 36 22 49 7 55 26 54 -38 -63 -59 -23 -5 -11 -60 -64 -6 -57 -20 -51 -32 -27 -42 -35 -19 -62 -4 -28 -37 -10 -58 -39 -15 -3 -30 0
37 19 6 34 17 11 35 41 5 52 18 33 20 47 9 61 -4 -28 -64 -40 -51 -55 -12 -3 -39 -30 -42 -16 -54 -2 0
46 23 1 30 20 5 43 -24 -56 -51 -34 -41 -15 -4 0
42 52 2 26 60 24 61 54 3 59 36 57 38 4 15 28 35 -33 -27 -19 -50 -22 -32 -64 -34 -37 -39 -58 -43 0
64 1 7 30 42 13 5 19 54 56 14 46 32 22 12 33 51 15 10 28 31 4 9 18 6 63 2 61 48 37 27 -57 -44 -49 -52 -62 -8 -36 -24 -21 -50 -16 -59 -25 -23 -29 -55 -38 -39 -3 -47 -20 0
8 48 37 -19 -6 0
22 30 -31 -34 -60 0
13 24 64 14 50 51 48 15 36 11 28 35 22 25 17 18 -41 -55 -43 -40 -19 -16 -60 -26 -58 -29 -30 0
37 58 -40 -28 -3 -15 -14 0
10 26 35 40 38 33 -31 -57 -2 0
7 12 34 42 58 19 51 28 64 1 45 41 39 47 60 54 16 33 18 4 29 53 15 49 36 61 22 44 57 -50 -6 -55 -23 -11 -32 -37 -43 -5 -27 -20 -35 -2 -52 -3 -8 -9 -26 -46 -62 -14 -13 -38 -56 0
52 38 8 5 51 57 22 46 4 53 1 49 34 32 6 24 31 12 9 28 16 -27 -35 -37 -11 -47 -13 -62 -50 -45 -44 -61 -21 -48 -20 -23 -36 -3 0
35 50 16 52 33 22 58 14 59 43 54 -55 -37 -30 -27 -29 -6 -20 -28 -26 0
9 36 31 10 33 13 3 57 21 6 61 39 38 49 23 43 27 59 56 24 42 62 8 1 2 20 11 -35 -41 -52 -47 -53 -28 -40 -45 -50 -55 -18 -37 -14 -16 -44 -64 -48 -12 -30 -60 -7 -54 -15 0
63 23 17 48 9 51 -44 -43 -22 -60 -28 -58 -33 0
43 7 46 53 47 2 45 39 10 56 59 32 24 11 58 27 36 49 62 9 48 22 4 19 20 -16 -15 -29 -13 -64 -14 -55 -35 -30 -57 -17 -51 -33 -37 -40 -61 -1 -54 -18 -63 -3 -44 -8 -34 -38 -5 -6 0
35 4 11 22 55 39 51 14 8 43 48 41 63 10 30 52 25 59 46 32 64 58 37 24 38 47 13 28 21 -15 -53 -31 -23 -29 -18 -19 -7 -27 -44 -42 -45 -40 -34 -17 -20 -3 -62 0
1 36 25 45 60 22 -56 -48 -53 -37 -64 -34 -40 -44 -58 -52 -23 -16 -4 0
56 2 22 21 19 52 20 27 58 48 38 43 23 49 10 4 6 25 54 63 16 13 9 29 61 31 -34 -42 -3 -45 -40 -36 -33 -5 -35 -55 -17 -51 -12 -39 -41 -15 -57 -64 0
64 -47 -1 0
20 27 60 57 26 15 12 14 56 42 39 54 63 52 10 25 50 28 31 36 55 48 43 38 58 62 -5 -33 -30 -9 -46 -35 -61 -13 -4 -17 -44 -18 -40 -45 -7 -37 -53 -59 -64 -19 -3 -11 -47 -41 0
8 22 60 7 31 63 56 52 45 37 48 53 23 58 39 29 13 62 44 19 10 49 9 51 -18 -47 -16 -50 -33 -25 -12 -64 -59 -2 -38 -42 -27 -6 -17 -28 -61 -35 -21 -1 -24 -32 -26 -43 -40 -55 -41 -46 0
35 52 61 55 3 41 53 34 50 4 49 10 28 29 63 38 24 43 48 31 23 20 11 56 1 22 -57 -16 -37 -42 -12 -5 -36 -39 -40 -59 -54 -46 -9 -26 -62 -60 -25 -13 -51 -15 -21 -8 0
54 -42 -4 0
26 58 42 60 51 32 7 34 48 24 25 46 53 64 52 31 39 16 1 13 -47 -17 -21 -12 -28 -57 -23 -62 -59 -19 -15 -29 -45 -63 -56 -2 0
14 51 57 59 44 9 18 43 64 54 62 6 29 19 -46 -24 -47 -42 -58 -48 -33 -10 -25 -20 -30 -50 -28 -26 -17 -56 -36 -12 -40 -16 -52 -27 -7 -2 -37 -34 -8 0
1 35 62 15 49 63 19 23 17 61 20 53 13 32 -59 -26 -27 -39 -5 -36 -9 -55 -6 -2 -44 -43 -38 -46 -21 0
29 30 64 49 25 37 20 31 34 48 54 28 15 9 1 52 11 63 10 7 41 60 51 43 -8 -58 -21 -14 -12 -26 -42 -3 -17 -62 -23 -59 -32 -6 -5 -47 -44 -27 -40 -61 -36 -57 -19 -46 -45 -33 -35 -53 -39 -18 -38 -50 -55 -24 -22 -13 -2 0
14 24 37 26 11 23 40 50 55 18 35 62 39 12 17 27 -41 -47 -6 -9 -25 -52 -53 -43 -60 -57 -31 -2 -42 -48 -8 -20 -58 -33 -16 -15 -34 -4 -46 -54 -13 -22 -59 -3 -36 -61 -49 -30 -64 -21 -63 -32 0
34 27 52 16 6 40 3 59 64 47 29 44 57 54 8 55 15 41 21 48 28 26 33 23 5 4 38 63 53 -14 -36 -24 -2 -43 -56 -51 -9 -20 -17 -19 -42 -32 -50 -58 -11 -35 -10 -45 -49 0
52 15 26 48 7 31 60 63 27 61 22 20 23 64 41 43 1 13 58 50 34 49 2 44 17 10 59 25 11 54 28 36 53 6 12 55 5 -24 -21 -40 -33 -3 -35 -56 -32 -45 -4 -18 -38 -30 -42 -9 -19 -62 -14 -16 -46 -8 -37 -51 -57 -29 -47 0
16 6 47 50 14 17 35 36 43 40 26 12 27 29 23 3 52 57 31 28 44 32 25 11 2 19 8 55 33 58 13 -53 -24 -30 -49 -46 -1 -7 -61 -41 -39 -22 -60 -51 -56 -38 -64 -59 -63 -45 -5 0
40 31 35 20 32 41 6 2 19 12 64 38 4 23 26 14 16 47 21 25 43 -63 -42 -59 -60 -27 -1 -61 -49 -10 -3 -44 -13 -45 0
2 51 40 64 63 39 43 61 55 15 11 56 57 60 46 17 27 59 22 4 21 45 35 50 48 8 -6 -3 -18 -16 -42 -52 -10 -25 -37 -12 -13 -38 -49 -1 -54 -32 -29 -31 -44 -9 -41 -14 -30 -28 -26 -5 0
43 12 53 36 18 44 59 26 -11 -50 -31 -57 -5 -46 -30 -28 0
24 3 20 38 52 43 37 42 12 33 44 4 1 55 5 -29 -51 -35 -17 -58 -48 -49 -21 -41 -61 -63 -8 -13 -15 -7 -30 -19 -14 -32 -62 -57 -40 0
60 47 52 31 36 3 57 4 19 -45 -28 -33 -49 -54 -21 -8 0
2 32 50 53 37 5 55 17 41 49 47 24 23 58 36 -38 -61 -40 -12 -48 -3 -42 -44 -30 -29 -10 -45 -20 -25 -60 -63 -11 -43 0
64 11 30 2 5 8 15 23 39 7 61 35 -28 -6 -3 -58 -45 -13 -19 0
14 42 4 6 56 27 15 45 64 38 22 40 58 33 43 23 21 62 11 29 53 37 24 47 35 12 31 -2 -13 -41 -30 -39 -16 -52 -59 -9 -44 -28 -25 -55 -51 -46 -19 -36 -60 -5 -17 -48 -1 -32 -18 -54 -10 -34 -3 -20 -8 -63 -7 0
17 55 42 10 13 58 48 57 53 19 40 54 41 31 1 26 36 12 61 27 35 22 60 32 49 59 46 4 -39 -3 -24 -34 -23 -18 -29 -28 -5 -64 -38 -8 -25 -15 -52 -7 -9 -56 -16 -44 -62 -33 -47 -45 -14 -2 -21 -11 0
14 18 52 23 44 60 22 35 55 11 9 37 45 61 48 57 -59 -15 -19 -46 -64 -32 -50 -41 -63 -3 -62 -51 -42 -20 -58 -39 -17 -12 -1 -21 -24 -27 -2 -38 -26 0
35 28 7 61 10 32 54 48 30 4 44 64 22 13 53 12 27 21 11 19 36 1 23 62 29 34 56 20 59 17 57 31 24 43 49 -9 -6 -15 -39 -38 -42 -40 -63 -55 -60 -18 -37 -26 -46 -3 -5 -52 -2 -47 -58 -16 -33 -50 -45 -41 0
51 49 28 12 29 9 26 38 35 15 14 32 54 -10 -22 -55 -21 -19 -60 -63 -7 -39 -46 -64 -18 -40 -17 -52 -45 -43 -36 -24 -4 0
43 42 1 59 8 27 63 64 21 -26 -28 0
10 61 7 3 60 11 6 1 64 22 58 23 55 51 40 46 48 14 17 8 44 28 27 43 47 31 20 -53 -41 -49 -57 -9 -34 -12 -29 -38 -32 -5 -63 -50 -18 -39 -62 -42 -36 -54 -25 -13 -2 -15 -4 -45 -19 -33 -26 -59 0
26 4 38 16 5 58 37 29 46 53 48 10 36 18 21 63 2 59 31 12 60 -11 -17 -50 -57 -6 -39 -47 -14 -54 -51 -42 -7 -8 -40 -56 -22 -30 -41 -28 -35 -27 -44 -32 -52 -25 0
28 20 26 59 2 18 24 43 60 11 62 55 38 12 15 57 42 44 13 49 29 8 53 -51 -52 -5 -36 -41 -16 -3 -45 -21 -6 -9 -33 -50 -32 -56 -27 -48 -23 -40 -14 -25 -30 -63 -64 -35 -47 -10 -37 -19 -34 0
31 38 13 27 54 23 30 45 53 44 58 46 36 11 -48 -18 -16 -37 -40 -52 -4 -41 -60 -29 -42 -26 0
3 52 22 41 4 21 61 1 40 33 6 53 7 20 39 17 23 32 62 56 18 36 38 59 9 2 5 42 11 48 46 44 16 -49 -25 -55 -28 -60 -34 -50 -58 -19 -54 -14 -12 -31 -45 -26 -64 -30 -35 -47 -10 -51 -24 -57 -8 -13 0
4 39 16 40 30 45 14 17 51 -21 -10 -42 -55 -1 -9 0
2 3 4 39 44 35 56 41 38 10 18 -8 -12 -43 -22 -63 -42 -49 -52 -15 -26 -20 -31 -53 -17 -55 0
17 58 31 16 51 56 44 43 35 15 22 57 42 7 19 12 60 24 6 18 27 53 8 -47 -55 -20 -21 -32 -62 -50 -59 -63 -10 -5 -64 -13 -45 -36 -49 -29 -34 -30 -9 -46 -3 -52 -11 -2 -25 0
34 36 30 61 28 21 22 16 51 6 33 9 63 7 50 4 19 38 26 15 -45 -60 -8 -43 -29 -55 -25 -31 -49 -54 -1 -24 -44 -40 -32 -3 -39 -11 0
14 57 31 5 33 22 50 60 4 27 1 48 3 18 11 42 9 58 32 43 25 6 -45 -40 -21 -37 -15 -44 -39 -35 -13 -17 -64 -53 -20 -30 -16 -56 -23 0
32 5 52 59 53 19 35 3 45 1 43 16 11 21 48 10 23 60 12 26 42 8 6 27 -20 -38 -31 -4 -36 -51 -44 -14 -64 -15 -34 -62 -29 -50 -17 -24 -2 -39 -40 -37 -9 -47 -46 0
45 54 6 31 29 59 5 43 49 27 26 62 11 48 63 10 47 40 22 57 64 -4 -51 -37 -19 -18 -13 -28 -3 -35 -21 -60 -8 -38 -50 -36 -15 0
3 55 62 40 61 14 42 63 47 36 31 44 60 10 53 57 19 -41 -50 -27 -64 -15 -37 -22 -52 -17 -5 -46 -58 -30 -20 -48 -2 -51 -6 -38 0
20 40 48 51 49 33 16 31 9 24 45 23 8 44 21 1 52 3 38 36 -41 -5 -60 -2 -10 -54 -18 -46 -58 -34 -30 -29 -19 -57 -32 -42 -35 -61 -25 -64 -59 -62 -14 -55 -22 -28 -50 -15 -11 0
31 36 47 50 53 56 42 13 -45 -21 -26 -57 -55 -64 -16 -15 -18 0
3 14 50 21 47 42 20 59 33 30 62 15 9 39 7 26 54 6 60 55 24 -45 -25 -19 -23 -38 -41 -40 -17 -56 -29 -43 -57 -27 -18 -46 -51 -48 -58 0
35 21 5 -19 -59 -10 -42 -23 -33 -9 -45 -12 0
43 41 52 55 47 30 40 34 18 45 22 12 49 36 46 39 25 27 2 15 56 63 -19 -17 -32 -7 -62 -4 -8 -57 -33 -53 -60 -10 -51 -58 -44 -3 -24 0
41 36 42 46 39 8 26 25 49 28 21 29 37 52 -12 -64 -34 -45 -15 -53 -2 -9 -56 -6 -44 -19 -33 -47 -3 -31 -51 -40 -27 -20 -59 -50 -22 -17 -23 -35 -48 -7 -16 -54 -32 0
49 46 1 6 23 40 18 62 26 32 3 24 14 21 30 16 9 63 50 56 54 13 51 39 29 19 11 15 -22 -55 -4 -36 -28 -27 -52 -58 -31 -44 -42 -25 -64 -34 -20 -48 -38 -57 -37 -41 -2 0
13 9 41 16 64 26 29 54 15 52 10 17 5 58 -46 -49 -33 -24 -30 -53 -8 -35 -4 -28 -43 -40 -37 -51 -20 0
5 47 4 24 29 46 1 25 61 10 11 56 6 55 52 3 23 20 40 2 22 44 12 34 28 36 63 -32 -26 -13 -8 -58 -19 -43 -27 -50 -9 -17 -62 -21 -48 -15 -37 -14 -42 -41 -35 -45 -59 -39 0
30 32 2 57 58 37 6 14 -9 -10 -56 0
3 59 23 4 22 8 37 12 19 34 44 9 52 20 64 56 14 63 49 18 16 54 27 -57 -39 -42 -46 -10 -48 -11 -62 -40 -26 -61 -21 -30 -33 -58 -7 -2 -25 -32 -41 -55 -29 -53 -1 -38 -47 -28 -24 -36 -15 0
60 57 15 17 38 35 54 55 53 45 43 30 52 64 61 29 49 39 32 8 16 62 -58 -9 -4 -2 -41 -59 -12 -7 -23 -28 -34 -18 -36 -21 -20 -63 -5 0
4 29 54 53 22 36 48 58 7 35 13 25 1 -52 -39 -8 -51 -46 -33 -42 -40 -28 -12 -2 -26 -18 -11 -5 -31 -19 0
4 43 39 57 42 12 25 18 29 -26 -32 -44 -17 -64 0
55 48 26 43 13 -18 -61 -36 -52 -51 -56 -45 -53 0
39 53 18 37 12 2 27 11 38 28 56 40 20 19 6 16 31 29 47 3 46 14 33 57 34 44 23 41 17 1 48 10 -49 -61 -55 -8 -54 -35 -51 -25 -52 -24 -5 -59 -58 -36 -42 -22 -30 -45 -21 -15 -13 -63 -9 -62 -43 -50 -60 0
17 39 26 64 7 21 14 58 20 24 50 57 33 25 35 31 5 52 12 42 60 18 2 45 28 36 10 59 11 15 32 -48 -37 -3 -22 -16 -51 -56 -55 -61 -9 -4 -13 -47 -40 -8 -38 -19 -29 -62 -63 -1 -27 -53 -30 0
23 17 24 29 47 28 -20 -41 0
28 18 17 24 53 19 26 15 2 31 1 46 45 42 63 35 64 61 20 8 11 25 52 51 62 4 22 7 6 36 27 33 40 -29 -13 -9 -30 -50 -32 -47 -12 -57 -37 -54 -3 -10 -38 -60 -59 -34 -58 -16 -48 -49 -41 -23 -43 -55 -14 -56 0
57 58 37 -43 -2 -31 -33 0
11 61 56 38 13 29 14 9 53 51 60 31 25 35 27 30 28 2 58 19 62 55 39 24 33 48 41 37 42 1 -22 -23 -44 -7 -6 -52 -50 -3 -4 -45 -40 -47 -34 -63 -5 -20 -59 -12 -17 -21 -46 -49 0
24 17 3 28 49 13 33 23 15 42 47 44 29 11 27 10 56 20 61 55 19 57 40 39 45 18 25 37 34 62 41 50 -22 -43 -35 -63 -16 -6 -31 -38 -51 -21 -14 -58 -26 -64 -5 -8 -7 -2 -60 -46 -30 -48 -12 -1 -54 -53 -4 -32 -59 -9 0
23 36 6 18 9 21 3 31 52 16 35 37 12 45 14 60 34 27 20 7 -56 -55 -22 -41 -42 -61 -19 -43 -63 -2 -53 -33 -11 -15 -10 -24 -39 -32 -51 -29 -54 0
14 33 43 19 51 58 59 29 45 2 -35 -50 -13 -37 -22 -8 -4 -23 -55 -28 -32 -62 -46 0
-56 -14 -62 -40 -17 -13 -22 -8 -42 -9 -46 -27 -21 0
28 41 63 10 18 50 32 26 16 48 60 35 30 49 53 27 12 -56 -13 -40 -42 -36 -24 -14 -52 -15 -43 -5 -34 -37 -19 -25 -4 -22 -3 -62 -45 -47 -20 -59 -51 0
45 9 17 32 48 29 10 46 53 63 2 61 51 43 19 34 5 57 13 38 22 25 47 59 40 27 11 -50 -30 -26 -14 -31 -56 -23 -52 -36 -20 -6 -37 -12 -18 -15 -21 -4 -60 -58 -39 -41 -7 -62 0
55 50 28 48 13 34 26 24 57 56 7 8 40 17 42 64 -45 -2 -19 -38 -25 -10 -33 -39 -20 -53 -54 -29 -44 -31 -18 -58 -35 -41 -46 -27 -22 -36 -5 -43 -1 0
17 4 7 -61 -11 -58 0
62 36 11 1 46 9 18 35 23 29 52 27 16 60 5 54 26 -47 -55 -7 -33 -45 -17 -40 -31 -13 -38 -57 -3 -2 -14 -24 0
46 14 19 33 4 3 52 42 -34 -62 -27 -22 -8 0
16 47 12 6 29 59 43 39 21 8 62 22 53 -10 -55 -20 -60 -30 -61 -17 -15 -44 -36 -26 -23 -64 -14 0
57 51 38 18 64 11 25 56 10 29 21 46 58 49 41 15 -5 -40 -62 -63 -60 -32 -9 -26 -36 -61 -7 -37 -30 -43 -45 -8 -55 -17 -3 -19 -48 -39 -35 -52 -27 0
61 56 38 9 4 60 8 14 33 59 55 62 37 -29 -52 -41 -19 -49 -39 -53 -7 -32 -58 -47 -45 -36 -43 -35 -12 -5 -28 -48 0
16 19 63 13 4 14 53 39 62 12 48 30 35 3 52 27 47 49 36 -33 -24 -40 -6 -15 -56 -23 -2 -58 -55 -57 -50 -11 -64 -32 -59 -37 -7 -10 -46 -22 -25 -8 -54 -5 -29 0
41 9 52 11 25 10 51 23 -5 -59 -37 -6 -64 -43 -63 -34 -60 -19 0
24 51 27 21 35 8 55 46 5 53 38 9 36 10 62 26 22 18 -4 -37 -19 -42 -1 -50 -32 -57 -16 -63 -3 -7 -40 -28 -52 -33 0
17 21 9 31 46 36 32 -12 -62 -48 -57 -35 -55 0
42 46 64 30 27 11 41 3 10 53 8 35 1 -58 -5 -25 -51 -2 -50 -39 -28 -19 -43 -59 -22 -60 -56 -33 -26 -29 -55 0
37 17 45 3 53 5 41 -61 -12 -28 -23 0
41 42 57 5 12 17 9 4 22 -33 -26 -11 -50 -2 -21 -35 0
62 3 36 10 15 47 60 48 14 19 18 17 55 -30 -63 -34 -7 -27 -33 -45 -22 0
24 56 47 8 32 35 42 10 43 34 17 58 25 36 59 49 33 37 45 4 22 54 31 62 1 39 44 26 51 3 20 7 -48 -5 -50 -57 -16 -53 -15 -23 -30 -13 -38 -14 -2 -12 -19 -27 -63 -21 -9 -61 -41 -55 -29 -52 -46 -18 -60 -28 0
16 4 54 36 53 49 21 7 39 10 27 11 25 2 -59 -60 -52 -45 -62 -38 -57 -64 -23 -44 -34 -28 -63 -19 -41 -9 -35 -12 -40 -43 0
63 6 36 55 56 61 16 39 18 38 33 49 29 60 10 20 50 57 14 54 27 45 43 51 53 19 -7 -46 -1 -47 -59 -12 -9 -62 -52 -42 -5 -28 -34 -24 -58 -35 -32 -31 -37 0
61 46 42 4 53 64 -44 -22 -18 -16 -15 -47 -37 -58 -5 -59 -6 0
28 3 48 22 4 42 62 7 32 6 24 25 10 16 5 9 -55 -38 -21 -12 -49 -53 -34 -29 -26 -52 -63 -58 -20 0
8 46 31 45 11 53 15 61 52 17 -64 -20 -55 -22 -42 -21 -40 -19 0
54 10 15 25 37 64 30 43 38 57 26 19 46 58 31 17 8 33 39 3 42 60 53 61 24 12 16 5 7 20 4 50 47 23 13 48 45 36 1 -6 -63 -52 -2 -59 -40 -55 -21 -56 -29 -14 -34 -44 -35 -28 -62 -11 -41 -51 -49 -9 -22 -27 -18 0
29 46 9 30 20 3 19 59 16 23 2 55 8 22 6 48 11 63 17 14 36 33 53 15 18 44 50 42 60 21 -49 -37 -7 -12 -10 -64 -57 -52 -25 -5 -31 -54 -47 -28 -26 -56 -61 -1 -41 -39 -62 -32 -24 -58 -40 -34 -13 -51 -43 -38 -45 0
60 63 25 62 15 18 26 4 57 51 45 27 46 61 17 40 22 13 20 49 31 28 42 9 2 35 43 1 32 -16 -56 -48 -39 -33 -47 -21 -7 -11 -37 -23 -14 -53 -10 -3 -29 -50 -8 -30 -54 -55 0
53 33 28 7 26 57 10 64 25 44 62 20 16 23 24 59 42 51 55 30 37 46 19 -9 -17 -27 -21 -1 -5 -35 -31 -54 -22 -38 -40 -39 -45 0
57 23 42 48 56 3 26 62 8 15 40 36 38 43 63 -44 -30 -10 -37 -59 -4 -34 -6 -64 -5 -31 -55 -51 -47 -58 0
29 30 3 38 18 24 19 14 39 26 36 64 42 9 43 7 53 2 -20 -4 -12 -17 -62 -6 -41 -58 -45 -37 -16 -13 -60 -52 -25 -8 -11 -46 -47 -35 -1 -23 -34 -63 0
5 17 22 25 11 34 64 48 6 33 36 56 31 27 13 49 20 15 63 16 14 54 12 45 47 44 58 39 -18 -2 -24 -57 -29 -43 -37 -3 -38 -62 -28 -21 -40 -50 -61 -7 -8 -59 -55 -1 -9 -23 -32 -19 -41 -4 -60 -46 -53 -30 -35 0
4 60 31 44 59 29 7 33 1 15 28 19 41 24 34 30 5 14 57 21 3 38 64 20 12 17 53 45 39 52 62 8 18 -13 -2 -56 -47 -40 -50 -6 -37 -9 -46 -49 -10 -25 -27 -63 -16 -54 -61 -11 -58 -23 -36 0
20 6 1 7 54 10 29 61 15 64 34 27 26 28 9 32 33 51 5 24 46 14 -25 -37 -16 -13 -38 -17 -31 -22 -19 -50 -30 -42 -41 -39 -52 -59 -45 -18 -2 -3 -49 -11 -4 0
57 34 11 55 42 45 19 33 1 54 16 6 62 41 35 13 52 22 50 23 48 5 61 4 15 -20 -40 -29 -27 -36 -30 -32 -51 -44 -14 -39 -8 -56 -58 -26 -43 -21 -64 -17 -31 -47 -12 -7 0
19 62 58 3 36 22 37 32 56 46 59 21 29 41 24 39 20 60 26 42 51 -33 -28 -23 -55 -34 -8 -11 -7 -17 -57 -30 -2 -31 -52 -38 -12 -25 -49 -4 0
48 8 19 31 32 16 26 2 25 4 61 5 -14 -39 -17 -41 -21 -63 -24 -9 0
12 23 61 -2 -55 -26 0
1 8 50 33 38 55 46 4 42 61 -12 -48 -31 -23 -47 0
22 40 37 61 47 56 6 19 64 10 63 43 45 30 39 7 21 28 46 -25 -27 -29 -3 -13 -34 -48 -5 -52 -16 -31 -33 -15 -17 -14 -44 -4 -42 -53 -11 -49 -54 -9 -58 -20 -24 -50 -35 0
19 29 -53 -26 -38 -48 0
17 1 16 33 56 2 12 20 18 52 58 45 64 63 14 61 49 40 8 30 15 10 57 -28 -29 -60 -21 -9 -50 -27 -44 -47 -37 -62 -46 -24 -31 -54 -13 -6 -35 -23 -39 -22 -32 -53 0
33 61 -15 -37 0
8 63 62 46 57 53 21 50 34 24 59 31 6 13 37 22 49 43 11 45 39 -1 -14 -52 -40 -32 -54 -23 -3 -60 -15 -19 -44 -5 -29 -38 -51 -7 -36 -4 -12 -47 -64 0
9 37 23 15 24 13 59 30 50 43 46 53 48 41 1 12 14 21 8 58 33 54 6 63 35 56 22 32 5 42 29 2 52 38 57 -26 -25 -18 -11 -36 -3 -47 -20 -45 -64 -31 -60 -39 -27 -19 -7 -10 -44 -55 -34 -40 -51 -61 -28 -4 -49 0
37 19 44 -38 -43 -13 -34 0
27 40 52 42 26 3 2 1 57 34 31 45 32 -58 -63 -37 -59 -23 -12 -60 -15 -5 -25 0
14 51 31 -35 -10 -25 -15 -57 -16 -12 -39 -37 0
-10 0
46 43 3 24 63 50 5 32 40 22 45 19 62 37 10 34 56 29 64 25 28 53 4 8 17 1 57 60 52 11 12 42 55 36 23 -41 -33 -13 -30 -39 -61 -18 -51 -54 -16 -35 -21 -6 -47 -9 -27 -59 -48 -38 -49 -44 -14 -7 -26 -31 -15 -20 -2 0
59 15 48 45 33 43 18 40 27 3 4 55 47 56 62 49 57 38 -17 -2 -54 -52 -37 -29 -12 -6 -58 -61 -46 -21 -39 -25 -64 -22 0
