c NeuroCodeBench 2.0 CNF formula with verdict Sat
p cnf 67 162
8 66 39 37 62 55 22 44 12 29 25 13 18 61 59 11 67 7 51 41 54 26 35 3 40 64 30 24 38 4 -46 -52 -16 -21 -2 -9 -36 -42 -57 -17 -20 -56 -43 -1 -10 -33 -63 -27 -60 -50 -31 -47 -14 -19 -32 -65 -53 -34 -49 -5 -45 -48 -58 0
23 27 35 32 3 42 36 -1 -41 -38 -67 -14 -22 -44 -33 -60 0
30 4 59 26 12 32 61 17 -35 -53 -31 0
50 13 7 46 65 53 -15 -42 -4 -40 -18 -12 -29 -20 -10 -36 -43 0
28 17 9 48 -64 -38 -52 -41 -7 -59 0
25 62 42 27 65 19 39 24 29 -14 -46 -44 -55 -13 -33 -23 -61 -3 -32 -47 -37 -4 -7 -16 0
64 48 40 19 24 33 52 47 41 55 26 11 21 46 4 12 63 22 35 61 42 59 49 62 20 9 14 37 13 6 60 -1 -27 -39 -50 -44 -15 -29 -34 -51 -18 -58 -43 -45 -16 -53 -23 -10 -36 -54 -28 -25 -67 -66 -56 -57 -2 -31 -17 -65 -38 -7 -5 0
43 6 26 63 19 14 59 32 57 1 -3 -25 -33 -52 -24 -36 -40 -4 -37 -49 -31 -21 -62 -15 -27 -53 -54 0
42 48 57 5 10 22 40 9 7 20 -12 -51 -35 -36 -30 -62 -18 -25 -66 -2 -8 -44 -17 -26 -60 -15 0
13 38 1 41 5 36 37 -20 -53 -46 -15 0
12 33 16 53 1 48 61 56 58 17 59 15 20 22 29 45 23 18 60 2 24 19 40 10 50 8 39 34 42 65 47 13 41 67 32 28 49 4 -46 -54 -11 -30 -14 -44 -43 -36 -35 -7 -52 -27 -57 -63 -38 -37 -25 -66 -5 -26 -21 -64 -6 -3 -55 -62 0
20 61 51 65 40 4 28 41 27 37 -43 -64 -57 -54 -24 -5 -35 -39 -26 0
41 11 67 43 8 58 21 12 33 34 54 32 25 24 7 51 45 18 20 35 40 57 60 63 26 -31 -10 -44 -61 -48 -16 -66 -65 -2 -29 -59 -39 -47 -17 -13 -9 -22 -52 -28 -30 -1 -42 -14 -19 -4 -56 -15 -64 -6 -27 -36 -38 -23 -37 -46 -50 -62 -49 -55 -5 -3 0
13 49 6 29 7 32 3 44 66 61 12 59 25 24 60 22 39 21 63 43 27 14 58 -62 -30 -35 -53 -47 -48 -23 -17 -5 -1 -11 -51 0
60 3 59 15 67 13 5 35 52 19 54 43 56 66 57 1 31 51 25 47 14 -7 -12 -33 -62 -27 -6 -11 -17 -4 -24 -55 -58 -22 -29 -10 0
21 14 24 17 16 48 6 39 46 12 62 28 54 9 10 8 -40 -43 -26 -23 -32 -33 -37 -44 -25 -53 0
59 43 28 22 48 2 46 20 44 47 61 58 17 53 45 40 37 67 24 25 23 14 11 51 32 12 50 27 26 41 55 15 63 35 30 19 42 -38 -8 -6 -52 -57 -34 -33 -65 -4 -39 -3 -36 -49 -9 -29 -31 -18 -21 -16 -10 -13 -7 -56 -1 -66 0
64 1 54 41 50 17 6 23 43 59 39 4 32 29 35 60 14 58 34 57 48 24 65 20 46 -66 -36 -51 -63 -11 -62 -37 -18 -26 -42 -19 -55 -44 -49 -10 -15 -61 -12 -33 -22 -13 -40 -7 0
40 57 34 58 47 51 36 61 37 28 9 60 41 54 12 6 27 7 25 56 50 35 45 63 10 14 -4 -38 -3 -5 -67 -17 -18 -53 -11 -23 -16 -44 -30 -62 -13 -29 -55 -46 -32 -20 0
41 9 6 61 30 46 4 20 65 5 42 60 23 62 52 8 13 17 19 57 54 63 -32 -43 -29 -36 -2 -48 -18 -37 -67 -49 -27 -22 -24 -35 -59 -31 -16 -3 -10 -64 -25 -38 -28 -55 -33 -34 -45 0
13 0
21 61 26 65 20 18 17 -33 -47 -66 -38 -27 -24 -4 -6 -40 -43 -62 0
66 37 22 40 3 10 -36 -15 -38 -28 -30 -63 -5 -18 0
19 66 37 33 64 48 36 32 27 14 18 51 2 15 26 46 57 -5 -50 -54 -24 -13 -56 -39 -35 -12 -16 -34 -31 -59 0
30 7 67 40 23 50 28 60 35 1 55 42 25 52 64 19 66 11 48 14 36 18 16 26 17 65 12 4 59 -5 -44 -46 -13 -34 -41 -6 -49 -61 -58 -3 -54 -53 -21 -10 -45 -63 -43 -20 -27 -56 -15 -22 -24 -29 -8 -2 -9 -31 -51 -39 -37 -57 -62 -47 -33 0
62 61 40 50 -32 0
44 34 40 41 17 2 57 29 1 67 64 58 42 28 3 4 38 62 47 -51 -8 -11 -27 -52 -5 -37 -46 -39 -9 -48 -66 -23 -7 -31 -26 0
51 18 30 8 62 35 50 13 42 39 64 29 9 21 15 60 1 26 25 23 43 41 -52 -40 -5 -54 -34 -16 -59 -33 -19 -46 -6 -14 -10 -28 -58 -45 -66 -61 -2 -65 -11 -44 0
48 15 66 46 51 52 28 33 8 60 23 42 34 19 40 9 26 53 13 5 -43 -18 -58 -62 -32 -67 -14 0
47 48 28 58 53 14 55 9 38 7 19 -64 -10 -36 -17 -27 -8 -35 -33 -62 -24 -66 0
1 35 31 29 11 65 22 3 40 30 43 8 46 23 60 32 -38 -50 -56 -61 -2 -37 -44 -27 -21 -4 -15 -6 -20 -52 0
42 18 48 9 36 10 34 27 2 28 5 58 3 7 64 50 16 25 54 51 11 60 57 8 26 66 12 14 46 52 44 59 56 24 6 20 -63 -41 -43 -29 -19 -62 -53 -32 -55 -4 -21 -35 -39 -47 -1 0
22 21 55 66 18 39 17 67 30 37 25 5 32 42 65 57 -12 -61 -63 -52 -16 -36 -53 -14 -3 -28 -41 -20 0
3 22 59 31 12 63 65 34 -18 -54 -66 -8 -62 -13 -21 -35 -37 -17 -56 -14 0
40 66 24 65 54 28 15 26 61 43 19 57 30 27 8 63 48 20 22 4 34 62 -5 -47 -50 -35 -10 -39 -21 -52 -7 -36 -55 -25 -38 -41 -64 -37 -29 -59 -33 -2 -45 -23 -18 -46 -49 -44 -13 -42 -1 -67 -3 -14 -58 0
63 24 31 10 45 64 51 -57 -18 -52 -67 -49 -4 0
57 33 26 11 63 43 30 27 36 49 47 39 4 7 2 35 45 44 31 23 -13 -65 -8 -9 -50 -42 -20 -56 -3 -25 -38 -19 -24 -22 -54 -60 -62 -46 -18 -52 -32 -41 -67 -51 -59 -29 -66 -34 -14 -53 -64 -6 -40 -48 -21 -37 -5 -16 0
28 9 18 17 58 45 14 44 39 -54 -19 -50 -20 -34 -32 0
2 33 -52 -19 -18 0
21 50 25 -26 0
46 16 2 57 31 34 66 12 37 8 67 61 22 53 26 9 11 47 48 14 60 63 64 17 30 21 23 58 49 -52 -56 -5 -4 -39 -15 -62 -33 -28 -59 -20 -50 -51 -25 -7 -44 -18 -13 -45 -43 -55 -38 -3 -35 -54 -65 -1 -42 0
5 56 63 29 3 6 -41 -9 -16 0
50 48 23 14 39 58 49 25 32 5 31 64 24 42 3 41 40 59 62 33 56 12 9 4 45 -53 -29 -52 -46 -51 -11 -13 -37 -47 -35 -2 -28 -30 -27 -65 -61 -57 -20 -26 -55 -38 -16 0
55 24 -4 -34 0
22 18 49 40 27 1 63 19 31 58 5 2 6 64 37 53 67 62 35 24 33 34 44 4 -14 -42 -15 -48 -41 -13 -11 -30 -47 -9 -43 -23 -32 -61 -26 -51 -8 -7 -56 -66 -57 -52 -21 0
21 15 25 11 2 64 23 38 51 28 19 12 48 7 8 45 -36 -37 -41 -1 -30 -20 -14 -39 -49 -9 -26 -32 -50 -55 -57 0
43 66 64 4 9 51 59 8 10 60 61 67 42 16 20 23 28 3 26 52 48 -41 -40 -19 -46 -13 -56 -2 -37 -49 -15 -47 -22 -12 -7 -57 -35 -31 -58 -53 -33 0
14 5 60 30 19 40 39 7 24 1 65 54 6 31 20 43 56 41 58 25 4 9 57 36 67 47 61 -50 -59 -44 -28 -52 -17 -32 -53 -48 -2 -12 -46 -27 -3 -51 -26 -33 -18 -42 -10 0
16 48 12 51 -38 -27 -29 -33 -54 -43 -18 -6 -60 -49 -67 -20 -44 -37 0
61 38 16 3 -45 -12 -54 -8 -43 -30 -44 -33 -25 -5 -64 -35 -37 -22 -56 -53 0
-28 -12 -35 0
22 24 47 10 29 67 4 23 5 44 3 6 40 57 61 11 37 64 -49 -63 -60 -2 -50 -53 -52 -27 -58 -18 -41 -13 -8 -54 -42 -62 -43 -1 -55 -45 -20 0
24 45 43 36 16 19 34 62 5 63 35 37 28 31 59 52 12 38 8 29 33 22 1 14 9 17 18 15 64 66 3 30 4 21 42 50 27 6 58 -39 -47 -25 -57 -53 -23 -11 -44 -48 -20 -51 -60 -54 -67 -2 -10 -26 -13 -41 -56 -55 -65 -40 0
58 41 21 2 66 31 17 29 63 26 53 25 40 20 28 49 7 -15 -14 -16 -45 -12 -65 -27 -24 -35 -13 -60 -43 -48 -23 -38 -52 -64 -32 -39 -50 -61 0
62 37 41 12 6 4 21 40 9 54 63 39 64 52 44 61 16 43 20 19 29 53 26 51 45 65 58 15 2 25 -35 -50 -31 -66 -48 -34 -42 -60 -67 -59 -33 -10 -47 -11 -14 -27 -30 -56 -46 -17 -8 -3 -23 -57 -1 -7 -22 -28 0
59 -33 -32 -9 -15 -10 0
57 23 41 10 59 17 7 64 25 6 -19 -35 -26 -11 -2 -29 -56 -4 -28 -15 -50 -43 -58 -8 -16 -5 -20 0
24 2 61 28 -5 -34 -30 -47 -57 -11 -22 -46 -49 -59 -38 0
17 56 52 37 6 47 18 13 25 -67 -43 -42 -51 -20 -66 -48 -36 0
15 49 42 65 60 44 46 28 56 47 27 57 1 -63 -6 -35 -32 -16 -7 -17 -41 -34 -20 -50 -67 -18 -30 -5 -48 0
48 15 65 37 64 47 27 2 17 31 55 34 63 35 51 42 62 -30 -61 -23 -24 -60 -11 -59 -39 -22 -6 -43 -67 -1 -14 -54 -26 -5 -3 0
6 43 63 41 58 48 21 9 33 52 16 67 2 51 26 20 49 59 56 5 1 37 11 3 60 44 34 -54 -45 -38 -12 -7 -62 -25 -64 -40 -22 -57 -39 -50 -8 -15 -17 -36 -27 -4 -29 -14 -53 -10 -66 -23 -42 0
37 53 63 15 7 56 40 48 27 49 44 13 29 46 45 20 42 8 38 21 6 14 31 18 52 32 59 17 9 5 36 41 67 -33 -65 -22 -60 -12 -57 -23 -16 -58 -1 -11 -50 -66 -64 -4 -19 -47 -62 -25 -35 -61 -28 -51 -54 -34 -26 -2 -39 -10 0
42 37 15 59 62 39 1 5 46 27 -65 -29 -48 -54 -8 -51 -43 -21 -2 -55 -22 -35 -53 0
24 3 7 28 44 10 18 49 57 20 56 2 39 4 32 58 36 52 5 34 33 17 51 22 -14 -61 -62 -55 -41 -9 -50 -16 -6 -25 -37 -19 -66 -31 -38 -67 -59 -30 -42 -35 -26 -53 -11 -21 -29 -13 -47 -15 -60 -46 -63 -45 -27 0
36 7 43 65 67 66 5 39 19 50 32 15 59 30 8 51 6 25 49 46 11 60 29 3 16 12 9 27 2 -45 -33 -53 -31 -37 -18 -40 -24 -41 -35 -14 -64 -21 -26 -28 -47 -52 -62 -4 0
66 45 30 63 21 67 4 9 29 31 58 16 65 27 5 41 59 61 24 47 64 28 33 3 40 -26 -56 -7 -35 -18 -19 -17 -23 -46 -54 -14 -55 -49 -51 -57 -62 -43 -20 -50 -60 -36 -15 -42 -8 -37 -39 -13 -25 0
31 32 16 50 37 36 49 47 3 60 34 19 13 14 22 52 -66 -10 -59 -56 -28 -64 -18 -44 -17 -24 -26 -41 -30 -57 -1 -65 -7 -35 0
59 45 1 2 48 29 14 -44 -63 -26 -61 -19 -55 0
47 62 24 21 29 36 63 3 61 49 -28 -35 -13 -43 -42 -15 -12 -50 -2 0
9 58 26 20 30 16 44 32 7 2 3 51 29 61 36 12 48 17 41 67 14 23 15 45 34 42 59 35 65 6 -64 -43 -22 -13 -5 -21 -60 -46 -57 -40 -11 -66 -10 -25 -1 -27 -24 -18 -50 -54 -28 -33 0
55 40 34 54 65 41 15 13 11 61 10 66 50 60 23 29 43 25 53 33 47 -62 -58 -4 -12 -64 -21 -24 -8 -20 -26 -3 -45 -18 -1 -48 -31 -49 -67 -5 -22 -16 -63 -27 -59 0
9 5 20 12 41 64 54 29 35 62 49 53 59 32 67 34 37 11 24 -7 -66 -60 -47 -31 -42 -33 -6 -28 -50 -52 -19 -2 -8 -14 -65 -18 -4 -48 -43 -21 -13 -30 -56 -51 -40 -23 -44 -39 0
12 9 5 -42 -17 -16 -11 -32 -58 0
4 28 59 52 35 24 10 32 -50 -66 -42 -53 -67 -25 -30 -55 -51 -57 0
20 50 30 29 22 33 23 12 49 59 4 39 46 44 40 62 58 38 31 66 9 35 25 67 7 41 64 42 16 54 2 21 8 47 -37 -6 -13 -45 -19 -48 -57 -51 -11 -61 -56 -60 -36 -63 -27 -53 -15 -26 -34 -5 -3 -52 -24 -28 -18 -10 -32 -17 0
63 19 54 44 53 17 2 52 37 67 15 66 6 55 61 65 -1 -36 -16 -60 -14 -24 -42 -25 -46 -57 -26 -47 -10 0
37 8 23 9 33 39 40 52 -55 -35 -29 -15 -34 -32 -56 -43 -24 0
55 45 62 63 50 39 41 61 59 48 16 35 58 4 54 27 8 19 42 2 13 -43 -51 -1 -17 -46 -66 -26 -53 -5 -52 -18 -15 -9 -24 -64 -3 -47 -37 -10 -21 -22 -38 -28 -25 0
35 1 41 37 51 64 -12 -13 -39 -34 0
63 44 32 28 22 42 20 58 55 19 23 2 8 21 47 39 41 62 4 3 40 48 61 1 -5 -16 -26 -11 -64 -59 -30 -7 -6 -52 -51 -45 -65 -12 -35 -15 -67 -66 -33 -31 -56 -24 0
30 14 47 41 62 33 65 51 50 56 67 26 4 40 8 38 42 9 17 66 39 28 48 12 64 60 34 7 59 53 29 13 20 49 -57 -35 -37 -21 -11 -6 -18 -16 -27 -19 -3 -10 -25 -54 -24 -63 -22 -36 -52 -45 -32 -5 -55 -1 -44 -31 -61 -23 -58 0
59 1 7 50 35 42 -46 -11 -20 -19 -13 -36 -64 -27 0
14 -40 -8 -56 0
51 41 49 -16 -22 -8 0
13 66 3 1 28 57 26 37 7 52 31 34 39 29 65 22 58 38 50 -5 -63 -49 -20 -17 -2 -25 -64 -45 -51 -59 -54 -47 -30 0
51 55 10 47 9 6 46 62 53 49 27 57 61 26 2 4 54 -28 -8 -20 -16 -7 -35 -41 -18 -34 -30 -11 -48 -42 -63 -64 -31 -44 0
12 67 59 66 14 11 55 -32 -43 -61 -26 -13 -27 -62 -4 -53 0
51 42 19 37 7 25 66 30 1 38 36 57 41 -67 -59 -34 -16 -20 -64 -31 -47 -9 -14 -40 -35 -12 -52 -21 -23 -29 -43 -3 -17 -44 0
5 61 57 42 35 48 33 2 27 46 23 28 26 37 12 19 32 50 58 54 63 8 -3 -16 -25 -36 -14 -67 -4 -60 -51 -17 -9 -41 -52 -47 -49 -18 -40 -56 -53 -45 -34 0
6 3 36 60 59 67 13 58 39 48 14 34 4 28 55 43 52 33 15 23 11 40 1 27 24 41 54 2 10 56 7 63 16 -26 -18 -31 -29 -66 -44 -50 -42 -19 -5 -64 -37 -30 -65 -53 -9 -45 -17 -32 -57 0
59 55 67 32 53 15 14 7 24 46 28 61 20 65 12 64 37 63 57 43 49 18 48 42 27 52 50 21 -23 -40 -25 -31 -22 -4 -9 -19 -62 -54 -26 -2 -1 -38 -60 -11 -33 -16 -13 -3 -29 -17 -66 -45 -41 0
66 44 47 5 20 55 60 52 43 38 23 45 65 58 3 33 42 -17 -34 -10 -25 -62 -56 -6 -12 -53 -37 -61 -4 -16 -40 -15 -50 -30 -39 -7 -49 -32 -19 -9 -21 -22 -29 -27 0
19 52 26 12 23 53 -37 -8 -56 -51 -10 -25 -64 -67 -39 -49 -15 -61 -34 -1 -24 -31 -6 -14 -9 0
60 9 21 34 42 1 17 63 28 41 66 6 4 27 22 2 8 55 36 45 35 53 52 16 25 67 47 18 51 62 37 13 12 14 -24 -5 -26 -57 -40 -3 -58 -48 -61 -31 -39 -49 -30 -59 -10 -65 -19 0
2 43 36 40 35 8 56 57 55 34 10 45 65 39 59 44 21 24 22 48 16 5 30 -60 -38 -63 -27 -67 -15 -17 -46 -4 -28 -64 -37 -12 -61 -49 -18 -41 -50 -33 -54 -6 -23 -51 -53 -25 -31 -13 -32 -19 -66 -20 -62 -9 -29 -42 -58 0
50 53 7 13 54 25 22 65 62 44 21 -14 -36 -40 -5 0
53 18 21 13 52 43 30 26 39 47 49 11 36 54 37 4 17 33 45 19 55 46 38 31 61 58 29 2 -9 -10 -24 -14 -62 -16 -65 -63 -32 -34 -1 -66 -3 -60 -41 -56 -5 -12 -51 -25 -50 -20 -27 -7 -44 -64 -57 -15 -35 0
26 17 62 41 7 34 60 59 10 51 30 5 3 8 29 65 33 35 9 2 54 15 -63 -27 -52 -36 -31 -32 -50 -45 -20 -38 -42 -46 -55 -67 -4 -53 -12 -14 -6 -61 -39 -66 -1 -16 -64 -37 -21 -11 -48 -57 -25 -56 0
67 14 7 60 13 19 52 23 10 20 1 55 15 44 58 66 56 47 8 45 21 16 31 35 65 26 22 50 48 3 36 46 61 -40 -18 -17 -39 -59 -11 -30 -34 -54 -25 -5 -27 -38 -12 -64 -43 -33 -57 -28 -2 -42 -49 -63 -9 0
45 -32 -25 -9 -52 -24 -23 -12 0
65 8 34 5 43 -15 -49 -40 -62 0
11 35 4 52 18 23 15 27 16 -36 -67 -54 0
54 14 16 26 3 5 56 50 4 15 12 39 49 65 63 55 59 40 34 31 30 58 52 19 27 2 53 64 36 20 9 46 33 -42 -51 -43 -57 -22 -25 -32 -45 -60 -37 -61 -6 -21 -24 -48 -17 -66 -28 -67 -41 -13 -23 -47 -1 -8 -62 -38 -29 -7 -10 -18 -44 -35 0
52 26 65 42 64 27 6 40 31 28 19 66 53 57 50 32 61 -22 -37 -60 -9 -29 -59 -24 -25 -33 -14 -20 -58 -3 -7 -48 0
63 16 35 53 36 24 55 10 17 34 23 66 7 57 65 11 60 52 31 32 15 -45 -47 -46 -28 -18 -25 -22 -54 -14 -6 -19 -12 -20 -41 -29 -5 -8 -40 -3 -62 -4 -56 -39 -26 -2 -9 0
64 3 2 29 59 33 11 67 23 51 25 41 35 12 6 46 9 58 8 55 -57 -43 -48 -36 -53 -44 -39 -17 -65 -24 -40 -18 -62 -27 -21 -20 -14 -16 -13 -28 -31 -4 -50 -15 -38 -56 -7 -52 -19 -54 -32 -45 0
45 58 23 28 56 60 41 21 3 25 48 61 5 39 57 43 -8 -36 -9 -12 -64 -63 -17 -38 -13 -42 -53 -65 -11 -22 0
23 55 9 59 53 32 38 6 40 5 48 58 35 7 33 16 -39 -56 -12 -62 -8 -63 -51 -4 -28 -15 -49 -65 -36 -27 -21 -37 -25 -44 -13 -66 -17 -29 0
48 60 58 15 38 24 23 7 39 59 64 10 49 6 57 46 36 3 66 -42 -35 -22 -19 -21 -27 -41 -2 -55 -5 -63 -13 -37 -52 -4 -56 -65 -34 -61 -29 -51 -44 -9 -26 -1 -16 -67 -31 -50 -12 -32 0
-18 0
30 27 61 58 37 53 26 13 35 64 11 15 59 -31 -50 -51 -23 -10 -32 -34 -56 -22 -21 -24 -55 -44 -40 -54 -42 0
23 66 37 40 27 19 39 24 30 29 18 60 3 50 33 56 26 49 32 -20 -13 -58 -36 -7 -14 -57 -35 -55 -64 -2 -53 -22 -45 -10 -34 -62 -12 -65 -44 -28 -8 -16 -42 -63 -41 -43 -11 -47 -67 -38 -61 0
24 47 38 34 33 27 13 36 45 53 21 26 46 20 14 29 63 48 50 40 42 54 32 9 7 1 51 61 58 35 8 44 67 4 11 43 -57 -28 -62 -19 -23 -18 -17 -60 -59 -41 -15 -16 -56 -65 -31 -39 -3 -2 -66 -25 -6 -5 -52 -64 -22 -10 -12 0
12 40 11 6 30 41 48 46 37 20 64 34 38 25 17 52 18 23 51 16 14 8 59 53 5 49 2 19 1 24 33 -4 -57 -50 -10 -28 -31 -60 -45 -15 -66 -3 -67 -35 -9 -39 -55 -21 -26 -13 -7 -65 -62 -29 -47 -36 -44 -54 -32 -58 -61 0
49 4 -63 -46 -61 -14 -28 0
16 43 -9 0
31 48 36 60 42 37 15 62 4 38 -34 -32 -11 -59 -16 -45 -17 -50 -46 -67 -54 -27 -61 -44 0
1 12 62 44 15 48 4 64 49 27 34 -33 -21 -24 -18 -45 -61 -14 -55 -50 -43 0
37 51 1 12 22 43 11 64 19 34 59 54 16 4 36 28 61 31 33 52 57 15 9 13 27 50 55 26 67 -53 -35 -25 -66 -39 -63 -3 -29 -23 -46 -45 -14 -8 -44 -62 -21 -30 -56 -5 -6 -42 -17 -10 -7 -47 -20 -32 -24 -41 0
58 29 56 26 64 20 61 51 49 12 32 18 60 28 47 16 34 36 6 7 1 44 55 39 11 30 14 38 42 9 53 10 -63 -52 -37 -57 -62 -40 -48 -45 -5 -65 -23 -4 -46 -33 -43 -22 -3 -8 -54 -13 -25 0
40 7 60 5 14 47 35 64 1 55 12 53 32 23 21 3 9 24 22 28 26 27 8 61 11 6 66 41 51 -25 -37 -36 -54 -56 -59 -52 -29 -46 -18 -10 -20 -4 -65 -42 -19 -45 -43 -63 -33 -31 -17 -16 -57 -30 -48 -38 -62 -58 -39 0
20 45 6 11 44 53 36 38 1 13 40 21 43 37 62 54 3 19 22 39 41 29 52 30 -32 -26 -27 -9 -61 -63 -66 -49 -65 -67 -12 -16 -18 -31 -5 -34 -4 -57 -8 0
42 49 7 9 45 44 27 57 15 56 25 38 20 43 65 14 -60 -67 -26 -23 -33 -46 -29 -48 -22 -10 -32 0
64 44 -7 -49 -58 0
3 45 40 49 29 23 52 47 26 31 11 48 8 55 32 67 63 7 42 36 24 -51 -66 -54 -35 -27 -39 -53 -59 -34 -5 -33 -9 -18 -1 -64 -37 -15 -56 0
13 7 9 21 35 1 52 -2 -48 -43 -59 -61 -32 -64 -55 -3 -4 0
16 27 20 22 57 44 3 47 26 12 29 53 52 63 30 61 31 -62 -17 -48 -24 -41 -49 -10 -45 -23 -18 -33 -34 -14 -42 -65 -4 -13 -28 -37 -66 -6 -55 -32 0
26 9 2 16 33 -11 -5 -34 -13 -17 -14 -40 -24 0
35 66 16 65 26 31 6 3 33 59 51 30 12 4 64 67 17 24 27 42 44 37 54 29 -21 -36 -39 -45 -25 -10 -62 -43 -48 -60 -50 -38 -52 -56 -7 -28 -2 -57 -41 -47 0
7 55 32 63 54 47 41 3 21 66 37 44 35 6 36 9 51 -4 -24 -52 -34 -50 -10 -23 -67 -20 -2 -11 -18 -43 -57 -29 -27 -56 -40 0
14 2 56 9 34 37 12 5 58 64 20 47 27 67 7 40 16 -38 -30 -25 -29 -48 -23 -51 -45 -6 -43 -24 -15 -52 -59 -3 -62 -11 -50 -49 0
5 56 26 43 2 20 3 63 10 18 45 46 39 19 40 29 65 16 37 35 27 28 7 64 48 58 52 42 8 30 -12 -24 -61 -41 -14 -25 -55 -11 -31 -67 -60 -50 -54 -47 -59 -15 -1 -9 -32 -23 -38 -36 -34 -17 -22 -53 -44 -4 -13 -6 -62 -51 -49 -66 -33 0
18 29 24 23 55 40 17 -16 -32 -3 -11 0
29 45 50 47 6 2 58 62 31 64 37 7 4 44 20 56 41 26 43 19 -63 -42 -53 -61 -65 -60 -36 -22 -51 -13 -24 -1 -11 -23 -30 -40 -18 -10 -28 -49 0
26 4 9 -23 -12 -38 -34 -5 0
36 16 6 25 62 1 53 5 18 45 24 15 7 54 35 29 43 22 56 30 14 37 10 -65 -23 -13 -66 -46 -19 -44 -20 -59 -2 -61 -27 -11 -39 -9 -51 -42 -49 -34 -17 -38 -40 -52 -32 -55 0
46 34 49 67 53 24 62 22 32 7 65 21 36 13 27 25 14 30 29 37 58 28 43 56 26 23 31 20 66 19 8 33 50 -48 -45 -41 -51 -64 -1 -52 -9 -6 -59 -4 -3 -38 -10 -35 -60 -61 -16 -44 -63 -39 -54 -12 -5 -15 -18 -40 -47 -55 -42 -2 0
11 14 58 20 46 43 9 26 10 50 1 6 29 44 38 22 52 -47 -65 -67 -66 -39 -34 -33 -15 -37 -57 -64 -35 -36 -7 -48 -61 0
67 -18 0
30 9 55 36 45 13 -23 -37 -33 -29 -14 -54 -25 -56 -67 -24 -51 0
56 34 28 16 3 67 26 24 1 18 55 11 -37 -20 -32 -43 -8 -7 -36 -45 -22 -64 -65 0
64 8 53 28 49 50 48 43 -3 -60 -16 -23 -35 -56 -65 0
28 21 47 64 29 60 6 46 32 10 52 12 1 -18 -42 -14 -5 -4 -67 -27 -41 -19 -48 -23 -50 -20 -9 -44 -54 0
35 54 36 33 38 59 4 67 18 11 53 42 3 9 7 -23 -19 -48 -15 -20 -57 -43 -10 -22 -62 -60 -21 -65 -32 -55 -44 -39 -14 -58 0
54 31 9 -58 -45 -22 -7 -32 -16 0
54 13 45 57 28 58 3 56 -12 -27 -23 -39 -10 -16 -37 -67 -46 -17 0
45 50 64 48 34 62 51 -18 -19 -42 -7 -8 -25 -53 0
43 12 60 25 36 53 45 51 26 54 4 65 13 11 58 56 8 20 30 24 44 66 49 57 47 15 14 62 40 29 23 1 31 67 -10 -50 -5 -6 -18 -42 -3 -2 -22 -16 -41 -21 -61 -19 -37 -17 -32 -48 -9 -63 -64 -34 -38 -59 -33 -28 -7 -39 -35 -27 -55 0
8 37 28 67 38 50 6 1 20 49 61 53 -27 -44 -14 -64 -23 -31 -40 -30 -15 -32 -22 -51 -25 -41 -13 -21 -36 -55 0
8 26 53 25 40 16 58 -52 -19 -13 -50 -3 -42 -61 -7 -12 -11 0
44 43 10 53 16 34 49 1 27 66 47 36 32 33 56 2 48 22 5 63 40 46 8 26 58 64 60 51 4 -7 -37 -24 -20 -9 -55 -12 -52 -25 -35 -29 -50 -13 -38 -14 -21 -17 -45 -57 -23 -11 -3 -18 -28 -67 -15 -42 0
17 65 34 12 66 46 38 7 22 15 52 49 13 29 47 3 36 54 42 59 11 14 23 1 32 24 58 -9 -56 -43 -61 -26 -53 -18 -33 -28 -35 -31 -39 -27 -63 -20 -37 -19 -51 -16 -62 -6 -8 -4 -5 -55 -48 0
54 4 48 15 40 36 2 10 -5 -26 -64 -63 -51 -57 -1 -42 -7 -32 -24 -67 -33 -34 -6 -58 -56 -30 -18 -65 -46 -61 -16 0
17 3 32 18 10 6 46 13 50 52 38 15 -22 -12 -23 -24 -31 -49 -54 -39 -65 -30 -27 -37 -51 -5 -40 -19 0
2 47 7 54 -9 -56 -31 -26 0
35 32 3 23 67 10 19 55 24 40 9 64 11 29 46 16 36 38 15 49 -37 -1 -39 -44 -59 -65 -51 -30 -42 -47 -22 -12 -17 -21 -56 -48 -27 -4 -52 -33 -26 -6 -8 -58 -13 -25 -50 -5 -7 0
13 11 27 2 28 62 60 32 52 30 33 66 50 16 7 18 63 34 55 56 40 57 8 24 64 14 22 67 -46 -26 -12 -38 -61 -59 -29 -44 -47 -4 -42 -35 -53 -58 -3 -36 -51 -9 -31 -37 -23 -25 -54 -17 -39 -48 0
27 0
45 15 20 7 56 49 6 64 55 51 31 39 17 32 28 19 58 47 53 12 2 57 10 25 54 27 37 8 -50 -41 -35 -26 -24 -33 -4 -21 -66 -11 -62 -65 -1 -43 0
57 54 11 25 52 30 35 33 58 39 16 44 1 47 38 55 8 49 64 22 13 19 -61 -7 -10 -9 -37 -43 -50 -24 -2 -15 -3 -42 -14 -23 -18 -20 -40 -26 -4 -36 0
65 46 29 28 67 26 17 59 56 44 -10 -40 -52 -45 -18 -22 -37 -24 -19 -58 -43 -5 -20 -42 -6 -36 0
