c NeuroCodeBench 2.0 CNF formula with verdict Sat
p cnf 72 259
52 5 24 66 18 38 58 44 22 69 13 21 28 12 25 63 33 10 16 45 51 60 46 39 40 7 55 72 50 29 20 35 34 67 15 -37 -6 -2 -8 -3 -47 -23 -14 -71 -53 -4 -19 -56 -42 -49 -27 -17 -32 -61 -70 -1 -68 -41 -9 -59 -43 -36 -64 -57 0
50 47 3 5 70 12 6 -71 -64 -25 -51 0
46 35 14 19 39 48 43 23 64 -15 -51 -58 -12 -3 -70 -67 -25 -66 -20 -33 -53 -71 -45 0
12 18 37 72 34 46 64 44 11 19 31 -23 -62 -14 -20 -48 -22 -8 -54 -51 -58 -42 -16 -13 -52 -36 0
52 20 23 46 15 40 11 3 27 57 47 5 10 29 71 66 67 56 63 12 17 22 -54 -13 -34 -16 -53 -14 -58 -25 -37 -33 -42 -36 -48 -45 -61 -28 -38 -51 -44 -2 -18 0
52 51 19 46 59 25 61 21 15 10 72 67 6 47 4 45 38 60 48 69 43 31 53 66 71 13 -58 -44 -36 -28 -26 -20 -30 -23 -22 -42 -68 -33 -65 -70 -5 -49 -1 -14 -12 -11 -24 -54 -3 -34 -55 -27 -56 -50 -32 -18 -40 -2 -57 -8 -35 -17 0
22 1 43 35 36 24 21 4 34 44 14 10 46 72 42 64 52 66 16 38 -15 -59 -63 -20 -26 -51 -65 -7 -71 -17 -41 -33 -55 -45 -62 -28 -19 -12 -40 -61 -68 -70 -67 0
27 24 16 25 29 48 64 46 67 62 36 56 69 14 33 57 47 -32 -1 -26 -61 -39 -68 -28 -31 -66 -70 -8 -19 -2 -40 -5 0
18 67 24 58 1 39 11 38 69 61 40 6 56 23 50 47 70 60 65 55 29 63 -34 -37 -45 -36 -51 -30 -41 -52 -68 -33 -16 -54 -71 -22 -26 -43 -5 -72 -42 -48 -59 -4 -15 -46 -12 0
66 57 3 64 19 -55 -14 -54 -65 -58 -33 0
24 7 33 22 12 61 10 46 62 20 56 58 52 36 44 30 18 41 39 29 57 4 15 40 28 48 9 8 51 66 50 32 64 55 -37 -49 -35 -68 -25 -63 -23 -3 -47 -21 -34 -1 -69 -45 -53 -5 -2 -72 -42 -54 -16 -43 -65 -70 -67 -14 -71 -59 -38 0
43 1 39 57 71 68 35 41 61 6 8 45 48 25 29 62 36 49 14 63 31 3 2 11 18 70 58 47 67 -65 -21 -4 -72 -19 -30 -17 -12 -53 -26 -23 -16 -50 -51 -32 -7 -55 -28 -64 -24 -46 -9 -42 -5 -52 -54 -20 -13 -44 -34 -69 -60 -22 -33 -56 -66 -10 -38 -15 -40 0
51 64 70 40 43 15 7 5 31 53 24 72 46 23 44 62 21 6 67 38 -48 -63 -33 -47 -26 -35 -66 -71 -9 -59 -61 -57 0
65 61 68 59 57 40 55 27 23 10 12 52 31 62 46 48 29 25 36 -35 -1 -38 -20 -42 -66 -30 -32 -64 -69 -70 -67 -58 -11 -47 -14 -8 -63 -5 -72 -4 -54 -28 -50 0
55 32 63 5 33 50 15 1 68 17 16 64 23 57 35 27 7 39 10 52 3 -71 -20 -25 -43 -46 -8 -31 -66 -21 -41 -45 -28 -47 -30 -29 -4 -48 -42 -69 -37 -18 -60 0
61 51 20 31 9 19 34 6 18 23 67 40 53 24 68 70 14 12 -26 -42 -2 -48 -63 -49 -10 -43 -69 -60 -8 -54 -7 -22 -47 -3 -39 -64 -5 -11 0
6 13 15 11 23 60 34 17 69 67 22 35 65 44 41 61 49 30 10 50 2 21 45 16 70 38 62 47 32 27 56 43 20 3 18 51 66 -72 -71 -46 -57 -29 -63 -26 -59 -9 -4 -40 -12 -37 -1 -42 -48 -8 -7 -31 -55 -5 -39 0
5 58 50 48 14 67 66 10 11 49 3 22 25 27 64 9 59 34 72 54 61 43 68 52 35 32 70 63 28 -53 -56 -21 -42 -13 -24 -2 -29 -71 -26 -62 -41 -31 -12 -7 -65 -8 -6 -17 -57 -4 -55 -36 -39 0
16 12 57 8 45 14 46 10 53 43 60 33 11 31 24 29 36 38 70 1 71 69 64 52 22 42 61 58 41 30 7 28 4 55 -23 -44 -21 -9 -20 -17 -18 -72 -40 -15 -51 -48 -47 -49 -3 -54 -39 -59 -6 -62 -35 -50 -66 -27 -5 -68 -32 0
6 54 69 29 60 23 45 71 35 10 40 -28 -12 -48 -53 -47 0
7 21 49 64 59 11 71 54 61 37 47 33 60 22 -26 -50 -16 -58 -38 -6 -67 -36 -24 -13 -66 -1 -53 -63 -70 -25 -48 -19 -29 -62 -15 -41 -5 -12 -30 -20 -10 -4 -39 -45 -44 -27 -35 0
28 67 68 33 64 15 70 57 17 61 34 40 63 22 72 6 16 -25 -56 -18 -30 -41 -53 -14 -11 -37 -69 -2 -65 -46 0
11 43 5 18 62 32 58 19 47 68 67 54 -13 -38 -29 -57 -71 -61 -28 -72 -51 -1 -52 -37 -22 0
2 56 42 61 50 27 68 29 5 47 4 33 59 1 71 35 38 57 55 28 19 54 7 9 -36 -39 -25 -26 -51 -40 -32 -12 -60 -66 -11 -20 -49 -43 -63 -14 -65 -37 0
55 70 41 17 32 19 45 20 11 -35 -42 -2 0
62 56 32 58 15 6 38 61 28 19 35 23 31 12 24 72 70 29 17 65 11 43 22 37 47 36 13 60 -2 -25 -18 -40 -67 -9 -48 -64 -4 -66 -55 -54 -59 -14 -45 -69 -50 -5 -57 -42 -53 -30 -68 -33 -16 -21 -8 -20 -27 -34 -46 -49 -44 -26 -71 -1 -39 -51 -63 -52 0
63 1 62 56 -23 -44 -3 -60 -72 -30 -48 -66 0
43 49 66 54 -36 -37 -19 -68 -21 -65 0
51 4 32 44 56 13 2 3 28 72 -45 -11 -49 -46 -17 -12 -59 -25 -33 -61 -57 0
12 7 5 47 41 18 34 10 37 49 36 28 45 55 40 43 39 21 53 32 29 9 60 8 54 26 33 38 72 17 44 -4 -62 -19 -14 -65 -58 -11 -6 -66 -71 -59 -27 -51 -24 -52 -67 -68 -48 -23 -56 0
10 68 5 72 71 17 35 53 38 16 64 4 -1 -19 -62 -20 -61 -15 -42 -54 -67 -28 -25 -27 -8 -47 -40 -36 -70 0
64 68 13 33 66 29 32 48 65 17 20 40 9 37 7 23 -28 -34 -70 -46 -69 -43 -36 -42 -16 -12 -30 -2 -22 -5 -24 -31 -10 -44 -51 0
68 39 70 18 64 53 27 -52 -17 -26 -29 -8 -69 -30 -20 -19 -58 0
35 24 3 34 2 32 39 41 69 53 37 28 60 71 57 48 40 64 11 56 8 20 55 65 63 43 13 23 14 49 21 16 -66 -58 -19 -6 -4 -25 -54 -10 -27 -33 -29 -70 -52 -45 -38 -9 -1 -18 -5 -46 0
56 30 72 49 67 24 20 19 25 66 63 31 62 -13 -39 -21 -1 -50 -9 -23 -7 -2 -44 0
46 51 -36 -25 0
3 37 41 1 56 72 59 47 28 35 17 34 14 23 57 19 39 55 53 29 51 44 6 38 30 -13 -50 -21 -26 -64 -7 -12 -32 -68 -22 -8 -25 -43 -24 -69 -71 -33 -49 -11 -42 -10 -15 -31 -40 -66 -63 -54 0
54 41 70 15 21 71 18 44 55 32 11 4 40 1 72 53 36 30 6 66 -5 -38 -9 -47 -56 -27 -28 -24 -26 -67 -65 -7 -63 -13 -19 -69 -23 -43 -61 -64 -10 -48 -58 -57 -49 -12 -17 -60 -46 -33 -29 -37 -20 -62 -39 -8 -59 -14 -16 -45 -22 -50 -35 -3 -31 -2 -42 -51 0
46 72 21 5 6 1 64 71 49 70 12 69 2 51 42 41 44 31 27 30 55 58 63 34 38 15 40 36 37 61 32 -20 -29 -28 -8 -43 -59 -47 -24 -48 -56 -16 -13 -17 -35 -67 -11 -3 -9 -52 -45 -39 -62 -68 -18 -50 -60 -65 -57 -23 0
6 57 58 19 15 35 55 69 21 30 31 51 46 64 65 22 12 59 14 66 -53 -27 -70 -56 -26 -10 -25 -36 -11 -60 -49 -43 -34 -1 -23 -52 -40 -17 -18 0
43 63 32 56 69 31 16 34 2 58 59 24 25 22 72 33 57 66 5 -18 -4 -6 -42 -45 -26 -65 -37 -48 -29 -39 -3 0
49 39 15 18 9 53 67 69 12 58 47 8 25 62 45 4 54 31 66 40 72 14 64 20 2 60 -35 -32 -29 -3 -7 -71 -16 -44 -41 -55 -52 -51 -38 -43 -48 -13 -6 -56 -28 -63 -37 -36 -68 -30 -22 -57 -42 -33 -19 -21 -1 0
31 8 36 38 5 49 45 69 60 61 17 62 -55 -12 -29 -47 -64 -52 -66 -43 -53 -39 -50 -35 -28 -34 0
3 11 33 20 19 25 9 5 8 57 15 14 66 4 -47 -1 -30 -29 -53 -51 -61 -59 -40 -46 -12 -6 -37 -21 -62 -13 -44 0
2 53 69 28 65 17 60 39 47 21 45 71 42 56 4 9 14 1 44 30 11 70 -72 -62 -59 -6 -55 -16 -35 -22 -12 -32 -52 -19 -58 -48 -15 -23 -18 -33 -29 -54 -43 -25 -46 -27 -24 -41 -37 -7 -10 0
40 19 15 28 22 6 49 24 63 42 68 9 26 25 29 50 53 45 38 55 13 31 62 23 4 -2 -8 -44 -21 -43 -60 -52 -54 -11 -37 -35 -70 -32 -39 -46 -41 -56 -72 -18 -67 -17 -48 -3 -51 -27 -20 -58 -34 -10 0
40 29 50 64 8 48 27 -52 -55 -17 -66 -13 -63 -21 -38 -54 -20 -2 0
6 8 4 44 53 34 15 19 12 1 20 22 68 18 5 52 26 59 42 65 10 72 17 66 -70 -3 -49 -41 -43 -33 -64 -38 -55 -56 -36 -37 -51 -50 -2 -61 -54 -14 -28 -46 -69 -13 -32 -63 -25 -24 -27 -30 -23 -58 0
53 55 42 63 9 31 71 30 48 43 36 19 23 11 18 50 69 32 35 72 27 -59 -46 -6 -38 -28 -66 -1 -14 -62 -34 -37 -8 -3 -16 -15 -64 -10 -70 -67 0
52 19 71 68 48 8 65 6 50 29 72 -53 -11 -54 0
8 36 26 58 71 61 29 38 55 -32 -9 -67 -51 -65 -10 -70 -21 -15 -2 -42 -40 -25 -49 -34 0
14 39 9 31 58 54 43 67 56 27 25 18 41 26 3 42 28 64 24 33 2 40 23 72 47 71 11 19 21 35 17 8 61 59 13 -4 -68 -20 -38 -62 -6 -30 -10 -63 -65 -70 -51 -36 -12 -53 -29 -49 -37 -52 -32 -22 -69 -66 -48 -7 -50 -1 -60 0
18 40 43 31 38 35 56 54 10 5 42 67 29 59 49 61 1 22 13 4 7 48 23 69 21 -8 -28 -12 -2 -16 -26 -37 -24 -53 -27 -63 -72 -60 -50 -70 -19 -39 -52 0
62 9 63 67 3 47 48 34 60 41 43 13 58 70 -36 -11 -30 -4 -52 -22 -59 -65 -71 -5 -7 -26 -19 -10 -25 0
20 5 43 6 -47 -57 -66 -17 0
22 5 50 16 13 60 68 63 19 29 41 55 57 6 10 -3 -56 -33 -46 -52 -2 -8 -70 -59 -45 -54 -21 -61 -62 -12 -34 0
20 60 36 61 52 5 40 47 38 70 21 8 72 55 6 44 31 57 29 -9 -71 -12 -18 -34 -30 -39 -58 -15 -68 -25 -66 -64 -53 -67 -27 -28 -22 -65 -14 0
43 15 3 58 9 -29 -12 -7 -18 -50 0
-31 0
55 51 17 6 56 5 35 43 40 57 68 -23 -41 -42 -3 -70 -29 -33 0
12 28 34 55 33 41 20 13 4 8 10 56 1 67 36 16 40 23 9 14 2 32 68 18 43 -39 -65 -52 -30 -66 -64 -59 -63 -25 -11 -72 -57 -37 -61 -38 -27 -58 -19 -50 -49 -54 -35 -6 -21 -3 -17 -15 -44 -47 -29 -60 -31 -71 0
18 9 64 68 23 13 22 59 45 16 38 14 28 4 21 72 1 15 50 -71 -10 -51 -27 -44 -34 -61 -42 -43 -30 -55 -37 0
11 58 29 16 45 10 22 -54 -3 -5 -52 -66 -49 0
30 72 50 13 -15 -53 -62 -31 0
61 36 23 14 68 6 5 19 42 17 63 27 34 32 9 58 62 25 41 10 57 15 53 4 -28 -64 -18 -67 -52 -54 -45 -65 -47 -11 -26 -39 -56 -66 0
2 5 12 51 34 -70 -66 -50 -39 -38 -57 -3 -68 -10 -17 -67 -40 -49 -23 -60 -25 -14 -58 -31 -64 0
58 6 40 48 28 64 43 37 5 10 22 54 57 71 33 21 -2 -17 -18 -31 -26 -62 -25 -12 -55 -42 -51 -49 -60 -32 -66 -34 -68 -23 -56 -1 -72 -27 -4 -3 -16 -50 -67 0
17 31 6 54 46 42 16 -13 -67 -66 -24 -19 -70 -44 -72 0
34 71 0
58 56 3 2 -54 -9 -62 -34 -22 -24 -23 0
52 33 11 40 46 62 57 64 16 28 56 -38 -43 -68 -27 -8 -21 -23 -22 -53 -55 -4 -25 -41 -32 -34 0
26 37 58 -28 -71 -1 0
49 41 51 54 5 7 8 70 68 -44 -29 -31 -55 -65 0
6 23 7 1 2 62 -12 -24 -5 -37 -9 -46 -20 -50 -10 -65 -35 -36 -51 0
38 62 12 33 7 14 58 37 59 21 56 66 -42 -61 -41 -26 -29 -44 -24 -71 -45 -3 -35 -20 0
32 21 47 35 67 39 45 49 -38 -68 -10 -7 -26 -3 -12 -29 -33 -57 -11 -19 0
15 11 43 13 30 22 48 46 6 61 45 64 56 50 25 27 4 67 -20 -24 -53 -2 -9 -55 -14 -16 -59 -40 0
58 64 17 48 35 16 43 61 60 65 20 46 -33 -41 -67 -21 -28 -63 -24 -1 -50 -10 -40 -22 0
72 65 29 62 30 16 37 66 18 41 28 4 71 53 36 69 43 27 51 40 56 10 61 49 54 -8 -67 -20 -55 -48 -59 -39 -17 -7 -31 -57 -23 -32 -3 -44 -70 -25 -46 -35 -6 -5 -42 -11 -19 -9 -1 -26 -45 -12 -33 -34 -15 -64 0
31 2 51 52 68 13 10 30 71 40 11 34 43 24 17 7 33 20 47 37 27 53 29 6 65 69 54 46 16 48 8 4 -19 -39 -26 -64 -50 -1 -21 -63 -67 -49 -12 -28 -70 -5 -38 -44 -32 -59 -57 -42 -66 -18 -23 -58 -22 -25 -62 -3 -36 -55 -61 -15 -72 -35 -9 -14 -41 -60 -56 0
15 58 26 71 67 66 23 68 44 69 54 53 16 36 63 22 51 48 40 4 -33 -42 -55 -1 -6 -30 -29 -7 -38 -59 -60 -49 -46 -41 -35 0
27 25 67 64 50 7 55 24 15 60 29 8 30 40 18 65 59 -54 -34 -56 -41 -49 -43 -23 -28 -3 -10 -2 -35 -48 -4 -31 -57 0
67 61 64 49 17 9 71 62 59 4 69 34 5 21 16 42 48 70 2 8 25 54 45 1 -63 -55 -40 -12 -38 -18 -56 -23 -26 -52 -24 -14 -30 -72 -66 -51 -46 -22 -32 -41 -57 -3 -13 -10 -53 -31 0
30 38 72 61 47 10 25 58 24 64 66 36 5 6 53 52 70 3 63 23 65 37 50 27 16 51 8 59 14 35 13 49 21 11 29 2 54 45 62 4 -22 -20 -26 -15 -28 -67 -31 -68 -1 -41 -33 -60 -48 -44 -46 -57 -19 -56 -7 -69 -17 -71 -32 -9 -55 -39 -18 -12 0
21 62 57 36 11 31 49 1 44 48 29 39 46 45 38 56 4 27 32 15 14 60 43 24 19 37 33 13 55 25 58 28 54 -12 -9 -52 -64 -67 -20 -6 -42 -68 -5 -41 -59 -3 -23 -7 -40 -2 -66 -16 -35 -34 -22 -47 -30 -8 -17 -71 0
13 31 54 33 46 29 53 61 30 41 15 47 -50 -70 -8 -34 -1 -27 -71 -17 0
46 63 6 40 42 65 38 52 69 32 19 39 59 9 21 28 34 41 71 54 7 70 49 16 14 5 29 56 51 10 -22 -53 -24 -8 -12 -1 -13 -11 -57 -30 -25 -35 -2 -15 -27 -50 -37 -55 -64 -62 -43 -45 -66 -47 -3 -33 -61 -26 -72 -48 -17 -58 -18 -68 0
49 38 53 -71 -1 -7 -44 0
19 16 23 25 37 12 43 13 4 44 11 72 54 27 46 31 38 18 3 1 17 41 52 58 10 49 -65 -8 -32 -5 -57 -67 -20 -36 -64 -55 -26 -40 -61 -22 -2 -15 -45 -47 -60 -70 -7 -21 -39 -34 -50 -66 0
39 65 51 15 5 9 71 58 32 6 54 16 -31 -72 -38 -20 -34 -10 -1 -37 -22 0
32 71 -5 -22 -4 0
51 14 12 67 63 69 16 45 2 40 27 37 58 11 34 44 25 -13 -56 -65 -5 -60 -43 -3 -36 -42 -52 -9 -64 -55 -61 -7 -57 -20 -1 -6 -33 -41 -38 -47 -17 -15 0
59 32 38 44 4 2 50 37 36 45 43 10 25 9 47 15 62 60 26 21 57 61 -29 -40 -58 -68 -16 -34 -23 -11 -65 -31 -13 -41 -17 -67 -49 0
16 54 46 38 56 58 72 47 63 41 8 21 50 53 57 49 52 37 14 65 9 11 48 7 24 -61 -71 -10 -3 -60 -19 -22 -51 -39 -15 -59 -32 -12 -62 -45 -29 -6 -1 -20 -36 0
66 57 17 65 10 52 -54 -18 -7 -16 -12 -6 -36 0
16 3 46 26 6 22 40 63 12 54 -41 -64 -21 -53 -14 0
38 12 39 70 41 42 34 32 55 26 60 9 10 22 31 54 62 36 20 18 19 5 53 65 59 17 33 6 64 -47 -57 -51 -37 -16 -23 -52 -4 -68 -3 -7 -40 -69 -2 -8 -25 -58 -72 -48 -63 -14 -11 -15 -27 -13 -49 0
60 36 55 43 61 4 21 65 14 26 46 66 52 47 32 17 18 20 -70 -51 -13 -22 -34 -38 -19 -9 -48 -27 -6 -40 -50 -31 -12 -11 -56 -29 -69 -64 -35 -54 -59 -42 -39 -41 -57 -45 -7 0
46 11 9 70 34 -52 -13 -59 -36 0
48 58 57 68 53 36 11 44 69 22 61 63 17 40 28 1 49 15 3 54 47 16 67 2 35 37 5 64 56 26 70 60 38 12 34 7 27 -13 -32 -14 -23 -6 -43 -41 -66 -71 -55 -45 -30 -20 -25 -4 -72 -18 -29 -21 -24 -46 -62 -8 -31 -19 -39 -50 -65 -51 -10 -52 -59 -33 0
60 55 40 42 3 23 38 65 9 10 45 41 29 67 47 51 56 68 22 58 25 24 39 44 19 50 30 21 37 31 49 43 4 72 16 69 48 18 -15 -27 -5 -64 -59 -71 -28 -7 -11 -70 -62 -46 -17 -12 -13 -35 -14 -20 -26 -63 -8 -52 -61 -6 -2 -54 -53 -57 -66 -1 -33 -34 -36 0
28 17 49 55 64 16 41 45 2 27 13 12 15 51 57 60 62 39 21 14 58 23 32 72 5 8 44 25 69 56 24 43 19 -68 -47 -59 -65 -71 -22 -34 -70 -3 -54 -37 -52 -1 -11 -30 -67 -20 -38 -42 -9 -50 -6 -7 -26 -36 -35 -4 -46 -29 -61 -10 -31 -48 0
55 37 20 24 18 64 29 33 67 63 -17 -70 -57 -21 -12 -48 -2 0
55 62 53 32 1 44 9 11 35 -28 -45 -58 -46 -40 -21 -5 -69 -68 -29 -38 -34 -27 -67 -15 -64 -65 -56 -16 -30 -23 0
49 70 43 18 29 3 60 69 2 52 39 40 27 45 59 11 51 50 5 8 16 -17 -23 -35 -72 -30 -55 -31 -58 -66 -22 -21 -56 -14 -34 -33 -42 -36 -32 -9 0
17 65 67 51 39 31 42 9 25 43 57 49 7 61 50 70 11 59 44 56 22 14 38 69 1 5 -16 -15 -33 -32 -27 -53 -72 -35 -41 -68 -46 -45 -24 -20 -13 -26 -66 -29 -54 -3 -28 -30 -36 -6 -55 -12 -48 -63 -37 -64 -23 -40 -8 -18 -47 0
59 71 10 36 53 45 63 26 15 37 60 3 38 57 20 7 28 14 47 39 51 35 68 32 44 46 -56 -27 -49 -54 -16 -33 -42 -11 -52 -2 -19 -21 -34 -1 -29 -6 -5 -23 -62 -64 -69 0
-29 -20 0
8 44 42 54 50 18 34 3 46 32 37 4 59 29 53 69 62 43 58 41 7 35 6 38 19 26 28 23 68 66 70 2 52 57 5 9 17 -14 -47 -33 -13 -60 -16 -27 -1 -12 -64 -48 -22 -11 -30 -25 -49 -55 -45 -39 -15 -20 -65 -61 -63 -31 -21 -67 -56 -71 -10 -40 0
50 10 31 13 17 29 20 26 21 30 53 43 22 55 15 40 11 66 52 38 14 57 60 25 9 -48 -62 -8 -70 -49 -1 -58 -4 -23 -34 -68 -45 -18 -63 -54 -72 -32 -6 -12 -19 -46 -65 -16 -41 -24 -36 -5 -67 -7 0
28 2 67 16 23 37 8 71 -10 -17 -13 -48 -38 0
72 70 44 56 31 52 6 -10 -16 -47 -57 -55 -21 -13 -38 -51 -50 -48 0
46 72 27 63 16 51 59 9 58 61 42 11 7 69 21 62 64 12 35 24 -33 -56 -38 -2 -34 -54 -53 -19 -3 -39 -44 -43 -36 -70 -55 -60 -23 -71 -68 0
72 15 27 23 54 35 3 -50 -8 -41 -66 -17 -51 -57 -11 -28 -25 0
50 19 13 21 24 32 37 14 49 26 9 55 30 31 33 42 2 27 22 46 48 57 -63 -53 -68 -61 -67 -60 -18 -58 -20 -25 -3 -69 -1 -72 -70 -5 -52 -65 -38 -71 -66 -45 0
61 4 70 66 25 17 31 60 68 29 -28 -37 -38 -33 -36 -3 -13 -27 -52 -55 -56 -46 -9 -15 -11 -23 -49 -69 -54 -2 0
29 18 44 9 50 69 11 51 62 21 53 13 56 10 15 52 34 49 3 20 32 57 60 38 59 25 45 71 67 55 37 46 -8 -31 -24 -61 -66 -17 -5 -14 -47 -41 -36 -72 -58 -63 -65 -6 -22 -54 -26 -64 -30 -35 -16 -28 -42 -43 -70 -1 -33 -12 -19 -2 -48 -68 -39 -4 -23 -7 0
64 4 46 -67 -66 -71 0
20 2 31 23 13 68 25 45 52 63 6 8 14 17 54 40 50 43 57 -59 -22 -4 -64 -55 -29 -5 -15 -53 -48 -33 -27 -36 -41 -61 -42 -56 -16 -70 -28 -21 -69 -26 -51 -47 -19 -46 -3 0
20 31 6 1 28 45 13 37 70 21 3 67 51 29 30 22 60 12 23 7 55 26 56 39 65 -24 -57 -63 -5 -58 -32 -46 -42 -15 -35 -44 -34 -62 -33 -41 -8 -9 -11 -71 0
33 9 38 39 47 3 18 59 14 42 56 -13 -72 -19 -17 -60 -21 -31 -34 -69 -8 -27 -4 -61 -22 -53 0
50 46 52 2 44 55 16 67 22 49 7 15 70 54 60 59 12 1 57 37 10 18 11 42 64 23 48 53 68 25 33 26 72 45 -63 -14 -69 -43 -19 -58 -27 -61 -38 -41 -8 -51 -34 -36 -47 -6 -39 -31 -17 -9 -5 -4 -30 -24 -3 -13 -28 -65 -66 -21 -35 0
43 40 38 20 35 5 56 7 47 22 18 72 14 34 23 51 37 30 64 59 67 58 63 12 45 48 11 4 52 29 70 10 66 31 28 26 -65 -1 -32 -36 -46 -53 -44 -54 -25 -49 -39 -41 -62 -50 -2 -3 -17 -55 -19 -8 -9 -57 -21 -42 -24 -71 -6 -33 -69 -16 -60 -61 -13 0
50 -17 -71 -59 0
42 14 34 65 69 18 67 45 53 55 48 1 70 52 63 -54 -38 -19 -56 -43 -50 -36 -61 -4 -30 -2 -41 -28 -58 0
41 68 8 7 62 23 20 60 71 52 21 3 12 6 67 54 19 14 72 61 47 46 49 22 56 65 29 43 45 39 27 -24 -55 -15 -64 -11 -33 -69 -34 -17 -30 -38 -31 -2 -59 -13 -50 -32 -44 -28 -5 -53 -57 -9 -58 -10 0
14 34 44 64 3 31 37 33 30 32 -18 -25 -36 -15 -22 -59 -71 -63 -58 -66 -47 -54 -72 0
22 -70 -52 0
55 15 59 53 56 23 33 40 12 54 27 35 70 51 41 49 58 22 29 57 5 39 62 24 26 -45 -65 -68 -71 -37 -67 -38 -28 -7 -13 -42 -6 -61 -14 -25 -3 -63 -1 -64 0
9 2 54 61 63 16 40 60 23 55 25 53 66 10 18 62 32 -22 -28 -57 -49 -3 -6 -52 -20 -71 -47 -26 -14 -13 -12 -46 -37 -45 -34 -35 -50 -48 -1 -15 -51 0
70 4 38 48 19 29 40 41 1 54 35 -55 -51 -67 -65 -46 -27 -32 -63 -21 -53 0
21 59 12 17 3 25 49 70 58 65 63 24 5 30 9 43 -46 -8 -22 -62 -44 -54 -20 -67 -52 -36 -31 -29 -51 -13 -71 -39 -48 -35 0
57 23 55 43 7 71 1 30 31 11 62 9 35 -25 -36 -44 -52 0
72 43 2 23 8 29 34 56 44 40 59 57 21 39 15 37 38 5 71 52 46 11 48 64 22 -18 -3 -49 -1 -26 -53 -63 -58 -65 -55 -28 -24 -54 -51 -27 -41 -33 -10 -62 -25 -36 -45 -9 -35 -17 -13 -42 -16 -32 -60 -47 -20 0
60 37 49 35 -52 -29 -56 0
20 44 51 28 40 67 58 18 43 14 46 -70 -25 -9 -62 -55 -35 -45 -71 -52 -23 -2 -42 0
2 49 70 51 50 22 41 60 23 19 3 66 34 65 5 72 39 38 71 61 6 -48 -33 -18 -9 -69 -12 -24 -31 -28 -46 -43 -17 -10 -21 -57 -1 -35 -63 -29 0
14 58 19 66 22 30 23 7 33 47 16 -39 -5 -29 -37 -42 -57 -38 -9 0
27 58 44 6 28 18 32 -13 -36 -14 -35 -26 -1 -71 -56 0
4 63 55 26 66 14 27 40 1 72 57 21 5 3 37 61 29 45 59 67 17 42 24 54 70 52 8 15 7 64 20 -50 -13 -6 -16 -10 -32 -60 -53 -44 -43 -68 -38 -39 -25 -34 -22 -31 -30 -62 -11 -56 -12 -36 -19 -33 -58 -49 0
52 40 58 60 16 11 39 46 49 42 48 1 26 71 15 70 24 17 51 12 35 8 2 67 -18 -13 -14 -69 -37 -43 -41 -63 -38 -65 -32 -34 -72 -57 -30 -9 -31 -28 -21 -50 -6 -62 -47 -23 -61 0
11 32 51 66 67 30 3 17 -34 -36 -9 -10 -29 -31 -70 0
19 40 26 37 28 34 53 31 62 39 61 44 24 60 64 69 51 14 3 7 5 20 71 18 16 68 30 -33 -22 -46 -13 -52 -17 -41 -48 -12 -50 -21 -10 -32 -35 -36 -4 -54 -47 -6 -42 -58 -55 -11 -65 -27 0
7 6 25 55 29 57 63 8 51 -69 -4 -67 -42 -49 -26 -5 -45 -23 0
23 7 59 53 24 10 18 58 69 43 56 64 46 2 47 72 34 4 65 39 66 42 49 28 67 9 38 26 -32 -63 -21 -5 -11 -30 -36 -41 -52 -1 -62 -3 -12 -60 -29 -8 -71 -48 -70 -54 -57 -15 -45 -68 0
28 57 35 0
72 53 45 49 31 46 40 1 41 25 58 2 54 39 16 44 65 8 71 57 43 47 22 -55 -66 -30 -18 -35 -69 -24 -5 -33 -10 0
56 38 71 63 52 14 12 57 22 55 59 13 21 65 -42 -2 -49 -18 -5 -24 -17 0
50 63 61 1 46 66 49 41 -4 -48 -25 -15 -33 -58 -3 -11 0
63 72 24 67 21 70 35 31 50 64 60 19 61 23 -43 -1 -27 -44 -49 -58 -15 -52 -7 -36 -22 -32 -2 -9 -55 -51 -6 -3 -11 -18 -14 -38 -39 -65 -48 -37 -13 -25 -59 -17 -42 -57 -33 -40 -4 0
2 45 56 61 50 10 64 49 7 18 67 20 16 33 69 25 12 4 9 54 34 48 21 27 13 65 43 71 28 23 5 -8 -62 -38 -70 -72 -52 -14 -31 -35 -59 -41 -6 -66 -24 -3 -26 -15 -55 -51 -53 -63 -58 -29 -68 -44 -36 -57 -30 -42 -32 -17 -22 -46 -39 -60 -37 -47 -11 -40 0
41 68 24 46 33 63 19 31 20 26 65 50 72 29 22 35 52 51 58 21 66 -13 -32 -55 -64 -39 -60 -36 -42 -5 -47 -30 -17 -70 -23 -38 -2 -71 -9 0
46 61 37 66 49 32 40 38 24 34 22 10 70 54 31 42 56 -59 -7 -18 -5 -23 -4 -15 -63 -13 -20 -64 -28 -19 -43 -44 -29 -14 -2 -6 -41 -25 -8 -3 -48 -50 -35 0
30 23 32 28 48 18 11 27 6 50 58 3 60 8 39 -34 -15 -12 -52 -40 -25 -45 -63 -21 -47 -72 -53 -4 -67 -35 -56 -10 -22 0
42 45 26 50 24 35 27 65 11 37 31 23 51 61 15 34 7 30 20 5 63 71 -16 -14 -49 -59 -1 -39 -53 -67 -57 -68 -4 -40 -13 -29 -12 -9 -47 -69 -55 -2 -48 -54 -33 -66 -10 -58 -32 -17 0
9 61 31 23 3 6 12 22 32 40 24 -64 -46 -36 -19 -44 -5 -68 -34 -16 -2 -21 -62 0
29 56 34 24 43 8 4 41 42 30 61 16 18 -11 -47 -26 -63 -5 -2 -23 -38 -27 0
25 41 59 27 55 38 49 37 35 58 31 15 3 6 42 5 26 68 39 24 71 -16 -65 -62 -4 -36 -66 -33 -19 -52 -22 -67 -43 -10 -12 -63 -14 0
40 2 34 38 24 7 30 36 50 15 5 42 55 22 14 41 6 26 21 29 54 -18 -69 -72 -27 -64 -57 -43 -56 -8 -28 -51 -32 0
18 25 5 68 10 35 58 20 17 -2 0
53 69 3 16 37 5 62 46 58 -44 -55 -54 -63 -18 -13 -9 -7 -10 -66 0
28 69 32 6 48 41 5 10 49 30 59 19 -16 -46 -34 -57 -68 -62 0
61 2 19 59 17 -42 -41 0
12 59 65 56 24 70 -52 -42 -29 0
18 58 46 32 55 21 54 9 65 5 62 13 4 50 45 33 1 47 30 8 20 43 41 59 36 38 -22 -56 -68 -49 -14 -12 -67 -71 -28 -40 -27 -34 -48 -63 -15 -57 -39 -17 -23 -70 -44 -60 -72 -6 -2 -11 -61 -52 -10 -35 -3 -37 -26 -7 -24 -51 -29 -66 -31 -25 -53 -64 -19 0
34 38 47 64 55 18 41 53 21 24 57 35 28 36 33 -67 -40 -63 -58 -12 -54 -42 -46 -48 -8 -51 -37 -17 -71 -6 -56 -27 -15 -4 0
71 62 -52 -47 -14 -32 0
62 69 55 41 12 60 22 16 64 5 36 24 50 63 7 59 18 67 25 -2 -52 -45 -14 -27 -28 -40 -6 -9 -42 -19 -48 -44 -34 -71 -17 -29 -30 -33 -58 -43 -32 -3 -4 -49 -70 -26 -61 0
27 53 24 58 26 3 15 65 7 39 69 2 56 -46 -42 -38 -66 -67 -1 -41 -68 -70 -64 -54 -37 -44 -52 0
30 13 37 70 65 24 1 67 52 28 8 23 15 26 32 3 25 16 17 7 71 10 61 5 47 42 48 41 66 9 64 -36 -19 -21 -46 -33 -11 -2 -49 -14 -39 -45 -27 -50 -57 -22 -60 -68 -51 -29 -35 -54 -12 -43 -58 -38 -18 -31 -69 -34 0
23 71 50 63 54 56 1 46 27 39 44 48 53 35 30 5 17 57 51 3 58 36 15 65 64 11 67 69 21 55 49 4 -18 -34 -2 -6 -61 -59 -16 -37 -29 -40 -12 -32 -7 -26 -66 -13 -68 -25 -22 -20 -52 -28 -10 -42 -41 -72 -24 -70 -14 -47 -8 0
29 47 8 14 24 9 21 17 27 53 25 40 44 32 61 39 38 3 69 28 48 63 36 58 19 20 13 57 71 68 23 45 50 -7 -70 -42 -2 -33 -18 -34 -52 -55 -59 -65 -49 -11 -4 -6 -51 -31 -72 -41 -15 -54 -5 -12 -66 -1 -35 -37 -22 -60 -46 -56 -67 -43 -10 -16 -30 0
61 28 2 45 29 12 -5 -64 -25 -11 -24 -27 -68 -14 -58 0
4 57 40 70 13 50 24 52 9 49 34 15 45 43 3 30 6 22 53 19 65 61 64 42 29 47 -41 -26 -10 -33 -71 -38 -37 -55 -56 -35 -51 -17 -25 -7 -68 -8 -39 -58 -69 -32 -31 -36 -18 -20 -67 -59 -5 0
15 68 58 48 29 7 44 43 18 3 34 67 4 40 46 22 49 52 8 57 28 19 72 24 65 1 37 10 51 12 45 64 36 -5 -2 -32 -23 -53 -31 -39 -54 -21 -62 -55 -42 -14 -9 -20 -17 -41 -61 -30 -25 -71 -26 -50 -47 -69 -6 -38 -27 -59 -60 -35 -11 -56 -63 -33 0
38 63 50 16 67 11 39 28 37 51 34 8 32 7 36 5 56 70 71 4 2 30 57 12 -48 -55 -1 -9 -53 -61 -58 -6 -65 -15 -14 -20 -21 -47 -3 -17 -24 -19 -35 -22 -60 -31 0
52 32 29 7 65 20 68 31 60 37 24 36 13 63 26 40 67 72 64 57 34 5 41 58 22 44 30 -33 -50 -2 -1 -25 -35 -27 -23 -55 -6 -17 -3 -69 -45 -10 -42 -15 -12 -28 -43 -38 -21 -39 -48 -53 -16 0
17 23 35 32 62 71 19 55 67 -48 -9 -7 -34 -45 -37 0
61 8 31 42 20 27 40 7 16 1 34 12 -18 -53 -57 -47 -71 -48 -29 -54 -22 -32 -36 -30 -46 -15 -65 -35 -55 0
58 28 6 54 26 60 30 53 55 49 69 56 31 38 44 17 42 65 12 8 57 50 71 1 40 37 29 66 27 39 68 4 70 64 33 9 35 18 -34 -25 -52 -51 -43 -14 -13 -15 -32 -2 -24 -11 -36 -61 -48 -62 -59 -41 -5 -45 -7 -20 -23 0
8 30 71 53 5 55 61 29 -21 -4 -27 -42 -58 -31 -49 -24 -15 0
23 25 8 54 72 70 65 30 53 13 50 69 52 59 18 -40 -43 -36 -38 -35 0
38 25 71 37 -9 -70 -4 -10 -29 -45 -28 -41 0
5 30 27 23 21 63 41 49 10 48 -17 -38 -57 -31 -20 0
11 56 35 25 2 45 48 -37 -42 -44 -50 -22 -21 0
11 61 23 1 15 41 67 20 63 2 12 5 51 4 59 30 54 -6 -42 -14 -50 -39 -13 -35 -34 0
9 18 67 23 54 65 8 3 61 53 70 10 71 48 -19 -69 -22 -57 -26 -41 -32 -40 -29 -37 -72 -50 -6 -62 -20 -35 -16 -68 -27 0
20 72 34 32 17 5 69 24 43 55 30 14 62 9 31 27 25 58 6 47 2 49 4 -66 -13 -12 -1 -21 -71 -26 -8 -52 -19 -40 -45 -68 -33 -48 -36 -56 -28 -41 -51 -10 -16 0
62 71 72 12 43 50 -69 -27 -11 -60 -10 0
54 44 63 21 72 23 3 17 27 65 31 58 56 12 45 -19 -48 -70 -69 -14 -30 -26 -36 -49 -53 -1 -60 -64 -61 -13 -46 -55 -11 -5 -62 -2 -38 -37 -28 0
72 48 66 24 36 6 -50 -12 -56 -4 -71 -70 -45 -62 0
28 72 14 6 23 71 48 29 11 22 58 10 45 42 36 -43 -37 -64 -34 -24 -17 -62 -32 -35 0
19 57 70 31 71 20 40 7 43 64 50 72 61 34 23 49 24 4 1 52 59 42 2 6 68 -54 -47 -10 -8 -35 -30 -63 -12 -58 -51 -22 -16 -65 -69 -37 -46 -26 -48 -27 0
33 4 34 28 65 64 67 16 7 55 44 56 27 69 31 19 39 47 53 11 68 25 48 52 41 12 9 21 18 -59 -8 -43 -29 -60 -23 -36 -57 -72 -5 -45 -66 -1 -32 -38 -58 -14 -22 -20 -54 -26 -70 -46 -62 0
52 69 14 47 53 46 10 26 64 42 21 65 54 61 68 70 56 31 1 -67 -36 -11 -30 -57 -66 -4 -28 -38 -12 -19 -37 -40 -58 -39 -29 0
4 23 44 45 55 56 62 10 43 58 33 57 26 67 61 40 54 39 72 29 1 20 68 35 70 22 42 66 32 53 36 60 11 -50 -25 -38 -15 -46 -65 -63 -13 -30 -2 -24 -17 -12 -34 -18 -59 -37 -5 -47 -31 -49 -64 -41 -28 -71 -3 -51 -9 -69 -19 -27 0
12 5 36 26 -16 0
38 -13 -53 -16 -47 0
33 -16 0
52 33 21 38 43 42 41 40 4 57 34 3 51 7 13 68 66 25 29 65 71 47 -27 -5 -72 -22 -45 -59 -1 -6 -37 -62 -61 -20 -15 -46 -31 -63 -50 -48 -19 -36 -44 0
15 47 31 20 3 34 43 61 57 51 26 -40 -45 -35 -54 -22 -64 -12 -14 -24 -21 -62 -66 0
1 22 13 3 62 64 56 18 15 48 43 28 24 63 42 12 45 29 50 11 16 30 49 41 57 44 32 72 8 -17 -39 -61 -54 -36 -58 -25 -53 -60 -51 -7 -4 -34 -2 -38 -19 -23 -6 -47 -68 -71 -27 -65 -14 -55 -9 -70 0
3 54 37 13 72 44 48 21 28 39 20 31 30 -45 -29 -8 -2 -41 -53 -11 -63 0
24 62 48 36 70 33 40 31 27 46 43 15 6 59 30 66 2 -37 -16 -9 -54 -42 -55 -26 0
4 35 40 65 64 23 7 16 21 20 29 53 -8 -66 -32 -62 -13 -47 -56 -59 -70 -19 0
56 7 12 2 10 46 62 53 37 20 -39 -4 -48 -42 -11 -16 -58 -68 -8 -57 0
45 40 17 22 4 44 23 11 -1 -12 -33 -63 -10 -16 0
6 44 29 41 63 64 38 66 52 67 1 68 3 24 21 -54 -11 -33 -39 -28 -23 -48 0
48 44 57 55 11 8 49 71 20 4 26 51 15 1 25 18 30 3 14 65 61 28 59 10 36 72 50 13 -16 -60 -7 -52 -29 -23 -32 -38 -31 -46 -66 -24 -5 -34 -70 -27 -56 -9 -40 -12 -67 -41 -54 -64 -39 -42 -68 -53 -21 -33 -45 -62 -2 -63 -37 0
66 46 23 30 70 62 9 3 48 60 10 21 27 36 65 45 1 26 61 56 18 49 28 14 37 8 55 52 5 13 -41 -47 -51 -64 -39 -29 -53 -22 -68 -24 -17 -69 -50 -32 -31 -20 -16 -2 -43 -54 -7 -63 -72 -19 0
50 63 49 14 35 -41 -42 -62 -66 -33 -21 -59 0
54 -70 -19 -47 0
60 64 27 2 69 4 20 37 44 21 59 58 6 56 30 18 28 52 12 51 29 53 61 48 -38 -13 -41 -40 -23 -67 -42 -1 -32 -47 -68 -55 -63 -25 -11 -54 -26 -66 -17 -5 -15 0
44 8 46 13 5 64 41 15 7 65 60 3 17 45 55 40 -34 -2 -70 -24 -56 -61 -19 -58 -52 -42 -36 -16 -20 -47 -14 -68 -67 -31 -49 -48 -11 0
70 22 17 63 30 46 -25 -18 -50 -12 -31 -68 -43 -49 -52 -45 0
3 46 10 40 21 1 16 34 41 36 67 72 61 7 62 66 13 5 2 4 14 53 -70 -68 -42 -39 -63 -33 -22 -50 -25 -48 -30 -37 -9 -31 -38 -56 0
7 25 40 45 66 41 27 55 33 61 11 -4 -42 -67 -46 -6 -2 -22 -13 0
59 62 71 12 66 8 48 26 46 43 4 -60 -27 -55 -61 0
37 33 36 30 3 48 47 9 34 21 29 68 5 43 2 52 50 61 70 56 1 54 59 -28 -26 -53 -66 -16 -19 -72 -27 -69 -4 -18 -44 -38 -49 -31 -60 -64 -8 -62 -58 -23 -63 -46 -57 -25 -20 -11 0
30 58 7 71 26 34 15 68 29 28 17 19 42 50 25 24 12 56 14 -13 -32 -21 -64 -72 -2 -40 -18 -35 -4 -16 -55 -53 -63 -46 -37 -8 -49 -33 0
1 68 45 62 58 57 65 7 22 48 42 -11 -35 -40 -71 -31 -43 -27 -64 -50 -51 -9 -15 -21 -56 -16 -47 -25 -59 -33 -13 -17 -38 -18 -61 -67 -52 0
70 25 16 50 64 58 46 27 62 3 19 61 12 29 56 4 60 6 44 23 47 14 -30 -28 -67 -63 -35 -51 -7 -31 -18 -42 -43 -65 -48 -2 -33 -52 -22 -36 -9 -54 -11 -45 -72 -55 -38 -20 -32 -53 -26 -39 0
13 65 5 45 69 41 67 56 29 53 28 44 10 9 70 11 35 21 25 14 24 -50 -46 -32 -3 -2 -31 -72 -64 -20 -54 -38 -19 -51 -55 -57 -52 -66 -40 0
45 24 53 55 59 64 54 51 9 4 50 43 29 8 72 7 65 12 41 39 30 37 70 25 14 60 52 33 48 32 46 6 16 -19 -21 -71 -2 -63 -49 -11 -28 -3 -20 -44 -10 -42 -57 -68 -35 -38 -56 -69 -15 -22 -31 -5 -13 -47 -34 -40 0
15 14 39 54 26 72 48 67 35 61 46 38 53 17 56 43 52 -23 -24 -47 -64 -34 -44 -25 -45 -49 -42 -70 -21 -58 -32 -59 -62 -19 -41 -71 -29 -57 0
16 66 71 59 60 46 21 68 27 30 14 62 32 5 19 57 10 40 33 7 48 36 42 49 29 52 39 4 70 44 28 54 53 31 -45 -3 -6 -35 -17 -15 -20 -11 -64 -55 -50 -22 -9 -25 -37 -47 -13 -69 -2 -41 -18 -26 -56 -8 -58 -12 -61 -23 0
58 8 30 1 16 52 62 11 6 42 10 5 36 -12 -72 -33 -7 -48 -29 -21 -50 -19 -54 -24 -51 -44 0
61 20 42 34 66 3 51 49 16 2 71 14 70 68 54 29 -4 -33 -13 -1 -25 -36 -18 -22 -35 -28 -45 -63 -65 -59 -62 -24 -47 -56 0
23 57 41 3 59 70 22 2 72 16 11 37 10 48 1 61 56 55 40 47 30 28 38 29 67 8 13 20 68 14 -18 -35 -64 -7 -12 -54 -34 -26 -33 -6 -66 -27 -58 -25 -53 -4 -44 -19 -17 -42 -31 -46 -51 -32 -36 0
45 43 60 9 11 -19 -21 -44 -39 -4 -33 0
67 69 17 23 61 52 12 49 46 50 40 62 51 70 8 14 7 -34 -36 -66 -11 -18 -58 -15 -72 -3 -30 -21 -22 -54 -68 -37 0
47 20 52 67 30 43 2 40 51 32 64 56 19 58 36 -70 -21 -34 -48 -8 -27 -4 -53 -57 -37 -6 -9 -28 -50 -49 -41 -44 -11 -45 -15 -10 -12 -68 0
60 46 64 11 29 72 39 24 8 58 49 6 54 17 59 33 28 31 3 66 18 37 27 65 34 22 35 16 68 52 51 -9 -25 -63 -55 -42 -50 -45 -43 -62 -15 -26 -69 -1 -19 -44 -57 -38 -47 -2 -20 -23 -48 -32 -30 -61 -5 -40 -70 -67 -12 -13 -21 -41 -14 -71 -10 -7 0
6 40 46 63 -57 -20 -8 -21 -37 -29 0
49 19 31 55 52 71 9 26 1 42 48 60 35 40 18 54 28 39 10 44 69 61 57 41 4 -20 -32 -27 -25 -21 -68 -38 -13 -47 -59 -29 -63 -17 -5 -46 -37 -15 -30 -36 -72 -12 0
49 56 6 3 71 32 39 60 53 52 33 55 5 16 48 69 26 15 47 21 7 46 11 41 68 38 35 -27 -57 -22 -67 -44 -63 -31 -30 -29 -1 -64 -36 -24 -54 -62 -40 -18 -45 -19 -12 -65 -59 -23 -28 -51 -17 0
4 21 27 32 5 19 20 51 15 34 16 69 46 10 41 37 61 52 38 12 36 13 -63 -55 -18 -9 -40 -50 -2 -45 -7 -57 -44 -62 -23 -31 -3 -58 -26 -39 -67 -14 -68 -6 -25 -30 0
60 1 29 72 46 30 24 25 68 2 62 50 32 9 5 34 69 63 67 48 11 35 43 13 45 -44 -40 -33 -27 -47 -26 -36 -19 -61 -37 -21 -15 -59 -55 0
32 36 26 68 28 29 23 50 30 7 39 66 37 61 8 63 56 52 72 62 43 19 -46 -65 -34 -1 -18 -42 -5 -2 -10 -21 -59 -27 -64 -67 -14 -9 -22 -20 -58 -11 0
53 15 69 54 3 60 61 -22 -66 -50 -35 0
51 41 20 44 6 63 24 66 4 19 46 64 49 57 10 -16 -32 -45 -62 -29 -2 0
36 24 40 39 23 7 64 59 18 15 54 61 3 -48 -5 -57 -13 -51 -45 -28 -50 -31 -33 -65 -16 -55 -32 -70 -37 0
2 25 55 10 35 61 4 1 11 52 23 3 53 67 33 63 58 69 56 48 44 37 46 14 29 17 9 13 43 64 20 65 39 -22 -41 -54 -7 -71 -40 -51 -28 -66 -16 -27 -19 -49 -8 -31 -50 -32 -21 -18 -24 -6 -30 -15 -12 -42 -72 -38 -60 -5 -70 -59 -36 -68 -45 -62 -26 -34 -47 0
72 24 62 5 13 31 8 58 54 69 41 -57 -30 -23 0
24 63 15 1 71 66 4 13 61 54 45 44 38 72 53 19 60 51 36 35 70 62 5 -9 -23 -43 -52 -68 -56 -42 -33 -28 -11 -64 -57 -21 -58 -2 -31 -46 -7 -20 -50 -18 -49 -39 -41 -25 -26 -69 -27 -6 -55 -29 -12 0
14 55 32 67 16 21 39 9 2 46 3 20 5 25 36 34 61 -7 -22 -71 -51 -24 -50 -49 -8 -31 -15 -65 -17 -29 -47 -43 0
70 25 58 41 71 31 -61 -55 -49 -1 -53 -40 0
43 34 5 45 17 37 22 6 71 14 60 56 44 32 69 67 25 2 36 49 39 50 35 -42 -57 -24 -26 -65 -23 -48 -13 -15 -30 -66 -28 -59 -58 -33 -18 -11 -8 -62 -63 -52 -27 -70 -3 -16 -55 -61 -46 -68 0
55 45 66 67 22 6 -20 0
70 69 27 20 50 -54 -43 -65 -72 -41 -51 -26 0
22 8 11 71 37 5 51 58 15 28 39 19 21 56 12 31 49 63 27 59 4 52 17 41 60 54 -48 -68 -25 -64 -6 -70 -36 -18 -26 -14 -30 -40 -43 -38 -24 -2 -67 -42 -45 -16 -13 -55 0
19 -17 -61 -57 -44 0
48 6 58 29 59 32 41 51 4 1 -30 -72 -47 -34 -19 -5 -27 0
48 2 49 46 37 -53 -66 -70 -16 -33 -27 -35 -54 -22 0
59 48 64 44 54 17 14 60 29 19 37 8 52 72 22 21 38 12 32 50 5 7 26 24 61 40 3 56 -20 -30 -69 -9 -1 -13 -51 -68 -66 -70 -2 -46 -15 -55 -42 -11 -36 -10 -65 -41 -49 -16 -27 -58 -28 -34 -31 -35 -67 -18 -33 -25 -23 0
1 34 60 13 50 43 64 59 25 52 14 41 53 36 61 62 35 72 37 55 -46 -18 -9 -69 -67 -3 -51 -58 -7 -16 -15 -19 -26 -47 -45 -6 -30 -8 -66 -49 -2 -21 -28 -12 -44 -38 -23 0
15 20 11 23 44 65 33 52 37 36 72 66 18 -38 -8 -59 -17 -61 -9 -45 -29 -19 -3 -53 -54 -30 0
10 64 72 46 49 13 68 34 71 42 -52 -39 -37 -38 -62 -50 -51 -61 -19 -32 -28 -26 -8 -9 0
67 40 19 48 26 6 57 15 66 29 30 24 36 39 14 43 31 17 41 61 21 65 44 37 3 50 10 62 9 42 45 33 5 -49 -22 -11 -8 -32 -27 -47 -12 -70 -64 -60 -18 -51 -58 -23 -68 -59 -46 -1 -52 -16 -56 -69 -28 -34 -4 -35 -71 -72 -53 -20 -2 -54 -7 -38 -63 -25 -55 0
