c NeuroCodeBench 2.0 CNF formula with verdict Sat
p cnf 77 147
29 16 45 28 34 60 32 33 27 35 77 7 65 62 9 55 51 14 6 3 25 66 48 4 12 2 52 15 10 56 64 40 46 44 71 -72 -57 -63 -61 -49 -69 -24 -50 -68 -59 -1 -73 -30 -26 -58 -47 -70 -23 -11 -54 -74 -20 -22 -39 -76 -8 -13 -21 -37 -67 -31 -41 -17 -53 -19 -36 -5 -18 -43 -75 0
3 64 15 39 40 -45 -43 -49 -36 -1 -25 0
71 51 20 19 21 7 3 54 17 12 10 33 68 62 49 38 36 47 64 16 29 48 60 14 53 70 67 -15 -18 -39 -28 -46 -22 -37 -30 -11 -6 -69 -34 -8 -75 -72 -23 -41 -52 -26 -4 -1 -76 -35 -73 -5 -50 -27 -77 -24 -2 -44 -42 -13 -56 -65 -63 -43 -9 -66 0
62 16 17 43 29 76 2 47 5 22 75 26 41 67 60 21 10 58 27 73 70 59 28 -7 -34 -25 -14 -4 -19 -65 -37 -20 -11 -31 -8 -32 -57 -66 -68 -12 -3 -52 -42 -48 -74 -55 -30 -9 -44 0
49 9 20 58 52 66 40 63 6 43 2 37 68 61 67 13 1 17 47 44 18 77 14 74 31 25 8 50 4 48 32 19 30 56 46 -16 -23 -29 -27 -64 -33 -45 -41 -54 -57 -24 -62 -51 -21 -71 -35 -55 -39 -26 -15 -53 -70 -59 -76 -36 -22 -12 -10 -73 -42 -69 -3 -38 -28 -65 -60 -11 0
54 18 68 61 37 45 67 7 25 16 38 64 19 11 -50 -2 -31 -30 -57 -72 -51 -59 -75 -12 -10 -24 0
54 44 20 58 76 52 29 18 66 2 71 30 3 40 51 23 25 63 64 73 61 62 55 9 34 32 43 21 49 65 67 74 24 16 33 68 38 57 10 -15 -70 -8 -50 -5 -39 -1 -26 -48 -35 -42 -14 -36 -60 -12 -28 -17 -69 -75 -56 -4 -77 -53 -41 -27 -37 0
34 48 -9 -61 -76 -73 -50 0
11 43 52 15 55 47 1 20 57 64 75 71 27 37 73 -19 -13 -4 -58 -8 -2 -34 -30 -6 -68 -59 0
64 21 32 41 10 45 34 33 18 15 44 72 69 49 36 30 42 14 28 68 8 11 77 58 -22 -56 -40 -65 -19 -13 -24 -3 -4 -31 -61 -29 -38 -37 -16 -62 -74 -1 -9 -76 -47 -26 -25 -57 -67 -66 -5 -46 -59 -17 -54 -63 -39 -35 -2 -48 -73 0
41 58 14 26 18 15 66 45 9 28 6 57 -31 -76 -19 -24 -56 -70 -11 -2 -7 -68 -62 -53 0
40 46 4 48 -76 -44 -33 0
14 56 12 23 37 66 -43 -19 -32 -24 -35 -68 -49 -74 -70 -33 0
2 72 36 60 6 49 37 25 39 15 5 73 -52 -32 -77 -48 -16 -20 -51 -68 -65 -59 -30 -17 -50 -53 -62 -43 -21 -40 -28 -42 -23 -41 -26 0
18 34 29 -37 -6 0
23 47 12 28 18 56 9 5 70 61 50 59 68 14 37 30 25 51 76 65 52 40 32 1 22 62 53 46 44 20 60 38 26 24 63 33 58 4 2 15 -7 -74 -31 -39 -72 -64 -36 -66 -11 -48 -67 -73 -13 -34 -69 -8 -42 -43 -35 -27 -6 -77 -54 -3 -16 -49 -19 -75 -29 -57 -21 -10 -55 -71 0
48 38 16 22 -41 -47 0
11 4 31 28 24 20 21 32 -70 -49 -60 -44 -67 -65 -59 -72 0
65 67 9 71 69 55 21 70 33 4 64 30 45 20 40 5 49 77 74 48 7 60 8 -6 -17 -52 -25 -66 -27 -11 -29 -23 -26 -38 -35 -12 0
6 9 26 18 11 3 33 75 30 65 77 10 16 49 23 13 63 46 21 5 58 2 73 54 41 61 29 22 69 1 8 31 56 38 66 -4 -52 -74 -43 -70 -36 -35 -50 -62 -19 -15 -45 -14 -67 -42 -47 -51 -24 -68 -39 -59 -72 -27 -32 -44 -20 -71 -76 -34 -60 -28 -25 -55 -40 -17 -7 -48 -12 -37 0
8 44 22 54 73 18 75 24 45 31 7 46 50 41 58 16 5 28 -55 -39 -68 -57 -33 -71 -72 -42 -21 -74 -69 -2 -1 -67 -36 -52 -25 -11 -9 -60 -38 -61 -14 -35 -62 -13 -12 -10 -49 -17 -63 -26 -34 0
38 3 49 59 2 70 23 66 58 36 21 6 77 47 60 64 26 27 32 15 37 34 56 74 48 54 28 29 39 30 -4 -22 -76 -51 -50 -45 -8 -24 -57 -44 -42 -73 -68 -35 -41 -31 -40 -72 -5 -14 -7 0
27 50 40 49 15 24 26 13 4 29 23 39 61 66 10 11 52 69 1 56 42 77 21 75 73 63 32 72 71 55 20 33 8 44 -43 -41 -47 -54 -31 -46 -9 -38 -62 -12 -53 -67 -76 -7 -35 -57 -25 -14 -37 -58 -68 -5 -18 -2 -59 -60 -30 -64 -45 -3 0
6 10 50 13 76 46 63 5 58 37 67 74 53 41 57 42 40 17 -65 -3 -25 -2 -68 -23 -29 -18 -60 -55 -59 -14 -48 -26 -71 -19 -4 -45 -34 0
24 42 48 61 11 30 22 3 45 71 36 73 35 60 59 38 70 18 13 52 17 15 23 69 14 51 46 39 25 29 -63 -64 -54 -74 -21 -67 -19 -40 -27 -44 -68 -62 -9 -66 -28 -72 -20 -49 -26 -31 -58 -16 -10 -34 -12 -8 -33 -50 -77 -7 -75 -4 -47 -43 -32 -37 -56 0
38 50 33 13 76 5 3 32 19 52 28 24 46 55 69 56 72 44 71 48 30 42 1 -75 -66 -47 -77 -58 -67 -7 -64 -4 -2 -45 -20 -22 -11 -59 -10 -34 -53 -37 -73 -26 -51 -62 -15 0
4 34 6 45 55 54 49 25 72 69 46 -76 -33 -53 -64 -24 -18 -19 -47 -63 -22 -57 -58 -32 -43 -38 -71 -60 -13 0
24 16 61 54 77 31 36 69 21 10 28 20 73 1 68 55 -12 -74 -75 -52 -29 -33 -67 -46 -42 -7 -19 -18 -9 0
66 75 65 69 18 10 2 50 55 25 64 9 8 31 20 53 3 23 21 40 51 52 24 43 59 34 76 29 -49 -13 -61 -44 -4 -54 -11 -57 -12 -63 -30 -6 -74 -56 -62 -38 -33 -39 -1 -27 -47 -32 -71 -73 -58 -72 -15 -67 -17 -7 -37 -60 -46 -36 -42 0
54 17 77 63 -38 -26 -70 -6 -61 -53 0
22 63 45 6 70 65 56 40 46 1 47 11 3 24 52 50 34 27 19 60 32 75 67 16 17 73 26 62 76 36 -15 -35 -72 -9 -42 -8 -77 -55 -39 -44 -53 -23 -25 -18 -58 -49 -43 -71 -28 -68 -38 -5 -20 -37 -14 -31 -10 -29 -30 -33 -57 -59 -13 -41 -66 -2 -7 -74 0
62 30 44 53 46 4 34 37 36 40 38 56 68 77 50 6 17 32 49 24 41 10 -76 -70 -51 -67 -52 -33 -5 -60 -47 -54 -26 -2 -7 -55 -43 -45 -15 0
38 8 42 52 32 -44 -64 -25 -21 -31 -1 0
59 27 61 20 12 70 74 34 44 8 58 57 73 21 55 33 26 -28 -69 -13 -60 -56 -52 -63 -65 -23 -40 -49 -66 -18 -53 -32 -17 -75 -6 -24 -72 -43 -41 -9 -5 -10 -42 -62 0
37 71 33 52 38 57 22 16 17 42 70 72 53 34 47 -50 -14 -63 -10 -51 -65 -61 -23 -49 -60 -67 -64 0
73 30 40 77 16 3 43 66 38 52 33 68 67 29 55 11 36 24 15 39 1 61 17 37 51 4 49 44 2 53 64 50 9 46 10 -76 -22 -20 -23 -21 -59 -71 -58 -62 -60 -13 -69 -26 -6 -54 -48 -57 -34 -56 -47 -35 -45 -31 -63 -41 -74 -7 -28 -18 -70 -19 -25 -72 -32 -14 -5 0
34 59 54 44 38 77 22 13 52 69 49 8 26 50 40 5 73 23 3 -61 -6 -17 -65 -2 -27 -15 -47 -72 -28 -63 -51 -60 -62 -58 -24 -9 -64 -32 -7 -30 -19 -39 -46 -37 -25 -10 -48 -53 -74 -12 -31 -21 -70 -56 -71 -36 -1 -66 -67 0
19 23 28 7 34 2 50 43 63 75 71 74 20 44 73 40 45 61 72 60 30 53 68 64 29 69 49 62 39 26 6 65 8 14 77 17 3 35 10 -55 -11 -76 -58 -47 -67 -56 -46 -70 -27 -51 -25 -24 -22 -21 -57 -18 -42 -37 -1 -5 -33 -52 -59 -31 -66 -54 -48 -32 -38 -12 -15 -9 -4 0
41 56 13 44 23 59 35 22 12 71 70 40 10 6 21 37 30 45 36 64 43 -42 -33 -50 -75 -74 -67 -8 -32 -18 -61 -55 -72 -69 -2 0
34 25 0
7 2 66 27 21 29 22 73 40 -55 -41 -1 -70 -31 -56 -4 -43 -19 -52 0
19 47 12 17 70 53 60 57 66 62 30 34 15 38 27 3 16 37 69 5 54 43 29 63 28 45 24 -33 -11 -1 -6 -52 -77 -2 -22 -46 -36 -18 -7 -72 -13 -10 -23 -40 -41 -39 -68 -4 -25 -61 -26 -75 -31 -42 -51 -73 -14 -56 -8 -71 -9 -50 -20 -67 -76 -55 -59 -64 0
24 76 13 30 64 67 62 59 77 56 39 60 4 14 44 73 63 3 20 29 7 58 22 -32 -37 -75 -23 -36 -57 -66 -28 -72 -9 -34 -71 -21 -55 -27 -16 -51 -47 -10 -48 -26 -53 -69 0
33 3 59 23 55 65 74 70 38 52 25 69 60 -20 -50 -17 -66 -6 -36 -58 -15 -42 -45 -7 -13 -56 -29 -76 -16 -12 -39 -24 -22 -43 0
28 10 33 32 40 43 17 8 62 53 56 25 5 68 77 55 74 9 16 11 26 70 3 19 57 20 31 67 47 46 24 -69 -45 -71 -15 -44 -75 -37 -22 -73 -36 -42 -41 -13 -51 -63 -76 -1 -59 -29 -60 -52 -4 -58 -30 -64 -50 -38 -48 -65 -72 -18 -66 -6 -12 -7 0
5 45 20 51 21 73 16 69 77 32 29 40 65 70 39 44 52 57 66 64 24 27 19 17 47 74 41 7 75 26 33 55 31 48 -54 -76 -18 -53 -8 -62 -38 -30 -43 -50 -49 -12 -71 -67 -25 -58 -11 -10 0
69 40 39 71 11 77 9 38 74 53 19 4 16 32 21 37 30 8 60 73 46 25 31 72 56 -66 -55 -29 -42 -54 -36 -64 -65 -34 -20 -49 -18 -70 -27 -17 -61 -59 -68 -7 0
76 40 1 52 48 -22 -9 -13 -39 0
23 8 39 50 47 25 68 5 11 53 64 32 27 63 12 58 35 29 2 10 44 73 56 43 34 46 17 76 49 3 -65 -72 -18 -45 -4 -70 -52 -9 -21 -6 -1 -62 -30 -22 -7 -48 -42 -51 -74 -59 -55 -24 -26 -71 -31 -60 0
56 38 17 15 40 52 30 39 62 36 28 1 46 34 25 76 10 26 -41 -4 -72 -23 -64 -37 -51 -75 -9 -6 -3 -44 -19 -43 -33 -32 -22 -13 0
58 36 2 8 7 35 76 48 71 47 53 6 30 68 75 56 50 10 45 64 61 20 49 73 26 13 34 44 62 -18 -29 -19 -21 -65 -51 -17 -67 -46 -72 -40 -3 -77 -66 -32 -9 0
45 8 51 58 76 70 61 22 71 15 67 13 63 65 53 64 29 21 -47 -18 -59 -72 -40 -23 -20 -60 -11 -1 -57 -6 -42 -5 -2 -35 -16 -44 -28 0
31 74 62 11 24 29 38 25 77 39 15 61 41 32 42 14 53 2 58 7 34 -50 -30 -44 -75 -35 -57 -55 -28 -70 -37 -64 -72 -18 -48 -40 -27 -10 0
3 45 28 65 41 54 19 70 1 15 17 49 39 31 35 47 46 60 62 8 12 22 18 61 37 63 34 16 77 36 24 76 74 26 40 52 48 59 21 5 29 -33 -7 -27 -73 -42 -58 -56 -69 -68 -44 -71 -9 -43 -25 -11 -55 -14 -67 -51 -10 -20 -38 -23 -13 -6 -53 -66 -64 -30 -32 0
43 11 24 38 53 58 68 35 22 2 33 29 23 5 45 47 9 72 12 39 37 76 25 63 65 59 19 56 64 -69 -15 -77 -62 -44 -60 -8 -57 -10 -7 -41 -40 -74 -48 -50 -61 -31 -13 -71 -28 -46 -55 -36 0
37 27 32 77 75 14 73 57 69 71 18 43 9 39 40 67 10 47 7 26 -28 -56 -33 -29 -60 -45 -41 -11 -3 -22 -65 -54 -72 -16 -36 -13 -50 -1 -38 0
37 67 62 7 69 61 8 15 56 68 6 72 65 24 26 23 35 -9 -40 -33 -34 -60 -55 -45 -28 -73 -76 -57 -36 -12 -21 0
6 56 35 66 40 13 26 36 18 73 15 29 1 48 9 46 60 54 8 3 65 39 31 74 -67 -33 -55 -49 -62 -14 -38 -2 -20 -37 -30 -63 -12 -28 -25 -59 -21 -23 -51 -24 -61 -77 -16 -32 -76 -70 -72 -52 0
4 63 43 8 64 65 2 11 31 41 -49 -14 -6 -30 -10 -67 -35 -27 -15 -72 -77 -29 -17 -20 0
70 10 66 60 59 37 48 42 5 7 21 64 62 19 69 20 11 31 25 36 34 16 28 73 17 3 24 -65 -61 -12 -30 -32 -14 -63 -15 -35 -49 -44 -52 -74 -9 -8 -40 -67 -27 -22 -4 -38 -13 -71 -1 -33 -18 -26 -51 -41 -68 0
64 24 34 73 44 5 13 12 67 72 65 -63 -1 -40 -60 -54 -76 -56 -47 -45 -9 -77 -25 -58 0
10 52 20 45 67 31 12 -68 -13 -11 0
72 40 75 13 53 50 77 49 11 28 64 43 55 15 76 71 12 60 46 -3 -31 -4 -61 -73 -21 -19 -8 -16 -26 -38 -42 -37 -45 -22 -62 -44 -65 -18 -68 -57 -2 -47 -63 -51 -36 0
26 22 25 62 39 2 75 44 60 37 33 64 7 65 -35 -71 -74 -18 -54 -49 -34 -16 -72 -15 -53 -52 -70 0
30 5 48 25 75 72 32 1 38 52 13 7 15 41 76 45 56 14 33 60 66 9 73 62 39 42 8 -22 -58 -27 -53 -61 -18 -26 -51 -49 -34 -46 -71 -47 -10 -29 -4 -20 -54 -36 -19 -69 -70 -64 -43 0
5 49 48 25 8 55 51 47 69 72 34 77 6 70 36 39 64 27 40 61 11 12 23 35 26 58 57 2 38 74 62 68 67 75 20 -22 -46 -59 -63 -10 -17 -1 -60 -9 -37 -76 -4 -54 -15 -53 -71 -13 -50 -21 -7 -28 -45 -24 -41 -3 -18 -56 -29 -14 -44 -43 0
45 60 75 51 63 23 56 16 74 77 13 47 70 11 25 18 30 31 59 61 5 20 44 -12 -14 -46 -32 -65 -17 -53 -58 -49 -1 -39 -22 -7 -41 -50 -29 -36 -57 -10 -72 -33 0
58 26 15 66 20 42 73 53 22 -59 -5 -70 -25 -19 -8 -41 -77 0
64 13 6 8 53 28 33 76 22 46 51 49 72 67 -14 -26 -56 -60 -10 -48 -24 -20 -47 -9 -4 -54 -1 -39 -55 -75 -45 -74 -23 -21 -34 -58 -17 -43 -69 -68 -70 0
7 48 36 15 11 6 67 25 18 5 12 76 35 1 20 42 39 32 22 47 52 71 23 46 59 27 24 13 -19 -8 -63 -60 -74 -62 -64 -56 -68 -57 -45 -10 -77 -75 -16 -33 -70 -65 -61 -2 -40 -43 -69 -14 -30 -50 -28 -29 0
11 46 77 38 19 13 69 4 61 67 76 70 24 73 32 16 36 44 57 12 14 22 63 72 30 58 52 31 28 50 -48 -43 -75 -3 -5 -62 -10 -45 -17 -64 -60 -35 -53 -40 -49 -51 -47 -54 -18 -9 -21 -15 -71 -23 -39 -26 -8 -1 0
69 21 70 23 61 13 15 56 31 20 47 29 42 41 53 11 60 19 67 33 16 73 44 34 46 -72 -27 -66 -22 -51 -25 -28 -40 -6 -9 -76 -36 -12 -54 -32 -24 -8 0
7 27 4 26 55 6 34 29 31 38 47 74 64 20 -21 -13 -10 -51 -15 -68 -72 -52 -44 -36 -71 -66 -69 -12 -77 -76 -39 -3 -63 -60 -49 0
31 34 17 54 30 44 23 76 22 37 68 24 10 38 51 50 74 20 27 63 5 72 77 3 7 39 2 64 60 71 70 62 -21 -1 -73 -75 -32 -49 -40 -25 -55 -65 -69 -15 -47 -35 -56 -66 -59 -28 -29 -61 -57 -8 -46 -52 -19 -45 -6 -11 0
30 3 4 -56 -17 -51 -68 -71 -62 0
59 38 64 34 77 63 65 7 12 11 32 60 73 37 3 17 28 15 16 52 31 45 25 54 57 27 1 6 22 50 70 71 -29 -35 -51 -41 -2 -24 -72 -14 -55 -36 -4 -49 -13 -75 -40 -69 -56 -33 -66 -20 -44 -53 -5 -26 -10 -48 0
18 10 50 71 58 59 23 66 75 15 14 1 34 5 57 60 65 9 44 22 52 76 54 21 63 29 68 64 51 4 28 -25 -7 -62 -45 -40 -31 -72 -37 -36 -49 -61 -74 -70 -43 -56 -32 -46 -13 -27 -30 -47 -8 -48 -16 -24 -55 -17 -73 -2 -42 0
32 66 44 71 60 41 4 33 38 50 69 67 48 37 57 61 70 25 52 10 49 2 72 29 62 7 59 21 77 26 23 9 17 34 -8 -19 -30 -68 -20 -76 -13 -5 -51 -39 -35 -55 -16 -11 -3 -73 -31 -42 -56 -40 -74 -14 -6 -45 0
74 53 72 64 35 65 33 66 26 39 61 23 24 9 52 30 10 18 76 34 36 49 37 59 45 70 13 -77 -19 -22 -5 -67 -12 -68 -42 -50 -1 -57 -2 -47 -14 -17 -21 -63 -73 -55 -29 -3 -60 -48 -31 -75 -32 0
54 6 72 52 44 62 51 5 46 21 25 27 14 36 49 10 4 63 1 -58 -75 -30 -42 -66 -24 -7 -23 -45 -8 -48 -55 -41 -67 -60 -12 -18 -68 -64 -74 -35 -59 -73 0
40 57 19 3 39 47 46 33 50 58 72 23 17 32 43 35 16 53 29 14 75 10 59 15 51 4 24 74 67 28 38 45 63 49 66 77 -27 -56 -6 -31 -20 -2 -44 -76 -5 -73 -48 -8 -9 -34 -64 -65 -12 -54 -61 -7 -68 -30 -13 -70 -37 -69 -71 -41 -11 -60 -36 -25 -18 0
40 16 64 21 24 45 18 63 49 61 76 42 34 2 -14 -66 -59 -72 -71 -33 -47 -44 -31 -15 -17 -1 -27 -74 -70 -9 -13 0
60 75 52 11 56 33 26 5 63 20 23 -65 -59 -70 -17 -21 -71 -48 -44 -55 -58 -39 -2 -1 -25 0
71 27 16 4 47 -70 -46 -6 -53 -76 -64 -45 -39 -75 -8 0
53 5 54 34 22 2 35 50 23 11 60 59 63 -46 -26 -15 -62 -9 -13 -36 -74 -31 -69 -57 -16 -71 -24 -70 -49 -29 -1 -33 0
8 61 28 23 56 29 4 47 55 18 27 75 22 52 9 10 36 20 77 44 68 5 -26 -11 -15 -46 -54 -50 -51 -3 -59 -62 -53 -48 -45 -17 -30 -70 -64 -42 -34 -37 -1 -58 -19 -66 -63 -24 -31 -57 -38 -73 -41 -76 -39 -72 -60 -7 -21 -12 -43 0
70 10 71 26 50 57 49 75 62 14 47 3 2 67 17 9 37 -77 -8 -18 -1 -19 -65 -58 -13 -61 -48 -73 -52 -56 -66 -55 -31 -41 -64 -35 -59 -30 -33 -24 -6 -53 -29 -38 -63 -20 -4 -12 0
62 67 63 4 76 21 65 35 15 31 64 57 39 9 12 6 34 22 41 74 48 44 13 68 72 8 49 23 26 36 40 56 55 25 46 32 77 29 -59 -1 -2 -28 -52 -53 -61 -50 -60 -11 -18 -58 -7 -20 -19 -43 -24 -70 -30 -17 -14 -27 -73 -69 -3 -51 -47 -10 -33 -66 -45 -71 -16 -75 -42 0
2 77 50 19 74 56 15 18 11 41 60 52 62 16 46 36 69 75 67 37 58 5 72 61 43 14 47 -29 -34 -51 -26 -57 -38 -66 -40 -71 -70 -6 -32 -42 -7 -53 -63 -44 -24 -4 -10 -22 -3 -27 -35 0
18 49 30 42 17 63 38 21 36 35 43 12 31 73 9 45 65 47 7 48 32 29 53 25 6 16 1 50 28 23 44 -20 -74 -37 -33 -72 -10 -8 -24 -64 -34 -41 -62 -60 -58 -15 -68 -11 -4 -70 -26 -59 -75 -76 -51 -3 -57 -55 -54 -39 -40 -61 -52 -27 -66 -56 -19 -13 -22 -2 -69 -46 -67 -14 -71 0
71 27 42 61 28 41 11 77 4 38 14 23 6 8 64 45 60 20 24 68 33 43 63 26 72 18 7 12 40 65 69 56 47 -16 -67 -76 -55 -29 -21 -73 -53 -49 -70 -9 -31 -75 -59 -34 -22 -32 -62 -36 -58 -52 -66 -17 0
21 22 31 24 66 35 77 72 60 76 44 73 40 1 57 69 37 -15 -27 -19 -48 -58 -61 -5 -71 -20 -3 -2 -41 -36 -43 -8 -9 -28 -39 -65 -75 -64 -54 -52 -74 -53 0
46 -28 -38 -66 -30 0
35 64 43 48 37 44 6 71 65 75 4 77 45 32 19 -25 -74 -20 -1 -23 -40 -2 -9 -5 -18 -72 -10 -57 -42 -30 0
15 32 14 40 0
77 34 13 33 61 30 47 15 19 23 16 44 49 51 62 54 -28 -71 -41 -57 -25 -12 -53 -27 -35 -75 -10 -39 -5 -37 -14 -26 -60 -66 -1 -45 -67 -76 -20 -63 -50 -22 -59 -65 -29 -70 0
33 16 61 67 74 48 50 51 39 40 58 15 25 41 32 24 55 22 6 19 71 18 69 63 73 26 17 9 37 60 13 21 -66 -56 -3 -76 -38 -57 -77 -7 -44 -53 -12 -10 -45 -1 -43 -8 -47 -5 -72 -20 -2 -46 -27 -59 -42 -75 -23 -14 -70 -49 -68 -28 -31 -65 -30 -29 -54 -35 -62 0
1 3 58 70 20 17 39 31 7 35 66 27 -8 -23 -41 -64 -33 -55 -65 -30 -15 -61 -38 -71 -57 -25 -42 -51 0
22 16 53 15 27 56 20 26 65 67 -51 -19 -40 -5 -57 -7 -62 0
33 14 42 59 18 53 57 -65 -71 -2 -75 -55 0
37 77 32 75 64 2 5 42 62 60 43 -40 -56 -13 -50 -48 -11 -16 -58 -23 -69 -20 -52 -65 -26 -7 0
28 61 8 34 18 50 40 23 74 17 75 16 48 64 69 59 77 70 42 62 60 71 54 31 1 -47 -37 -41 -49 -12 -21 -25 -5 -20 -26 -67 -36 -29 -22 -66 -15 -43 -76 -4 -68 -32 -57 -10 -56 -30 -73 -13 -51 -2 -24 -19 -72 -38 -14 0
58 41 4 11 19 12 67 24 17 39 56 2 77 5 34 57 18 55 40 62 54 74 38 49 10 22 -61 -29 -59 -33 -23 -51 -69 -45 -46 -21 -73 -30 -50 -15 -75 -63 0
76 4 68 21 50 64 45 14 24 66 38 5 9 49 61 27 -43 -55 -22 -30 -12 -72 -67 -44 -70 -53 -16 -25 -47 -37 -52 -13 -74 -8 -71 -75 0
5 9 34 -23 -48 -57 -19 -66 -27 -37 -68 -2 -3 -72 0
66 44 22 46 52 61 28 59 8 74 6 63 41 32 38 60 10 -42 -48 -39 -9 -54 -25 -76 -3 -49 0
28 35 -36 -17 -76 -14 0
71 59 2 -58 -47 -23 -63 -26 -36 -65 -57 0
22 76 21 49 -18 -51 -50 -36 -25 0
73 15 33 48 47 2 8 55 4 32 61 10 57 40 17 46 26 23 29 25 51 12 31 24 -35 -74 -66 -62 -27 -69 -20 -77 -60 -56 -49 -70 -30 -42 -76 -45 -43 -72 -71 -67 -36 -44 -13 -59 0
22 -40 -21 -37 -4 -77 0
15 75 41 26 3 69 21 44 1 62 58 54 30 25 18 68 36 59 49 22 64 51 72 42 52 6 56 63 29 57 55 14 65 10 43 61 11 -12 -31 -24 -71 -8 -9 -48 -13 -19 -34 -35 -74 -73 -66 -33 -40 -77 -45 -47 -76 -50 -60 -70 -4 -20 -37 -32 -28 -17 -38 0
33 64 69 10 70 11 39 -63 -38 -51 -30 -9 -28 -1 -13 -8 -67 -7 -71 -77 0
17 60 48 9 8 4 62 37 11 27 41 7 58 74 2 -20 -61 -24 -54 -53 -35 -47 -13 -14 -5 -29 0
20 35 47 56 26 7 46 36 29 55 34 66 63 65 50 49 75 33 11 4 30 10 54 22 24 27 2 51 70 73 3 1 21 15 16 44 28 14 -72 -32 -71 -67 -13 -45 -25 -58 -19 -43 -53 -77 -9 -31 -76 -6 -41 -48 -40 -37 -64 -12 -62 -8 -17 -69 -68 0
18 -50 -3 0
9 60 41 12 68 71 54 69 16 63 53 38 52 61 39 77 18 76 48 1 42 21 13 35 2 45 75 10 66 -56 -70 -17 -59 -5 -37 -47 -44 -4 -57 -11 -43 -58 -65 -26 -55 -74 -62 -27 -46 -23 -8 -14 -29 0
34 9 7 1 2 38 39 76 69 62 26 72 33 60 74 19 59 22 53 65 37 13 11 20 -52 -16 -63 -30 -51 -67 -41 -46 -24 -14 -32 -8 -68 -3 -28 -48 -25 -27 -45 -40 -54 -47 -36 -64 -58 -6 -4 -17 -12 0
66 15 55 14 62 29 69 34 21 10 8 42 51 53 64 24 57 1 5 18 20 65 68 13 73 31 52 56 16 26 32 -2 -67 -45 -4 -61 -30 -27 -60 -50 -54 -25 -49 -17 -76 -48 -47 -39 -43 -36 -59 -58 -70 -19 0
35 33 74 25 23 68 45 17 11 51 50 36 31 73 9 38 12 26 8 43 46 70 29 -13 -37 -6 -22 -61 -49 -16 -52 -60 -57 -71 -59 -63 -1 -3 -14 -65 -7 -47 0
70 28 75 59 44 36 60 67 10 1 20 30 2 -65 -39 -37 -5 -7 -49 -8 -51 -24 -64 -57 0
11 28 45 60 64 52 65 55 12 5 27 58 76 56 36 22 35 26 4 53 -71 -44 -72 -74 -3 -61 -66 -70 -39 -19 -29 -13 -59 -30 -51 -69 -9 -32 -43 -18 0
8 32 -59 -51 -53 -16 -50 0
62 61 44 75 34 37 1 14 38 50 5 39 60 73 13 10 65 3 21 15 69 58 64 68 30 18 16 66 54 53 19 35 67 42 25 28 52 -8 -17 -72 -31 -23 -76 -32 -59 -43 -77 -45 -41 -55 -63 -36 -7 -48 -9 -22 -24 -47 -74 -6 -40 -12 -11 -49 -51 -33 -2 -27 -26 -70 -71 -29 -56 0
63 41 10 60 35 25 16 69 58 66 37 62 52 2 15 11 22 67 42 5 12 74 72 75 33 77 31 61 36 28 -38 -53 -30 -48 -59 -51 -1 -7 -54 -8 -43 -13 -55 -32 -49 -6 -24 -57 -40 -71 -64 -46 -73 -34 -27 -56 -18 -68 -20 -39 -50 -14 -21 -29 -76 -17 -19 -23 -45 -70 -4 -9 -3 -47 -65 0
62 50 52 29 71 -74 -68 -17 -27 -6 -44 -31 -24 0
53 68 48 69 21 37 64 46 39 49 66 56 35 57 1 15 63 34 38 25 24 76 62 8 50 72 9 42 -22 -19 -28 -54 -14 -65 -70 -51 -4 -74 -27 -31 -17 -16 -23 -26 -29 -18 -75 -40 -61 -52 -11 -67 -32 -10 -47 -71 -12 -33 0
18 21 9 3 10 74 29 28 14 7 75 36 77 61 30 42 15 5 53 58 54 -57 -12 -43 -76 -47 -16 -22 -32 -70 -6 -68 -51 -27 -26 -2 -65 -8 -23 -56 -4 -66 -20 -39 -67 -64 -40 -48 -13 -50 -73 -19 -37 -52 -62 -72 -11 -71 -34 -49 -63 0
1 41 28 14 58 29 11 68 19 32 5 15 44 54 40 24 18 70 63 33 9 66 74 4 8 26 42 62 51 27 36 38 57 47 34 3 22 25 7 37 59 65 55 31 76 -73 -69 -21 -71 -2 -45 -13 -17 -39 -64 -49 -72 -52 -12 -30 -10 -16 -35 -56 -77 -48 -6 -50 -53 -20 -75 -43 -60 -67 0
27 3 74 50 71 55 57 41 59 18 38 61 77 7 43 13 9 28 36 53 48 15 42 21 47 22 11 64 4 46 29 37 63 -24 -32 -33 -62 -44 -16 -45 -17 -31 -58 -12 -49 -20 -69 -56 -34 -73 -2 -39 -75 -6 -68 -51 -25 -52 -19 -60 -54 -14 -35 -67 -5 -26 0
76 24 48 43 39 55 1 56 23 45 27 5 20 2 32 21 57 71 47 77 68 4 70 13 60 49 46 40 61 16 31 -34 -53 -18 -30 -59 -75 -19 -37 -29 -58 -12 -17 -54 -38 -69 -73 -51 -67 -26 -28 -7 -9 -41 -15 -25 -63 -11 -72 -6 -3 -10 -64 -66 -62 -50 -14 -22 -74 -35 -36 -33 -8 0
7 70 27 51 34 31 -3 -6 -60 -21 0
68 19 27 14 18 16 49 57 13 30 67 28 3 15 72 65 76 64 21 59 42 61 54 71 75 46 60 53 66 2 20 10 40 26 1 -47 -38 -44 -32 -24 -35 -33 -11 -12 -9 -5 -77 -29 -45 -73 -58 -31 -34 -25 -43 -6 -22 -48 -50 -17 -55 -56 0
43 63 53 -29 -46 0
14 34 29 74 37 73 7 61 40 64 62 56 32 3 8 66 75 16 72 23 12 59 77 65 -26 -54 -11 -42 -69 -24 -46 -60 -48 -30 -19 -1 -67 -52 -68 -57 -21 -58 -47 -13 -4 -76 -35 -18 -70 -9 -25 -17 -51 -2 -22 -71 -55 -10 -31 -27 -33 -63 0
6 49 50 67 36 21 19 32 13 60 47 69 58 46 22 75 1 51 25 45 33 35 5 63 -10 -38 -55 -62 -73 -41 -56 -53 -8 -59 -70 -57 -7 -76 0
67 70 11 41 16 51 43 27 17 9 -18 -23 -75 -20 -34 -24 -30 -10 -63 -26 -13 -21 0
16 74 25 6 4 19 64 61 59 28 12 70 68 34 33 54 38 52 46 9 60 22 66 36 30 8 20 -23 -62 -57 -10 -77 -35 -50 -1 -63 -58 -72 -27 -73 -65 -2 -37 -55 -18 -39 0
71 8 39 38 31 64 28 53 14 10 45 56 43 74 24 17 18 40 76 23 73 35 25 55 57 65 29 61 52 32 -26 -13 -21 -58 -68 -49 -1 -11 -41 -9 -6 -15 -19 -46 -7 -66 -22 -63 -72 -47 -62 -16 -69 -33 -30 -44 -60 -12 -2 -48 -36 -37 -50 -70 -77 -27 -4 -51 0
58 64 3 23 39 42 53 37 47 14 63 40 15 62 32 75 20 48 6 60 -43 -13 -54 -29 -71 -55 -74 -57 -65 -36 -7 -5 -8 -33 -10 -27 -73 0
6 34 64 39 19 52 51 29 43 61 24 53 11 44 16 8 41 10 15 2 74 54 58 48 73 4 5 50 30 22 20 72 9 45 25 -3 -65 -71 -42 -49 -77 -12 -13 -46 -31 -1 -40 -27 -56 -37 -36 -26 -35 -57 -76 -75 -14 -69 -38 -7 -18 -60 -23 -67 0
28 53 30 24 14 26 29 52 37 56 31 45 33 12 48 43 51 20 59 2 16 40 10 36 35 19 73 -8 -21 -15 -23 -65 -57 -1 -27 -47 -18 -58 -5 -50 -66 -44 -34 -69 -7 -4 -38 -67 -75 -70 -64 -41 -6 -63 -72 -42 -54 0
6 17 31 54 74 28 70 73 48 21 61 59 55 25 37 63 51 16 12 46 65 5 26 9 71 66 56 2 49 41 14 57 7 23 75 77 8 20 68 -53 -62 -52 -34 -10 -15 -67 -40 -35 -4 -36 -42 -44 -27 -29 -11 -45 -58 -64 -19 -18 -47 -33 -1 -50 -76 -30 -3 -69 -43 -39 -13 -38 -22 0
71 22 7 19 11 58 1 28 62 27 32 23 33 30 41 65 69 -55 -63 -50 -38 -2 -36 -68 -75 -10 -77 -40 -43 -24 -21 -45 -49 -52 -66 -25 -54 -8 0
53 34 61 8 15 40 46 27 7 11 36 26 67 47 10 71 39 65 59 2 24 37 17 64 57 -75 -4 -77 -42 -28 -31 -49 -13 -1 -6 -25 -69 -63 -74 -48 -19 -5 -21 -3 -76 -60 -16 -55 -58 -66 -22 -9 -62 -35 -29 -41 -51 -56 -52 -38 0
26 57 46 71 51 12 43 11 66 18 60 8 31 32 6 15 28 40 35 39 29 41 67 42 37 27 24 1 55 48 52 68 7 -34 -20 -9 -10 -75 -14 -13 -59 -65 -36 -4 -54 -47 -33 -50 -45 -44 -19 -17 -23 -77 -62 -70 -30 -72 -2 -49 -3 -21 -22 -76 0
48 37 18 65 14 62 30 23 22 59 8 44 15 35 72 55 5 52 24 67 27 33 58 25 1 54 61 38 69 50 40 76 12 36 19 16 11 42 13 -74 -17 -3 -43 -57 -77 -75 -46 -71 -41 -64 -70 -45 -47 -7 -10 -49 -20 -63 -51 -60 -29 -32 -6 -31 -21 -28 -9 -34 -39 -2 -66 0
