c NeuroCodeBench 2.0 CNF formula with verdict Sat
p cnf 53 305
27 52 48 29 35 32 -20 -12 -31 -37 0
21 24 6 29 20 48 45 9 19 50 27 52 1 44 23 39 37 51 -12 -16 -11 -33 -3 -35 -49 -32 -30 -36 -47 -38 -53 -18 -22 0
12 28 41 19 8 14 52 30 4 46 44 35 49 23 50 16 43 7 -17 -40 -48 -1 -5 -9 -27 -31 -26 -38 -25 -32 -2 -13 -21 -11 -20 -3 -51 0
30 39 37 17 4 5 -31 -32 -49 0
31 33 21 41 18 20 40 14 50 5 47 45 2 49 27 6 29 38 28 32 -17 -34 -44 -11 -24 -3 -10 -9 -23 -25 -1 -37 -16 -4 -19 -39 -15 -43 -35 -7 0
29 10 2 46 8 28 14 21 41 30 52 47 49 20 50 36 38 17 15 -12 -4 -43 -24 -42 -32 -31 -1 -6 -13 -37 -7 -34 -53 -48 -35 -45 -16 -9 -33 -39 -18 -5 -44 -19 0
16 38 9 31 -5 -10 -35 -32 -42 -18 -40 -3 -30 -4 -43 -6 -13 -53 -51 0
6 30 8 3 2 23 20 31 42 51 43 52 -34 -35 -12 -40 -32 -46 -48 -4 -50 -45 -26 -24 -19 -15 -47 0
43 32 25 7 45 26 2 6 41 19 29 52 -22 -49 -37 -10 -46 -28 -24 -11 -12 -36 -9 0
49 10 6 2 11 41 16 40 28 24 31 39 12 45 -18 -13 -48 -7 -37 -1 -43 -14 -27 -44 -26 -46 -53 -3 -19 -50 -52 -42 -15 -22 0
29 26 24 13 50 19 5 17 34 4 32 43 28 37 18 22 -35 -8 -23 -9 -39 -47 -15 -52 -14 -30 -2 -11 -12 -51 -38 -46 -20 -33 0
13 24 52 11 27 31 47 18 32 29 35 4 33 43 -41 -34 -6 -12 -3 -26 -45 -44 -40 -16 -25 0
24 16 3 36 12 4 52 14 49 30 27 38 33 25 9 44 -8 -43 -17 -46 -18 -40 -45 -50 -15 -11 -23 -39 -2 -29 -34 -22 -13 0
9 30 40 24 25 14 44 21 36 4 42 48 23 31 33 8 -51 -28 -17 -10 -20 -37 -39 -7 -18 -3 -50 -1 -13 -19 -41 -5 -53 -35 -34 -6 -49 -46 -11 -27 -15 -43 -52 -26 0
33 4 44 53 18 23 3 26 45 47 -39 -1 -51 -29 -22 -19 -25 -14 0
40 27 51 31 39 18 45 8 24 48 32 26 28 23 25 46 13 43 36 49 15 50 21 -1 -6 -3 -35 -42 -9 -22 -38 -7 -12 -19 -41 -53 -11 -37 -29 -16 -20 -2 -47 -14 -5 -34 -44 -30 -52 0
53 35 51 20 41 49 5 12 14 47 -16 -30 -21 -18 -38 -32 -19 -39 -13 -37 -44 0
14 27 12 48 52 15 37 43 10 21 31 46 26 13 2 49 20 41 34 19 35 30 36 -40 -18 -5 -7 -11 -28 -47 -16 -24 -25 -4 -42 -8 -50 -29 -45 -22 -38 -33 -53 -3 -44 -9 0
5 16 25 50 19 33 51 12 -53 -48 -2 -49 -21 -11 -22 0
43 33 13 47 17 44 36 27 -10 -24 -5 -9 -30 -53 -21 -22 -3 -45 -46 -48 -52 0
20 40 36 35 31 39 43 13 26 15 28 25 48 16 45 34 30 2 9 8 46 32 41 18 4 38 -19 -11 -29 -37 -51 -22 -14 -23 -17 -52 -7 -3 -50 -10 -5 -27 -6 -12 -21 -53 -42 -33 -49 -47 0
4 25 9 28 38 6 47 20 46 34 8 23 37 29 7 31 44 18 13 40 -50 -10 -42 -5 -43 -26 -35 -48 -19 -45 -51 -49 -1 -30 -21 -15 -39 -53 -36 -32 -17 -22 0
14 19 29 53 5 49 -1 -36 -48 -21 -43 -34 -41 -39 -44 -4 -32 -17 0
6 37 49 22 33 44 40 7 32 16 -42 -17 -50 -8 -26 -24 -13 -5 -45 -20 -53 0
31 7 9 46 34 17 35 24 42 39 25 3 51 -1 -27 -28 -43 -13 -52 -14 -49 -29 -11 -19 -53 -40 0
20 10 13 24 42 48 29 -19 -3 -7 -1 -12 -32 -46 -16 -49 0
39 33 34 30 22 50 16 11 1 44 9 45 3 42 23 36 18 -4 -40 -49 -46 -24 -53 -29 -2 -26 -7 -31 -27 -10 -6 -32 -37 -19 -12 -38 -28 0
53 -13 -40 0
33 22 48 13 45 35 40 20 39 17 51 25 36 46 5 14 34 42 44 29 10 26 11 2 27 16 41 -53 -43 -52 -3 -49 -38 -4 -50 -32 -47 -30 -6 -37 -23 -18 -1 -19 -7 0
38 52 22 30 47 18 9 8 15 24 45 37 41 -36 -25 -14 -1 -49 -4 -33 -16 -40 -26 -21 -32 -50 -48 -34 -35 -3 -23 -12 -19 -13 0
12 37 9 41 -27 -8 -15 -35 -46 -43 0
35 19 30 43 28 18 17 49 1 47 -25 -13 -52 -42 -27 -16 -53 -22 -20 0
38 42 2 7 15 -10 -22 -36 -51 -3 -13 -28 0
50 2 12 20 9 26 11 37 30 3 -47 -36 -35 -32 -16 -39 -1 -17 -42 -5 -4 -21 -33 -48 -52 -24 -44 -49 0
43 48 8 52 41 53 1 14 10 45 2 31 25 16 30 32 3 -19 -34 -13 -42 -36 -49 -29 -50 -38 -40 -7 -27 -11 -47 -9 -24 -17 -44 -35 -15 -21 -5 -4 -20 -33 -46 -26 -18 -39 -22 -51 0
13 50 3 31 34 27 38 43 35 46 30 8 53 26 14 51 9 -16 -11 -24 -49 -12 -20 -45 -2 -40 -29 -36 -33 -18 -23 -25 -52 -41 -48 -6 0
45 30 24 2 15 43 33 23 39 10 7 13 9 26 46 34 18 12 28 -6 -29 -8 -25 -11 -1 -4 -51 -14 -21 -47 -22 -20 -48 -53 -5 -38 -17 -37 0
47 3 41 20 15 31 9 37 11 10 27 50 8 43 51 -52 -46 -48 -33 -35 -45 -16 -21 -17 -7 -1 -32 -22 -29 -38 -23 -36 -25 -53 -12 -18 -24 -5 -42 -39 -34 -4 -40 -28 0
2 44 23 28 29 20 -17 -10 -36 -37 -21 -47 -34 -24 -13 0
40 34 43 24 13 -36 -45 -30 -29 -3 -50 -28 -38 -39 0
3 45 41 52 1 21 38 36 19 35 46 44 23 16 17 47 4 50 34 -11 -13 -37 -29 -6 -2 -32 -43 -42 -7 -53 -51 -40 -5 -28 -18 -9 -15 0
3 26 40 46 2 4 48 35 41 47 49 28 10 -11 -36 -25 -43 -39 -14 -37 -53 -13 -34 -6 -9 0
53 1 50 12 47 52 5 17 18 37 -10 -22 -2 -40 -48 -39 -6 -46 -35 -23 -21 -24 -42 -29 -14 0
21 18 44 51 42 7 46 15 50 5 40 11 52 48 10 36 1 23 8 20 22 16 39 45 24 -31 -2 -53 -28 -35 -9 -33 -3 -41 -6 -43 -27 -49 -30 -12 -17 -29 -26 -37 -19 -4 -13 -38 -14 -25 -32 -34 0
30 44 13 -14 -39 -49 0
10 42 32 30 16 29 1 44 17 43 -13 -8 -9 -37 -15 -40 -34 -38 -52 -21 -2 -22 0
12 36 0
-24 0
35 47 9 18 36 15 13 52 21 51 23 38 14 48 53 7 -20 -22 -10 -34 -16 -19 -4 -11 -46 -33 -31 -27 -37 0
9 47 45 3 4 5 50 32 12 14 18 27 52 34 51 15 44 22 -37 -16 -11 -46 -6 -40 -17 -10 -35 -13 -2 -42 -20 0
31 19 5 26 45 34 3 29 17 -33 -24 -20 -41 -52 -49 -10 -18 -37 -12 -27 -44 -9 0
10 36 45 22 13 31 46 18 42 -5 -26 -52 -8 -11 -24 -50 -15 -49 -43 -33 -48 0
33 42 31 53 35 37 39 12 30 2 8 5 -7 -40 -15 -49 -43 -45 -50 -4 -38 -16 -10 -44 -24 -51 -1 -25 -34 -52 -26 -6 -9 -11 -29 -19 -21 -46 -32 -17 -48 -20 0
40 25 11 38 24 44 29 18 22 52 34 20 13 21 39 53 50 9 5 47 28 -12 -30 -26 -48 -51 -27 -43 -31 -2 -37 -46 -35 -7 -16 0
5 2 24 13 -41 -29 -50 -49 -25 -10 -12 -42 0
49 21 15 -26 -2 -18 -3 -38 -27 -29 -51 -46 -31 -10 -17 -11 0
46 37 24 34 6 49 45 10 41 11 5 47 33 19 13 44 31 52 7 26 21 32 38 50 -3 -18 -15 -16 -28 -53 -22 -2 -27 -43 -23 -17 -12 -14 -1 -40 -30 -35 -36 -39 -42 -29 0
49 43 35 34 28 45 32 14 12 27 48 37 23 21 4 2 39 1 42 11 -26 -16 -41 -3 -36 -31 -52 -50 -18 -30 -6 -53 -13 -40 -29 -51 -17 -9 -19 -47 -25 -20 -44 -38 0
7 46 41 27 48 47 33 38 6 29 12 39 24 19 13 44 -26 -9 -1 -43 -17 -35 -20 -22 -5 -42 -50 -2 -18 -3 0
24 30 7 43 18 -2 -9 -5 -42 -32 -31 0
25 30 42 52 22 1 26 38 44 2 46 29 31 3 23 53 21 15 19 24 39 9 48 8 -50 -35 -32 -6 -12 -40 -11 -14 -13 -27 -5 -33 -49 -20 -18 -28 -34 -41 -17 -36 -45 -7 -51 0
12 1 22 7 41 32 4 29 45 -50 -2 -51 -48 -10 -27 -30 -11 -33 -42 -38 0
49 37 30 36 17 11 51 13 -4 -39 -35 -45 -26 -20 -50 -43 -38 -29 -47 -21 -44 -3 -27 -5 -42 0
38 36 52 27 53 15 2 12 43 47 -16 -45 -1 -22 -14 -37 -7 -40 -25 -18 0
10 38 20 35 8 45 34 11 16 50 1 17 6 41 48 29 44 33 -12 -7 -37 -36 -52 -53 -23 -18 -40 -3 -21 -30 -22 -43 -14 -39 -28 -24 -15 0
34 20 43 32 1 53 28 50 48 35 22 6 38 29 -40 -31 -9 -42 -24 -36 -39 -47 -45 -2 -12 -33 -7 -8 -46 -44 -37 -49 -23 -11 -30 -52 -10 0
10 41 29 36 32 22 5 2 15 26 3 11 18 7 53 47 25 24 50 27 28 21 -38 -16 -43 -45 -33 -17 -37 -30 -31 -23 -14 -6 -39 -20 -35 -51 -4 -13 -49 -34 -19 -40 -44 -12 0
29 -28 0
13 40 27 42 12 30 35 18 -52 -46 -32 -29 -22 -5 -38 -23 -20 0
38 24 10 40 37 9 31 26 1 49 5 8 34 18 11 -53 -47 -48 -4 -32 -13 -20 -21 -46 -2 0
23 14 25 16 30 18 13 44 41 35 43 9 50 6 5 15 27 17 4 10 42 -28 -26 -12 -31 -3 -51 -52 -38 -40 -1 -7 -45 -46 -49 -20 -36 0
34 41 8 9 12 19 16 6 52 30 22 1 23 29 14 37 26 33 48 -11 -53 -38 -31 -4 -21 -36 -35 -42 -13 -15 -32 -7 -49 -44 -18 -46 -28 -47 -51 -24 -27 -10 0
13 16 -39 -44 -7 -52 0
48 5 37 11 21 16 31 49 14 13 17 36 2 -9 -42 -20 -23 -19 -18 0
37 4 44 18 40 53 19 25 36 52 27 7 41 11 15 14 23 24 38 29 -1 -12 -46 -45 -32 -9 -2 -43 -39 -20 -3 -17 -5 -10 -49 -6 -51 -35 -50 0
48 24 49 14 15 47 35 7 13 36 37 21 8 3 6 4 17 43 29 25 32 39 -41 -11 -40 -51 -18 -2 -53 -46 -52 -20 -50 -27 -10 -42 -28 -12 -19 -30 -38 -26 0
25 49 45 13 37 17 52 39 46 18 10 32 15 50 20 38 42 -19 -1 -34 -21 -23 -31 -4 -29 -16 -41 -47 -8 -28 -12 -44 -27 -35 -5 -53 -30 -33 -36 -48 -22 -14 -2 -7 -9 -40 -6 -26 0
51 3 6 39 29 45 44 37 7 11 26 41 19 20 5 8 4 52 28 12 49 21 18 2 -32 -35 -50 -48 -25 -34 -13 -42 -14 -27 -9 -47 -10 -30 -33 0
24 35 27 8 -30 -45 -37 -38 -31 -34 -14 -36 -22 -5 0
9 38 52 45 43 -35 -13 -1 -22 0
44 22 18 21 32 52 43 4 -6 -1 -17 -53 -48 0
29 26 24 45 44 10 28 50 42 12 38 39 3 43 31 30 1 -17 -36 -19 -5 -25 -23 -6 -40 -20 -41 -16 -47 -27 -51 -35 -15 -53 -13 -18 -46 -32 0
32 18 -50 -33 -9 -35 -30 0
43 33 47 10 45 26 44 30 18 12 46 42 8 31 14 35 25 16 37 34 -20 -38 -13 -24 -40 -32 -28 -52 -22 -21 -48 -17 -41 -1 -51 -4 -5 0
39 53 8 13 15 37 45 35 7 28 -4 -21 -48 -42 -31 -52 -14 -20 -1 -10 0
48 32 53 4 11 16 27 12 38 44 37 22 7 19 -6 -3 -51 -42 -34 -29 -45 -41 -21 -28 -9 -36 -2 -25 -13 -17 -23 -20 -40 -31 0
32 7 22 45 31 14 50 24 52 10 48 -34 -23 -27 -44 -53 -8 -5 -28 -9 0
41 5 29 26 25 39 36 8 1 47 12 6 18 24 33 46 32 -28 -2 -7 -3 -11 -27 -16 -9 -50 -53 -4 -43 -38 -10 -52 -48 -23 -15 -49 -30 -44 -42 -14 -21 -35 -31 0
10 41 20 36 33 53 18 50 51 8 26 3 15 32 31 34 13 38 -47 -16 -42 -6 -46 -2 -9 -39 -23 -1 -35 -27 -44 -48 -5 -11 -21 -7 -22 0
47 36 35 42 51 41 43 29 22 27 24 3 44 26 13 25 50 34 -10 -32 -19 -1 -52 -4 -37 -38 -16 -9 -18 -11 -28 -17 -20 -5 -49 -6 -39 -21 -8 0
50 30 16 43 46 39 49 45 17 33 10 52 1 34 19 41 20 22 8 42 31 36 3 29 24 37 -38 -44 -28 -32 -47 -40 -51 -11 -2 -25 -5 -13 -48 -27 -18 -9 -53 -12 -15 -35 -6 -7 -21 -23 -26 -4 0
17 33 3 14 42 38 31 -41 -7 -50 0
52 17 27 53 3 44 38 40 15 45 26 -35 -34 -39 -6 -10 -46 -9 -49 -11 -18 0
49 25 46 52 50 45 14 34 33 4 41 20 35 9 24 5 1 -6 -48 -31 -37 -17 -32 -21 -38 -29 -7 -23 -53 -13 -36 -19 -42 -39 -27 -28 -47 -11 -16 -15 -2 -12 0
47 50 34 44 5 51 31 27 40 49 12 22 53 45 52 24 9 15 4 18 -48 -46 -38 -16 -42 -32 -39 -13 -23 -26 -2 -11 -14 -8 -29 -6 -37 -21 -43 -36 -17 -1 -19 -7 0
41 24 19 42 35 16 12 8 4 51 -14 -43 -27 -9 -20 -49 -46 -17 -25 -52 -50 -38 -23 -37 0
13 33 38 -39 -3 -51 0
4 14 5 53 19 22 -32 -30 -37 -7 -11 -27 -29 -8 -23 -12 -24 -25 0
50 22 41 40 10 31 37 2 11 48 14 32 7 34 17 16 38 43 30 18 27 13 9 24 49 44 6 5 1 -28 -39 -47 -26 -4 -29 -21 -23 -19 -8 -25 -45 -12 -3 -33 -35 -15 -53 -42 -36 -46 0
15 18 6 17 7 35 50 34 -46 -36 -39 -27 -49 -12 -28 -13 -14 -30 -1 -22 -48 0
33 21 49 42 31 16 17 11 27 30 32 25 8 18 53 37 -2 -14 -35 -4 -41 -26 -43 -45 -34 0
12 8 27 22 43 -39 -2 -41 -9 -1 -23 -17 -46 -6 -3 0
45 30 9 36 42 44 21 49 3 1 14 16 11 18 17 43 15 24 47 10 51 32 40 23 46 6 5 29 53 39 50 -22 -26 -48 -20 -4 -52 -12 -37 -2 -35 -13 -33 -34 -25 -31 -41 -28 -8 -38 -27 0
45 47 46 26 14 5 24 2 22 29 21 3 7 41 35 36 13 31 9 17 16 25 10 48 20 -15 -27 -53 -42 -28 -6 -34 -37 -11 -12 -18 -32 -43 -50 -39 -38 -23 -40 -4 -49 0
3 28 52 17 -7 0
19 51 26 9 36 42 38 29 11 14 13 28 43 -47 -12 -39 -18 -37 -4 -5 -2 -15 -6 -22 -10 -8 -40 -44 0
43 45 22 18 34 10 32 36 50 8 19 1 26 31 51 28 5 46 6 9 24 -15 -7 -52 -16 -3 -25 -38 -20 -11 -44 -53 -27 -23 0
10 34 11 43 31 39 5 44 18 38 29 6 17 12 16 -27 -26 -20 -1 -52 -37 -50 -4 -8 -25 -42 -22 0
13 41 23 37 6 48 15 51 40 44 25 43 21 33 30 31 19 2 -1 -49 -27 -5 -3 -10 -14 -42 -9 -35 -8 0
43 7 -19 -37 -13 -24 -41 -33 -50 -30 -12 -39 -34 0
12 20 13 1 24 46 37 23 45 22 49 51 26 16 9 36 -40 -19 -47 -34 -53 -32 -30 -50 -52 -21 -44 -6 -17 -41 -4 -33 -48 -7 -27 -3 -25 0
23 17 16 1 33 8 22 -26 -49 -20 -40 -4 -28 -29 -25 -11 -34 -35 -43 -13 -9 -31 0
-38 -7 0
28 51 44 3 6 31 53 52 40 -2 -33 -13 -16 -27 -15 -21 0
47 32 42 10 43 45 4 9 33 29 17 24 50 6 26 52 41 34 20 14 48 -3 -28 -1 -51 -49 -39 -16 -38 -36 -8 -15 -40 -7 -22 -19 -53 -21 -35 -5 -13 -18 0
40 31 46 50 52 37 20 30 -53 -3 -4 -51 -28 -17 -21 0
50 39 36 48 45 28 44 47 9 18 10 11 52 14 7 46 34 49 26 33 42 6 21 19 35 5 4 17 -15 -16 -40 -12 -2 -37 -51 -25 -29 -13 -41 -38 -8 -20 -1 -27 -22 -31 -30 -3 -32 0
48 14 35 -43 -46 -5 -36 -9 -13 0
17 46 52 34 20 19 16 4 23 42 30 45 40 8 11 -35 -14 -41 -10 -27 -9 0
23 5 40 39 11 36 10 35 51 8 32 46 30 31 53 4 50 -47 -34 -1 -27 -20 -24 -12 -25 -13 -52 -7 -49 -21 -19 -2 -3 -37 -18 -14 -38 0
27 39 34 3 32 15 21 53 44 31 14 4 9 41 28 36 43 13 18 35 8 37 45 23 -47 -38 -17 -46 -40 -24 -12 -42 -51 -52 -19 -48 -29 -11 -30 -2 0
9 53 37 0
12 22 49 1 19 21 17 41 40 28 53 39 42 8 45 27 15 25 33 52 10 -38 -7 -13 -34 -9 -29 -44 -47 -16 -6 -18 -51 -2 -26 -14 -23 -36 -35 -4 -43 -48 -46 -11 -31 -50 0
42 43 5 19 14 32 2 45 12 8 7 17 37 49 26 3 48 6 21 28 33 50 -44 -41 -15 -18 -22 -11 -30 -1 -4 -31 -34 -13 -53 -24 -29 -35 -20 -51 -52 -16 -10 -9 -47 -27 -40 -39 -38 -46 0
8 11 48 26 39 51 46 10 40 -3 -44 -43 -45 0
26 17 28 20 1 18 -30 -46 -34 -12 0
17 8 1 36 10 30 38 -39 -15 -50 -19 -43 -26 0
20 22 36 28 11 46 12 14 6 8 21 16 33 15 10 25 32 5 26 23 17 34 52 39 13 7 24 51 38 49 40 30 -41 -45 -50 -42 -29 -37 -44 -18 -27 -43 -53 -1 -2 -35 -31 -3 -48 -4 0
6 11 42 31 19 28 17 50 45 49 46 29 37 18 16 14 44 39 23 9 -15 -25 -21 -12 -22 -52 -36 -27 -1 -10 -13 -53 -48 -32 -47 -38 -3 -7 -24 -20 -26 -34 0
40 41 46 36 52 34 39 11 37 28 9 35 32 15 13 4 16 12 3 48 24 26 31 23 42 14 -49 -18 -10 -38 -44 -22 -27 -6 -25 -8 -19 -2 -5 -47 -29 -30 -17 -45 -21 0
15 17 10 14 30 28 27 4 29 -42 -38 -5 -34 -32 -33 0
6 9 10 24 25 40 13 19 47 16 36 8 11 44 2 33 4 14 28 45 -49 -3 -22 -52 -48 -34 -18 -29 -7 -23 -21 -38 -42 -17 -41 -30 -32 -50 -27 -53 -1 -51 0
36 39 31 38 53 8 22 25 5 10 15 7 45 46 18 17 48 9 29 -47 -23 -4 -26 -12 -35 -20 -6 -42 -21 -27 -50 -37 -16 -19 -30 -41 -40 -3 -32 -34 -49 -28 -1 -43 -14 0
2 -27 -1 0
15 24 19 22 8 37 5 31 51 -34 -18 -53 -30 -43 -28 -10 -20 -36 -45 0
8 25 5 0
38 12 3 42 15 29 30 35 21 39 41 27 13 18 -14 -4 -8 -1 -10 -52 -53 -31 -25 -46 -51 -19 -45 -48 -24 -6 -40 -49 -28 -47 -37 -26 -9 -11 0
47 0
32 11 34 45 18 42 10 27 21 35 7 26 3 49 9 39 48 30 40 -15 -38 -46 -33 -41 -53 -19 -20 -1 -37 -6 -44 -22 -8 -28 -52 -2 -47 -17 -50 -13 -4 -12 -51 0
53 49 13 27 33 5 32 37 25 19 10 15 34 21 35 40 -18 -48 -28 -22 -3 -47 -42 -23 -30 -24 -4 -45 -6 0
49 2 31 1 37 14 17 20 47 50 16 15 29 44 32 35 41 -26 -21 -33 -24 -23 -5 -53 -38 -43 -30 -40 -8 -48 -45 -34 -52 -25 -39 -7 0
43 8 10 2 28 12 6 53 31 21 48 35 14 5 18 22 19 30 -46 -17 -52 -1 -27 -23 -41 -7 -39 -4 -3 -45 -25 -34 0
6 29 5 25 51 36 8 17 46 53 32 47 49 -45 -10 -7 -38 -37 -2 -23 -12 -28 -4 -33 -43 -11 -26 -9 -14 -22 -19 -27 -20 -50 -21 0
1 19 16 12 15 13 6 33 28 51 32 20 50 34 26 52 22 -23 -2 -4 -18 -3 -36 -48 -46 -31 -11 -41 -42 -21 -38 -45 -40 -25 -17 -29 -49 -24 -5 -53 -44 -47 -8 0
39 50 38 8 1 10 22 9 30 42 51 53 27 -34 -41 -46 -11 -7 -3 -43 -32 -23 -24 -44 -40 -16 -31 -52 -5 -36 -21 -48 -45 -15 0
46 20 53 17 29 22 26 -48 -43 -38 -41 -14 0
7 35 21 32 16 30 40 43 45 47 8 53 17 42 49 44 1 9 10 27 4 -24 -46 -20 -52 -14 -2 -12 -19 -22 -39 -29 -38 -50 -31 -3 -11 -33 -23 -36 -6 0
19 10 13 50 48 45 22 43 31 23 53 38 4 42 14 5 44 18 52 7 21 12 17 -33 -26 -1 -36 -9 -34 -41 -27 -15 -51 -32 -35 -20 -39 -8 -2 -46 -37 -30 -6 -29 -25 0
32 4 40 16 37 25 29 2 47 50 17 12 11 1 6 -46 -13 -7 -20 -22 -5 -24 -19 -36 -26 -48 -41 -14 -18 -35 -45 -43 -51 -38 -10 -53 0
10 2 45 35 20 16 26 22 37 7 17 53 38 49 48 -25 -5 -24 -3 -11 -39 -40 -8 -30 -46 -44 -15 -34 -50 -33 -42 -36 -6 -23 -29 -13 -43 -1 -47 0
23 35 46 48 25 33 39 12 20 28 19 24 30 47 8 42 -15 -49 -6 -7 -45 -2 0
25 49 35 5 10 34 48 9 36 47 16 40 28 13 44 29 20 -33 -8 -12 -21 -51 -41 -32 -37 -42 -11 -53 -15 -46 -26 -52 -38 -50 -39 -17 0
35 46 0
3 46 32 13 43 11 10 36 25 12 19 41 48 23 31 22 33 51 24 26 -40 -8 -45 -42 -17 -1 -5 -52 -27 -7 -49 -39 -9 -35 -2 -37 -34 -15 -50 -53 0
16 20 7 15 47 30 25 40 17 32 3 34 36 41 -21 -31 -44 -24 -45 -10 -51 -14 -11 -9 -2 -4 -6 -5 -13 -29 -22 -49 -50 -35 -8 0
10 49 3 13 6 52 16 37 21 39 -5 -34 -26 -44 -36 -19 -47 -27 -31 -38 -17 -48 -41 -24 0
27 25 16 44 2 35 8 23 4 39 53 3 5 30 6 9 24 34 18 40 46 31 45 38 22 32 -37 -7 -50 -28 -52 -15 -43 -49 -13 -29 -12 -36 -26 -19 -17 -21 -20 -42 -47 -51 -11 -33 -14 -1 -48 -10 0
41 16 0
16 20 45 28 3 43 14 47 11 5 29 40 13 33 39 26 27 10 2 24 1 46 35 37 18 53 -32 -15 -34 -42 -6 -22 -36 -21 -12 -9 -19 -38 -41 -4 -30 -31 -8 -44 0
43 20 39 35 4 8 32 -46 -29 -51 -14 -38 -16 -23 -1 -19 -7 -15 -53 0
28 46 42 53 40 38 47 24 36 15 10 22 37 2 44 17 -19 -23 -11 -25 -1 -13 -14 -3 -43 -39 -12 -7 -21 -26 -31 -51 -49 -27 0
11 52 41 8 18 47 23 49 5 35 15 10 45 14 17 27 43 -12 -44 -13 -22 -1 -51 0
29 12 30 49 13 27 28 7 41 43 53 40 51 46 8 15 48 32 -23 -52 -17 -11 -19 -3 -36 -34 -2 -1 -35 -26 -18 -45 -10 -24 -21 -25 -9 -33 0
16 12 39 52 35 34 5 19 21 14 40 10 29 8 23 -48 -24 -3 -45 -13 -47 -7 -6 -22 -38 -25 -51 -36 -31 -9 0
13 19 -44 0
49 40 21 48 36 -51 -47 -41 -42 -13 -43 -14 -44 0
26 40 9 25 1 29 38 45 3 13 43 52 -27 -8 -41 -2 -30 -36 -47 -11 -7 0
5 25 -38 -19 -37 0
5 32 9 38 13 20 6 41 31 52 45 37 4 34 23 25 -3 -10 -50 -22 -15 -16 -12 -42 -28 -14 -53 -19 -51 -29 -39 -11 -1 -24 0
40 26 19 8 22 27 38 10 50 32 51 34 4 52 23 16 -7 -13 -24 -25 -43 0
32 -2 -10 -36 0
6 18 9 -34 -50 -42 -27 0
33 10 21 52 23 1 45 47 15 18 41 6 16 34 49 38 37 31 50 27 5 13 4 -30 -39 -43 -7 -19 -32 -26 -12 -29 -51 -35 -25 -53 -11 -48 -3 -22 -28 -24 -42 -44 -46 -17 0
2 23 31 11 43 37 14 22 32 1 50 8 46 21 36 16 15 29 49 45 -25 -12 -19 -10 -52 -20 -17 -18 -41 -9 -3 0
24 31 16 9 40 41 45 3 15 13 49 1 43 51 34 8 17 7 27 -47 -29 -22 -33 -2 -44 -36 -50 -12 -4 -20 -25 -6 -38 -37 -42 -26 -53 -52 -18 -39 -21 -32 -19 -10 -48 -23 0
48 51 47 22 27 44 45 40 14 41 2 28 19 12 13 39 5 35 29 10 26 46 23 21 15 18 -31 -43 -20 -4 -8 -24 -9 -37 -16 -11 -38 -1 -42 -49 -36 -32 -33 -52 -30 -25 -34 -3 -17 -7 0
43 20 27 30 38 26 51 2 44 19 7 29 24 53 45 10 49 31 18 21 33 11 -8 -16 -23 -12 -14 -47 -13 -39 -15 -35 -41 -28 -36 -34 -48 -22 -17 0
1 9 14 52 16 5 39 19 7 6 23 3 31 -10 -49 -12 -18 -26 -30 -13 -41 -46 -17 0
9 12 21 29 -20 -7 -26 -25 0
27 31 48 13 24 -36 -46 -15 -49 -28 0
10 19 22 37 53 13 29 14 16 23 36 4 43 50 -5 -25 -40 -49 -35 -46 -27 -11 -28 -48 -41 -1 -38 -24 -21 -2 -7 -26 -6 -15 0
30 45 50 51 40 7 35 37 29 41 25 26 18 -15 -27 -34 -52 -47 -23 -21 -6 -3 -5 -44 -1 -31 -17 -36 -38 0
24 5 38 26 48 10 40 27 1 28 36 52 31 34 15 49 22 42 41 17 12 3 25 11 21 32 -50 -35 -2 -7 -13 -33 -45 -19 -53 -39 -47 -46 -8 -51 -4 -44 -29 -16 -14 -18 -20 -37 -6 0
37 20 10 8 44 43 23 5 53 45 33 13 7 34 1 35 3 14 49 21 40 50 51 52 24 42 26 9 30 46 19 -18 -31 -15 -47 -11 -6 -22 -4 -12 -32 -29 -48 -17 -41 -28 -36 -38 -25 -2 -27 -39 0
30 34 11 41 53 32 46 28 8 14 31 1 -45 -2 -5 -44 -23 -49 -25 -26 -42 -39 -35 -12 -50 -27 -18 -40 -10 0
11 46 50 1 53 28 3 20 21 49 52 43 39 24 8 29 4 36 47 45 15 -30 -25 -23 -26 -42 -38 -5 -33 -22 -31 -35 -7 -16 -17 -18 -37 -34 -12 -51 -6 -44 -19 0
5 8 21 14 51 29 -9 -52 0
31 5 42 11 1 0
7 27 51 3 39 5 20 42 19 32 41 26 -38 -2 -15 -11 -36 -50 -40 -18 -17 -12 -33 -8 -35 0
23 12 5 46 1 40 37 2 43 10 41 4 50 13 49 27 47 -53 -17 -31 -24 -19 -3 -8 -18 -7 -51 -32 -11 -30 -21 -16 -45 -35 0
41 21 7 32 1 31 3 42 37 53 39 27 10 18 5 -17 -50 -43 -33 -14 -52 -8 -13 -24 -6 -38 -48 -26 -22 0
4 48 28 24 8 33 18 11 39 42 -19 -30 -44 -27 -2 -43 -12 -14 -1 -6 -16 0
53 28 17 31 23 2 1 -33 -47 -25 -51 -52 -44 -26 0
47 3 51 21 52 34 16 46 41 31 39 13 9 25 26 18 19 43 15 -2 -42 -53 -8 -28 -14 -1 -38 -49 -36 -24 -11 -30 -22 0
36 45 37 1 40 19 47 35 6 4 21 26 24 48 10 46 53 23 3 -39 -29 -28 -11 -15 -27 -16 -33 -44 -25 -13 -51 -32 -7 -8 -52 -31 -12 -49 -9 0
22 -51 0
37 48 42 10 32 45 13 17 -7 -5 -20 -51 0
20 45 48 14 33 34 37 4 2 25 30 8 50 49 7 1 53 39 18 47 6 5 -31 -35 -29 -15 -27 -40 -9 -23 -17 -43 -13 -16 -19 -51 0
35 6 16 23 14 48 17 7 34 39 43 46 49 41 50 3 25 52 9 28 11 10 24 53 31 -51 -5 -44 -30 -26 -27 -12 -37 -20 -4 -33 -38 -36 -8 -29 -21 -40 -19 -45 0
23 16 35 17 -19 0
32 50 -16 -25 -15 -27 0
43 4 6 29 23 14 -34 -39 -41 -1 -31 0
9 2 6 31 19 11 49 51 5 38 35 40 14 43 42 25 4 45 39 16 15 37 22 27 8 -29 -53 -34 -18 -41 -20 -50 -10 -28 -33 -36 -48 -3 -52 -26 -44 -24 -47 -7 -32 -30 -17 -1 -23 0
50 35 3 51 41 29 5 42 13 26 18 44 43 11 48 20 40 53 37 19 12 -16 -17 -46 -38 -32 -52 -39 -45 -2 -25 -4 -34 -21 -49 -8 -15 -6 -1 -7 -9 -10 -28 -36 -31 -14 -33 -30 -27 0
28 24 21 7 44 27 47 10 34 -49 -19 -45 -22 -33 -1 -16 -26 -5 -41 -53 -31 -18 -11 -37 -14 -20 -32 0
15 24 41 44 39 40 11 2 -45 -1 -10 -7 -53 0
25 20 6 15 51 2 49 42 28 22 52 50 23 11 37 -9 -32 -16 -34 -24 -5 -7 -30 -18 -4 -48 -35 -1 -46 -45 -27 -12 -39 -43 -47 -36 -40 -38 0
33 8 19 18 20 35 52 22 47 5 28 7 24 40 11 14 29 41 32 4 2 36 45 3 26 34 17 31 39 13 -44 -21 -42 -16 -6 -49 -23 -30 -43 -10 -48 -12 -25 -51 -37 -9 -27 -15 -46 -50 0
16 25 5 32 27 39 30 28 36 51 52 45 44 42 33 24 -50 -2 -53 -9 -14 -43 -4 -49 -11 -1 -18 -47 -7 -12 -13 -38 0
5 45 29 6 10 32 9 8 2 19 24 41 21 1 48 25 28 -39 -35 -47 -7 -17 -49 -30 -52 -53 -37 -27 -15 -12 -36 0
3 46 35 4 52 12 51 24 48 18 44 53 -14 -7 -21 -37 -5 -23 -45 -11 -15 -39 -1 -26 0
53 36 49 9 14 34 26 40 3 39 18 28 13 11 19 38 52 46 1 27 -4 -8 -37 -6 -35 -15 -45 -31 -43 -21 -29 -24 -32 -12 -16 -33 -7 0
14 48 19 10 29 46 40 32 2 17 45 49 23 21 43 30 11 34 18 8 50 33 -13 -41 -38 -1 -7 -36 -51 -31 -44 -16 -52 -26 -47 -22 -3 -27 -20 -53 -42 -9 -4 -35 0
37 50 -4 -13 -40 0
19 38 53 13 47 37 5 46 22 30 10 2 51 26 45 25 33 7 16 11 -15 -1 -42 -40 -52 -18 -21 -28 -14 -6 -50 -23 -12 -9 -32 -31 -17 -34 -4 -43 -35 -8 -39 -36 0
27 18 1 2 29 49 24 5 13 47 3 16 37 34 30 46 21 8 26 28 9 39 6 43 23 33 -51 -10 -38 -11 -48 -4 -12 -17 -19 -42 -36 -50 -31 -15 -7 -52 0
42 48 49 9 12 2 3 43 31 13 24 39 18 53 5 28 35 22 15 -21 -1 -6 -10 -41 -50 -40 -16 -4 -32 -36 -33 -38 -14 -19 -46 -52 -34 -47 -17 -23 0
44 50 31 3 51 53 15 37 19 8 45 25 29 28 40 30 49 13 6 -22 -20 -33 -5 -1 -38 -47 -9 -43 -48 -7 -41 -17 -2 -10 -26 0
3 37 46 21 23 -44 -8 -40 0
1 48 24 37 30 41 31 44 10 40 19 47 16 42 27 23 18 49 43 26 9 -4 -46 -7 -5 -53 -17 -35 -45 -36 -52 -2 -50 0
40 14 38 10 35 7 16 4 19 53 51 13 50 25 18 11 15 36 26 33 12 34 44 -49 -23 -39 -3 -22 -27 -46 -24 -28 -47 -9 -30 -45 -5 -37 -42 -52 -21 -17 -41 -32 -29 -31 -43 -1 -6 -8 -48 0
19 48 30 47 40 27 14 11 9 34 53 29 52 -50 -13 -4 -2 -49 -39 -3 -1 -15 -31 -43 -20 0
30 15 48 51 53 4 16 11 25 38 20 33 2 44 1 5 35 17 21 29 6 32 50 -9 -39 -23 -18 -47 -28 -36 -12 -41 -40 -27 -43 -45 -22 -46 -31 -13 -10 0
47 42 15 11 19 48 23 51 2 20 8 25 12 5 38 35 21 4 52 39 -18 -26 -6 -14 -34 -22 -50 -32 -7 -43 -31 -53 -37 -45 -1 -17 -24 -33 -3 0
16 41 11 38 50 12 6 22 33 29 53 18 7 15 30 23 14 24 28 37 1 34 52 -51 -42 -9 -46 -44 -48 -3 -35 -40 -49 -10 -21 -31 -13 -25 -32 -43 -47 -19 -26 -39 -5 -36 0
17 9 48 1 19 -53 -51 -7 -34 -20 -29 -45 0
47 32 29 3 17 5 18 40 14 16 39 20 27 8 31 33 41 46 -36 -1 -21 -49 -42 -11 -10 -9 -15 -30 -13 0
12 51 -43 -27 0
44 30 14 27 53 18 5 16 35 -51 -41 -9 -13 -39 -49 -29 0
35 8 42 38 49 5 39 47 44 3 9 16 46 13 17 29 15 18 -7 -43 -21 -36 -14 -6 -4 -32 -53 -50 -45 -23 -52 -40 -28 -10 0
31 2 -9 -3 -15 -43 0
4 9 47 35 33 7 45 23 42 8 24 -46 -32 -6 -20 -39 -19 -11 -25 -50 0
9 45 13 33 42 32 43 50 1 25 24 48 16 28 20 18 11 26 -3 -27 -41 -12 -10 -46 -23 -44 -30 -7 -5 -34 -49 -15 -6 -35 -36 0
17 24 19 8 27 20 35 48 30 28 7 34 38 3 9 14 -41 -31 -43 -11 -18 -26 -12 -21 -53 -6 -39 -44 -51 -4 -46 0
32 39 30 4 38 8 13 50 3 6 43 19 36 2 40 15 34 51 47 22 27 18 9 48 1 10 37 -23 -35 -12 -41 -53 -49 -14 -16 -11 -7 -5 -26 -45 -33 -46 -21 -44 -29 -17 -28 -20 -24 -25 -42 -52 0
53 37 8 30 -21 -17 -5 -3 -20 0
51 3 -39 -43 -42 -45 -18 -36 0
37 50 15 38 10 16 23 4 3 2 34 21 11 24 32 25 -35 -44 -17 -18 -40 -41 -53 -42 -49 -20 -5 -22 -1 -12 -29 -47 -43 0
33 46 44 32 14 45 -8 -37 -4 -12 -34 -36 -17 -13 -48 0
12 5 16 43 28 2 26 13 14 30 20 36 32 52 45 50 46 51 6 49 18 48 -1 -42 -33 -7 -53 -35 -21 -29 -31 -41 -4 -22 -19 -3 -38 -23 -8 -10 -40 -15 -34 -24 -47 0
35 47 23 33 32 15 22 14 43 4 29 21 37 52 36 26 10 38 2 49 13 -42 -18 -28 -39 -53 -24 -30 -44 -31 -8 -5 0
26 25 51 11 22 -48 -10 -12 -18 -35 0
29 30 28 37 13 31 35 -51 -47 -40 -34 -9 -50 0
21 29 38 1 5 -22 -23 -28 -49 -41 -27 -53 0
29 40 53 31 14 50 49 12 11 8 21 16 47 3 36 13 34 9 35 52 46 37 6 38 18 42 39 -33 -28 -26 -51 -24 -27 -19 -45 -4 -20 -1 -17 -44 -43 -15 -5 -32 -23 -48 -7 -30 0
49 46 5 41 18 26 25 2 47 32 -8 -31 -27 -53 -1 -33 -37 -22 -48 -19 0
14 51 6 42 45 15 10 34 32 40 38 16 26 4 28 37 -21 -39 -36 -7 -11 -44 -53 -29 -46 -20 -3 0
50 49 7 39 15 27 20 38 43 13 24 10 37 9 17 29 14 19 -8 -31 -41 -3 -34 -47 -4 -40 -51 -48 -16 -36 0
18 52 51 50 20 39 19 37 44 30 43 27 2 35 -11 -3 -33 -23 -6 -22 -17 0
19 10 32 49 30 34 29 14 5 20 15 45 41 6 17 9 40 24 47 25 4 -23 -36 -35 -39 -28 -7 -2 -53 -16 -33 -21 -31 -11 -3 -44 -48 -13 -18 -37 -27 -8 0
45 49 0
9 53 34 2 22 33 32 40 3 12 18 8 13 29 47 28 19 31 51 42 17 41 -6 -23 -35 -14 -26 -38 -46 -44 -45 0
23 47 29 6 27 2 5 4 9 46 16 34 20 48 31 33 12 15 1 22 24 11 28 14 42 41 44 37 -18 -17 -26 -21 -40 -19 -52 -32 -25 -3 -36 -30 -13 -7 -51 -39 -50 -38 -49 -43 0
53 45 35 48 51 30 24 36 38 46 52 26 12 16 39 -33 -23 -49 -14 -28 -47 -50 -18 -13 -4 -42 -3 -29 -10 -31 -9 -25 -6 -34 -21 -20 -43 -27 -17 0
53 20 4 26 52 34 3 19 22 37 28 36 29 14 1 47 6 38 49 13 2 -9 -33 -31 -16 -11 -44 -40 -39 -48 -12 -41 -35 -30 -24 -32 -43 0
33 14 30 50 -16 -19 -32 -21 -22 -40 0
33 -17 -48 -50 -20 -51 0
31 38 10 9 24 8 47 21 50 18 36 53 7 33 14 13 5 17 6 42 37 19 15 -35 -34 -39 -11 -26 -29 -22 -1 -41 -25 -46 -20 -16 -2 -43 -32 -45 -44 -3 -30 -4 0
36 5 37 41 29 33 52 45 20 47 9 34 22 6 46 30 35 1 53 31 14 38 8 -2 -28 -12 -42 -13 -21 -15 -44 -50 -40 -17 -4 -19 -39 -23 -16 -43 -48 -3 -7 -25 -32 -26 -49 0
31 38 33 43 35 44 30 20 39 51 52 42 8 17 34 23 26 50 10 36 13 11 5 18 6 14 3 19 48 28 -16 -49 -46 -9 -24 -22 -29 -21 -2 -32 -41 -53 -12 -47 -37 -25 -4 -27 -7 -15 -40 0
19 30 44 1 5 22 31 47 13 3 35 8 53 49 40 12 29 46 21 52 37 17 11 45 10 28 36 -6 -32 -20 -41 -14 -48 -39 -4 -7 -26 -33 -34 -42 -50 -9 -15 -18 -38 -16 -2 -25 -23 -24 0
37 11 30 17 14 -52 -36 -2 -13 -7 -41 0
23 52 48 26 38 44 -13 -53 -17 -50 0
50 -13 -42 -30 -53 0
42 18 43 1 16 8 11 49 7 33 14 30 28 17 13 40 4 25 38 3 21 20 23 46 -5 -53 -34 -27 -36 -29 -45 -44 -2 -22 -6 -41 -9 -24 -12 -37 -52 -26 -19 0
39 8 43 30 23 40 4 33 -49 -45 -21 -5 -53 -48 -41 0
35 13 39 46 40 3 44 37 24 8 5 41 32 22 48 4 28 42 38 51 53 -2 -49 -18 -14 -29 -33 -1 -23 -47 -10 -36 -34 -45 -19 0
49 46 16 44 28 33 42 29 20 25 10 15 1 34 8 31 32 27 39 14 51 2 12 -17 -38 -4 -3 -48 -22 -21 -23 -6 -45 -40 -13 -52 -47 -35 -53 -7 -19 -30 -37 -18 -26 0
45 31 47 48 -50 -3 -14 -21 0
5 14 13 8 26 45 21 19 3 35 42 33 47 28 2 48 53 10 51 17 36 15 -12 -4 -43 -11 -38 -20 -22 -34 -46 -32 0
6 21 10 26 41 43 45 9 11 22 28 36 27 31 37 47 30 -44 -13 -34 -52 -8 -32 -39 -40 -16 -12 -48 -53 -23 -33 -7 -19 0
29 31 37 18 48 40 52 42 1 51 6 26 8 32 35 27 53 15 5 34 44 45 -3 -19 -28 -38 -11 -50 -10 -2 -23 -14 -30 -47 -20 -9 -12 -16 -22 -25 -39 -43 -21 -7 -49 -41 -4 0
29 20 26 11 44 3 41 18 8 42 45 24 15 53 7 50 38 5 -33 -23 -1 -22 -35 -43 -16 -6 -19 -28 -10 -51 -47 -2 -32 -21 -52 -39 -12 -30 -9 0
26 17 37 31 13 28 16 47 11 6 38 42 33 -32 -36 -29 -43 -8 -3 -19 0
30 40 18 8 27 37 16 35 2 50 24 44 17 13 36 19 23 1 4 20 48 51 -43 -34 -33 -25 -28 -31 -53 -47 -42 -14 -32 -26 -49 -12 -6 -3 -39 -9 -41 -21 0
9 30 26 47 -49 -24 -8 0
34 29 2 10 18 31 47 52 11 53 4 35 -23 -49 -5 -39 -43 -51 -8 -30 -20 -1 -3 -50 -17 -7 -13 0
45 36 30 40 13 22 28 53 -19 -32 -48 -34 -38 -9 -6 -49 -26 -25 -47 -43 -39 0
4 49 45 24 53 32 3 1 10 6 39 43 20 -30 -7 -38 -42 -16 -19 -12 -52 -35 -8 -50 -14 -29 -31 -41 -23 -22 -15 -47 -27 -44 0
4 42 -38 0
48 1 30 19 26 34 36 4 50 -15 -38 -42 -46 -25 0
40 27 51 15 20 19 8 1 18 13 34 6 -9 -39 -45 -44 -23 -22 -37 -10 -12 -48 -41 -35 -17 0
46 10 40 20 49 17 30 8 48 14 26 36 6 32 33 37 51 22 -4 -15 -2 -23 -5 -16 -28 -50 -52 -42 -21 -43 -41 -53 -45 -47 -9 -1 0
34 22 37 33 49 21 45 9 38 6 4 11 50 32 16 39 24 46 53 3 43 -14 -18 -23 -27 -8 -10 -13 -5 -44 0
7 49 -14 -16 -17 -37 0
18 8 21 27 29 -15 -17 -13 -45 -41 -16 -20 -10 -5 -22 -35 -39 -32 0
2 6 45 42 7 41 46 47 12 13 32 37 40 49 27 19 25 53 26 3 8 23 -4 -14 -11 -10 -36 -51 -38 -50 -16 -35 -1 -20 -5 -24 -17 -28 0
39 15 5 35 45 53 17 1 32 13 3 25 19 8 42 29 2 7 40 6 47 30 50 10 -49 -41 -31 -48 -28 -38 -4 -23 -26 -20 -27 -37 -16 -43 -36 -14 -12 -21 -44 -33 -11 -22 -9 0
51 30 36 12 43 1 27 44 40 29 15 28 32 39 5 19 -3 -2 -25 -9 -50 -13 -7 -16 -4 0
18 49 19 4 37 14 2 33 50 41 46 3 44 34 9 7 25 42 11 26 -28 -17 -29 -1 -32 -12 -47 -45 -5 -38 -21 -36 -27 -13 -51 0
5 8 39 13 17 11 6 14 24 50 19 20 22 53 23 32 3 51 -7 -26 -33 -34 -25 -45 -21 -28 -35 -49 -40 -18 -4 -52 -29 -1 -37 -30 -15 -27 -47 -9 0
35 8 6 18 36 25 28 21 39 14 17 45 1 42 38 41 -52 -3 -23 -48 -9 -34 -47 -20 -50 -19 -15 -43 -22 -16 -29 -33 0
40 11 49 39 43 15 33 26 27 2 -45 -53 -6 -47 -20 -35 -42 -4 -32 -34 -1 -31 -16 -46 0
15 39 -34 0
40 15 43 25 1 27 2 35 39 14 45 10 13 3 4 42 50 33 -28 -18 -11 -49 -36 -19 -5 -22 -16 -29 -8 -26 -7 -37 -48 -23 -53 -17 -51 -38 -9 -21 -24 0
53 45 4 23 7 24 50 22 6 42 -5 -47 -37 -52 -34 -20 -12 -40 -11 -44 -28 -14 -10 -49 -3 -31 -36 -33 -19 -38 -39 -16 -18 -15 0
14 39 48 20 22 42 31 45 7 18 27 47 -25 -44 -46 -37 -11 -12 -23 0
49 2 33 4 21 13 -30 -6 -20 -44 -17 -19 -24 -39 -9 -50 -18 0
23 33 39 42 43 27 41 13 14 10 -45 -18 -2 -52 -38 -47 -44 -1 -28 -5 -11 -7 -20 -25 -40 0
50 16 45 10 -39 -35 0
19 13 14 53 17 11 36 12 24 25 15 29 38 40 18 41 -49 -21 -50 -2 -33 -10 -9 -32 -23 -51 -43 -26 -35 0
7 32 9 29 17 34 48 43 49 41 33 39 30 6 25 40 38 21 37 26 46 23 1 12 50 4 27 19 20 42 -11 -5 -44 -15 -24 -10 -16 -3 -18 -52 -51 -53 -13 -22 -35 -45 -8 -31 -2 -14 0
50 37 23 34 45 27 12 8 26 22 -32 -9 -38 -29 -3 -35 -41 -1 -48 0
12 49 39 24 40 -32 -17 -23 0
11 18 28 33 15 44 38 22 16 24 8 52 1 43 -17 -7 -6 -10 -47 -26 0
