c NeuroCodeBench 2.0 CNF formula with verdict Sat
p cnf 81 424
1 57 58 -74 -55 -5 -17 -7 0
22 6 58 41 25 53 29 23 38 79 72 27 60 46 76 63 81 35 8 47 78 -57 -62 -33 -37 -65 -68 -66 -14 -64 -3 -42 -5 -67 -13 -20 -59 -31 -71 -30 -77 -43 -39 -40 -44 -45 -2 -4 0
61 -30 -54 0
32 52 9 22 55 75 80 67 58 4 48 68 42 64 74 69 -60 -72 -47 -29 -31 -18 -21 -79 -10 -36 -59 -63 -40 -43 -28 -26 0
78 41 76 28 22 8 69 30 47 29 50 14 37 39 4 42 35 3 18 40 79 -71 -54 -45 -56 -10 -58 -68 -66 -72 -11 -77 -63 -23 -15 -12 -13 -48 -46 -6 -26 -81 -32 -73 -5 -36 -62 -75 0
75 2 28 24 16 71 55 73 51 12 67 33 59 60 42 18 39 53 43 38 66 68 27 46 64 15 58 74 57 31 23 52 37 35 13 34 6 77 -61 -78 -40 -30 -1 -5 -20 -76 -8 -69 -11 -41 -48 -49 -80 -4 -14 -81 -25 -29 -17 -22 -9 -62 -54 -7 -21 -70 -65 -79 -50 -63 -45 -36 -3 -44 -10 -72 -32 -26 0
44 35 57 50 23 68 33 1 31 67 -10 -2 -75 -59 -49 -7 -16 -39 -25 -47 -54 0
7 21 42 81 41 -17 -63 -48 -36 -27 -61 0
23 70 80 73 49 61 69 5 48 74 14 16 24 75 1 19 39 18 51 6 4 41 76 50 44 20 38 12 56 25 47 34 -28 -7 -17 -53 -58 -26 -36 -21 -57 -60 -27 -22 -67 -65 -31 -29 -15 -9 -63 -78 -32 -62 0
48 65 79 8 80 27 64 71 -3 -74 -44 -52 -11 -22 -26 -20 -18 -63 0
57 1 2 12 49 59 28 61 74 68 13 35 54 31 41 20 81 67 58 23 48 62 24 27 55 37 72 65 43 44 73 63 16 76 80 29 32 66 26 60 -25 -71 -78 -53 -45 -22 -5 -21 -17 -6 -69 -33 -42 -3 -40 -4 -38 -7 -36 -9 -11 -64 -15 -52 -14 -50 -30 -39 -79 -46 -8 -70 -51 -10 -77 -47 -56 -34 0
9 53 56 1 49 33 35 27 28 71 70 23 7 30 65 37 47 73 72 19 54 -45 -17 -79 -13 -40 -24 -38 -63 -81 -61 -5 -8 -51 -77 -44 -66 -43 0
65 -32 -13 -23 0
21 48 4 58 76 25 -42 -35 -44 -9 -18 -61 -62 0
27 30 42 63 12 10 40 72 31 75 38 2 37 48 49 61 70 55 24 15 34 4 17 20 28 19 7 -56 -6 -5 -36 -3 -32 -71 -59 -26 -11 -41 -67 -43 -79 -47 -76 -8 -66 -18 0
30 12 10 13 73 59 52 15 44 31 -50 -61 -24 -1 -69 -71 -58 -40 -66 0
28 8 32 73 54 42 46 6 9 21 74 63 70 48 69 36 43 59 53 -22 -4 -24 -40 -2 -62 -34 -18 -60 -17 -45 -65 -13 -71 -50 -79 -12 -80 -23 -78 -66 -61 -67 0
26 35 62 43 76 4 70 73 24 51 17 40 12 72 22 71 39 6 15 18 31 53 11 48 61 54 42 67 77 37 29 -63 -57 -32 -46 -69 -75 -16 -27 -65 -25 -28 -2 -45 -9 -10 -21 -78 -47 -44 -56 -64 -7 -38 -8 -30 -13 -58 -33 -3 -59 0
66 21 47 40 61 60 45 17 55 5 73 11 77 3 54 62 8 75 80 30 26 64 38 29 14 19 1 36 10 78 42 70 39 22 65 49 69 13 33 67 31 -68 -20 -53 -46 -71 -74 -18 -72 -41 -63 -32 -43 -28 -44 -48 -56 -4 -57 -50 -24 -79 -37 -52 -81 -15 -16 -23 -12 -2 -35 -7 -58 -9 -51 -76 -25 0
46 13 58 67 6 23 7 27 51 70 11 31 78 52 69 34 47 73 60 21 32 4 64 79 61 30 17 57 2 -81 -29 -5 -20 -43 -75 -54 -65 -49 -39 -9 -80 -42 -16 -56 -44 -12 -33 -40 -35 -18 -38 -68 0
30 55 20 81 9 8 44 46 70 61 63 12 36 39 13 78 5 68 64 38 28 56 10 3 17 62 16 15 72 27 80 77 33 23 -67 -65 -34 -35 -24 -18 -53 -60 -19 -45 -73 -31 -57 -43 -26 -54 -21 -75 -4 -2 -1 -47 -42 -22 -59 -14 -11 -48 -52 -37 0
6 45 53 29 65 20 47 27 73 63 76 50 13 71 69 52 58 23 24 35 25 9 33 14 41 26 7 44 43 16 22 72 61 -80 -78 -37 -28 -77 -42 -56 -38 -66 -81 -74 -75 -30 -59 -49 -12 -39 -48 -8 -64 -18 -36 -31 -21 -57 -4 0
69 30 67 38 61 63 80 10 75 -22 -59 -52 -3 -39 -12 -46 -43 -33 0
62 50 48 75 42 7 54 47 12 69 6 41 29 80 55 5 53 24 19 37 76 39 18 -68 -49 -14 -77 -31 -20 -21 -26 -8 -59 -65 -10 -3 -52 -78 -81 -35 -63 -25 -9 -70 -74 -58 -72 -64 -60 -44 -4 -40 -11 -33 0
81 35 10 38 44 42 4 9 51 33 8 61 3 -68 -67 -78 -6 -31 -43 -48 -25 -14 -16 -18 -5 -15 -24 -46 -30 -23 -21 -54 -62 0
14 64 52 20 22 32 -42 -76 -27 -24 -5 0
66 39 42 -30 -22 0
15 71 7 30 25 14 1 72 80 74 39 34 21 50 59 26 75 6 43 48 78 49 53 61 47 4 44 62 20 35 41 63 -65 -55 -18 -66 -11 -31 -51 -45 -22 -24 -42 -79 -69 -81 -33 -58 -28 -36 -23 -13 -57 -27 -16 -77 -8 -64 -76 -56 -2 -52 -40 -68 -12 0
26 63 70 38 45 2 40 43 60 57 37 23 68 75 79 36 19 69 46 17 16 1 51 9 21 20 73 33 64 13 74 -48 -28 -29 -62 -49 -80 -56 -3 -15 -53 -12 -65 -55 -7 -31 -58 -52 -67 -77 -30 -47 -54 -6 -11 -76 0
81 32 69 4 42 31 20 78 53 22 7 58 44 29 70 47 1 21 74 17 77 63 40 64 73 80 5 37 6 56 25 8 65 -11 -36 -35 -48 -61 -57 -68 -23 -39 -19 -18 -2 -24 -12 -28 -27 -72 -13 -14 -9 -49 -30 -62 -46 -45 -66 -75 -38 -52 -51 -59 -60 -3 -10 -55 -50 -71 -79 -43 -15 0
54 29 77 45 19 58 68 71 53 61 79 41 16 2 25 62 55 43 38 15 75 64 33 23 80 13 36 21 81 35 9 72 1 -78 -24 -48 -67 -40 -26 -20 -66 -56 -44 -37 -4 0
72 28 6 9 36 1 8 -45 -4 -5 -65 -13 -80 -23 -55 -75 0
49 59 37 19 80 18 70 21 6 38 17 50 4 13 1 29 62 43 76 9 74 25 60 56 54 79 30 7 33 61 68 36 46 -5 -32 -39 -77 -11 -31 -63 -35 -66 -69 -47 -24 -48 -22 -23 -65 -55 -2 -40 -78 -73 -14 -71 -52 -53 -64 -28 -3 -27 -41 -8 -34 -67 -20 -10 -45 -26 -15 -75 -44 0
50 41 21 62 2 66 4 51 48 77 58 26 -23 -3 -73 -29 -54 -28 -57 -34 -38 -64 -36 -40 -37 -20 -44 -7 0
9 1 -10 -73 0
1 49 2 9 6 45 63 64 81 29 25 66 17 72 77 35 20 79 5 78 30 52 65 15 39 75 43 54 67 7 28 8 18 19 73 21 48 13 24 34 -47 -27 -22 -57 -62 -70 -3 -56 -46 -16 -55 -36 -59 -68 -53 -69 -60 -50 -14 -33 -74 -38 -12 -37 -61 -58 -76 0
67 66 46 2 80 72 10 20 16 57 39 21 62 74 25 31 75 63 48 22 40 44 61 78 60 36 55 26 12 56 70 1 77 17 27 23 7 71 29 -79 -64 -14 -50 -24 -34 -51 -81 -32 -15 -68 -42 -13 -4 -35 -28 -6 -49 -30 -54 -45 -52 -3 -8 -43 -65 -33 -9 -37 0
4 79 13 44 80 75 69 12 33 46 66 8 27 5 39 24 49 30 15 14 31 57 17 3 42 73 56 50 67 1 9 53 43 -28 -72 -70 -74 -54 -81 -38 -62 -77 -48 -59 -2 -40 -32 -64 -25 -7 -10 -51 -37 -18 -78 -61 -63 -41 -16 -36 0
17 50 76 4 44 60 61 24 27 35 59 15 78 33 55 53 68 48 32 70 41 51 39 66 -71 -79 -14 -37 -56 -28 -46 -1 -2 -72 -22 -67 -10 -30 -23 0
23 50 41 43 51 79 49 13 25 5 45 77 37 62 44 35 40 76 71 81 64 54 47 48 3 12 73 66 27 -67 -78 -7 -4 -11 -61 -74 -2 -68 -30 -20 -32 -28 -14 -9 -29 -60 -72 -18 -38 -16 -21 -58 -34 -53 0
30 35 74 8 65 78 31 18 27 7 39 51 36 59 14 60 79 67 71 45 12 4 81 49 -11 -58 -47 -48 -50 -52 -25 -80 -16 -69 -37 -33 -17 -24 -32 -34 -63 -77 -43 -2 -29 -19 0
13 59 27 77 76 6 55 45 62 47 7 81 43 -16 -80 -56 -10 -9 -41 -17 -32 -23 -51 -57 0
65 14 63 45 13 69 61 11 78 33 47 15 -26 -41 -81 -44 -53 -8 -58 -62 -71 -32 0
27 42 -30 -33 0
28 51 25 45 80 30 22 6 11 1 64 63 18 19 81 54 42 32 15 41 66 12 7 71 24 44 52 13 8 70 -29 -4 -35 -75 -2 -74 -33 -73 -16 -53 -37 -23 -56 -59 -48 -40 -79 -62 -10 -27 -36 -55 -3 -46 -17 -9 -77 -78 -26 -39 -68 -69 -38 -14 0
40 11 42 24 12 3 47 29 13 26 44 71 41 14 56 16 27 43 20 73 52 58 8 7 34 25 57 28 23 36 32 75 76 15 4 45 54 66 62 -79 -19 -21 -63 -5 -65 -31 -68 -46 -80 -72 -67 -60 -1 -77 -37 -10 -22 -6 -17 -64 -49 -78 -69 -38 -55 -61 -2 -50 -81 -35 -18 -9 -59 -39 -30 0
43 49 52 55 24 41 64 73 30 70 78 18 61 38 16 5 79 47 28 14 59 33 15 67 45 1 25 54 -65 -69 -68 -80 -66 -39 -44 -4 -75 -35 -77 -29 -72 -32 -71 -48 -36 -42 -21 -8 -6 -46 -51 -81 0
74 66 15 59 18 51 40 68 45 23 58 55 24 7 27 25 37 3 76 29 42 53 1 75 79 14 71 -28 -54 -16 -30 -56 -67 -10 -61 -2 -11 -62 -41 -34 -48 -33 -63 -44 -8 0
28 50 27 11 42 62 25 49 34 53 36 14 19 44 64 74 59 31 1 2 5 43 76 18 69 81 4 -41 -65 -47 -17 -24 -67 -15 -40 -35 -33 -78 -77 -60 -22 -46 -3 -75 -6 -56 -80 -55 -16 -38 -8 -63 -70 0
72 16 23 39 53 76 67 73 1 6 -74 -25 -60 -36 -40 -5 -10 -26 -58 -41 -55 -13 -20 -34 -59 -15 -45 -11 -8 -43 -65 -18 -28 -19 -62 -48 -51 0
26 59 4 -60 0
34 58 28 2 -17 -12 -54 0
57 30 81 8 44 53 22 55 -58 -43 -31 -19 -32 -37 -80 -72 -38 -75 -6 -49 -62 -48 -5 0
26 44 81 5 51 47 69 17 28 31 61 24 23 43 19 1 77 45 41 18 27 39 22 35 6 57 68 74 29 21 11 79 71 14 -3 -12 -70 -72 -53 -80 -65 -32 -7 -36 -59 -76 -37 -78 -25 -66 -58 -54 -67 -42 -30 -16 -50 -15 -33 -73 -46 -34 -20 -64 -4 -8 -75 -40 -49 -10 -56 -13 -63 -2 -38 -55 -9 -52 -48 0
17 75 14 53 81 40 34 47 27 3 38 2 8 -10 -23 -70 -5 -64 -25 -59 -74 -45 -80 -66 -42 -56 -50 -79 -13 -68 -37 -72 0
55 61 59 77 47 36 57 35 66 22 42 10 27 76 1 37 62 30 70 32 46 41 56 16 69 11 34 38 -7 -71 -54 -74 -73 -63 -23 -68 -60 -81 -2 -18 -8 -49 -26 -80 -25 -48 -51 -39 -24 -33 -45 -53 0
19 6 47 60 73 52 74 54 28 9 70 15 51 18 78 42 53 79 17 57 72 75 64 40 27 1 35 -49 -50 -46 -36 -81 -30 -68 -16 -45 -20 -29 -22 -55 -8 -77 -80 -62 -25 -48 -37 -66 -24 -26 -33 -67 -11 0
57 -29 0
67 68 4 29 55 6 53 31 9 80 28 46 18 5 69 50 20 45 57 19 60 59 65 38 32 30 10 43 7 72 -40 -3 -70 -73 -22 -39 -13 -77 -37 -17 -35 -21 -74 -61 -34 -79 -81 -62 -78 -36 -16 -2 -75 -42 -64 -25 -76 -11 0
53 18 78 1 32 -61 -50 -79 -9 0
55 60 78 3 49 53 50 46 20 24 80 14 65 -2 -42 -33 -52 -63 -75 0
31 63 -33 0
62 31 77 46 78 76 10 7 3 11 65 -39 -2 -20 -45 -40 -27 -61 -63 -13 -37 -30 -53 -32 -80 0
6 43 55 61 -48 -31 -33 -75 -70 0
50 34 79 38 32 31 61 57 63 25 67 77 72 20 17 8 23 65 10 78 14 36 80 24 69 19 59 46 76 56 9 13 3 54 81 16 41 -73 -68 -18 -29 -44 -39 -37 -22 -71 -15 -27 -51 -45 -55 -6 -40 -11 -43 -12 -5 -58 -7 -42 -70 -47 -4 -49 -74 -66 -30 -2 -26 -64 -62 -35 -21 -33 -60 0
34 33 57 11 73 66 65 60 24 47 21 39 44 13 55 14 -23 -9 -75 -48 -37 -77 -78 -64 0
54 42 70 29 18 50 32 8 26 75 20 47 3 30 41 9 76 -69 -35 -61 -45 -34 -36 -23 -58 -71 -79 -19 -63 -33 0
10 11 35 9 41 52 48 72 1 66 73 58 25 53 18 55 60 77 16 61 71 64 19 56 17 14 6 20 31 29 27 80 37 12 68 -42 -23 -44 -26 -47 -8 -13 -5 -65 -59 -15 -3 -39 -57 -22 -62 -76 -33 -28 -30 -38 -32 -63 -34 -54 -70 -2 -49 -74 -21 -67 -43 -75 0
61 50 56 13 39 26 32 28 64 70 54 80 42 24 73 67 62 25 40 19 41 44 22 72 76 7 45 52 33 38 59 10 16 43 48 55 -69 -20 -3 -36 -14 -53 -71 -68 -23 -37 -4 -58 -35 -47 -21 -12 -74 -81 -5 -17 -63 -9 -34 -2 -6 -27 -11 -1 -66 -49 -18 -60 -31 -29 -65 -79 -78 -51 0
22 57 4 44 61 68 70 48 46 33 49 17 15 1 23 51 38 52 7 32 64 54 3 35 11 13 -71 -10 -36 -58 -8 -65 -12 -76 -21 -25 -37 -6 -81 -27 -50 -55 -41 -79 -26 -80 -62 -28 -60 -77 -31 -2 -75 -24 -30 0
54 81 49 65 7 33 -5 -8 -78 -51 -22 -30 -25 -26 0
51 56 77 54 52 10 24 65 28 41 -25 -43 -29 -60 -42 -50 -49 -33 0
47 43 24 15 50 64 18 69 59 36 61 62 19 68 72 23 67 2 14 35 57 71 25 10 -70 -54 -51 -55 -37 -40 -49 -17 -44 -31 -66 -9 -52 0
58 53 10 27 62 55 24 14 51 17 -22 -50 -12 -75 -3 0
15 9 39 48 38 68 64 4 57 14 69 18 23 45 80 22 40 30 59 73 26 29 36 10 -41 -75 -2 -53 -37 -54 -28 -44 -11 -58 -60 -32 -65 -17 -70 -8 -3 -42 -7 -33 0
50 37 44 25 30 16 81 14 69 51 2 36 21 66 77 40 59 27 76 29 62 13 55 7 3 48 72 24 -71 -35 -73 -41 -54 -60 -19 -22 -74 -65 -18 -49 -58 -33 -67 -47 -64 -43 -23 -46 -52 -8 -56 -39 -63 -31 -38 -5 -26 -4 -68 -34 -70 0
2 51 64 1 18 30 24 13 40 42 71 41 54 29 69 9 55 36 14 60 5 11 76 4 47 32 56 72 38 52 77 68 58 22 15 66 33 59 53 78 8 81 63 74 57 31 17 -12 -75 -35 -67 -20 -16 -79 -45 -23 -73 -49 -65 -50 -80 -6 -37 -26 -44 -46 -48 -7 -34 -27 -39 -70 -61 -62 -25 -10 -19 -28 -21 0
44 37 19 53 23 54 56 75 13 81 47 63 27 22 60 11 57 20 33 71 32 -41 -30 -66 -74 -28 -59 -55 -29 -70 -21 -78 -4 -7 -68 -8 0
79 50 47 44 19 40 76 1 48 57 14 45 33 61 11 67 42 18 68 60 -13 -75 -78 -38 -21 -12 -41 -51 -52 -77 -74 -30 -55 -43 -4 -29 -2 -15 -56 -53 -3 0
50 33 37 27 13 -46 0
21 38 78 -14 -23 0
38 19 48 46 62 34 69 23 61 78 60 70 41 11 32 49 35 8 2 51 4 50 81 47 74 63 12 53 56 55 -80 -44 -14 -79 -29 -25 -9 -65 -26 -59 -66 -1 -73 -71 -77 -17 -21 -28 -67 -43 -5 -6 -57 -72 -68 -30 -37 -31 -20 -13 -39 0
75 67 56 11 59 72 45 3 25 53 49 76 23 10 30 38 66 12 57 69 42 22 32 8 55 -70 -19 -81 -5 -68 -73 -35 -74 -40 -13 -47 -28 -41 -61 -16 -51 -79 -1 -9 -60 -4 -54 -34 -39 -20 0
31 23 54 19 -38 -78 -21 -36 -63 0
44 16 65 4 68 46 9 10 78 59 7 73 -1 -2 -14 -58 -11 -55 -60 -63 -6 -54 -72 0
55 45 6 37 50 10 34 75 24 43 23 73 74 44 4 56 76 71 53 22 59 16 18 41 57 26 33 -11 -49 -42 -66 -14 -15 -31 -12 -77 -36 -51 -28 -78 -72 -19 -52 -63 -9 -39 -79 -20 0
40 59 62 0
7 39 36 81 79 73 42 52 68 5 28 40 64 26 11 56 19 57 3 54 13 37 62 74 23 21 48 44 9 10 63 18 31 12 34 -6 -55 -1 -47 -29 -50 -78 -45 -75 -16 -17 -46 -66 -8 -30 -77 -24 -61 -32 -59 -80 -41 -43 -22 -53 -38 -35 -25 -33 -2 -20 -51 -71 0
61 66 0
65 21 80 0
39 7 56 13 2 59 54 35 16 1 6 61 81 22 38 12 40 26 30 74 57 -71 -37 -46 -55 -19 -41 -70 -52 -63 -15 -17 -75 -62 -60 -58 -76 -51 -11 -67 -5 -32 -20 -64 -29 -50 -79 -66 -33 0
71 75 61 30 76 8 2 49 43 64 20 70 34 56 11 44 57 3 -73 -33 -58 -48 -68 -22 -52 -67 -65 -28 -40 -12 -21 -69 -79 -5 -81 -18 -4 -80 0
29 45 47 63 66 -6 -36 -14 -15 -24 -32 -59 0
30 59 -24 -48 -6 -2 -51 0
58 59 63 23 11 49 55 48 18 64 57 70 25 16 77 79 32 45 14 62 54 39 -38 -75 -68 -74 -65 -37 -51 -10 -73 -81 -21 -80 -6 -67 -41 -56 -42 -61 -66 -2 -53 -28 -13 -36 0
19 48 17 49 64 46 15 44 57 59 77 25 54 61 3 13 69 28 27 34 36 60 71 70 1 51 40 -9 -23 -31 -32 -14 -55 -53 -42 -24 -50 -45 -81 -18 -35 -39 -73 -47 -4 -12 -16 -75 -66 -62 -5 -56 -58 -21 -11 0
69 63 39 21 26 75 62 23 18 51 44 46 36 38 74 27 9 12 24 61 -29 -52 -48 -70 -19 -59 -76 -3 -14 -31 -6 -73 -2 -71 -30 -64 0
58 60 24 49 46 62 51 22 59 67 4 18 75 33 28 14 76 77 8 20 35 21 3 15 52 80 71 39 25 16 37 10 5 -43 -45 -69 -50 -19 -31 -7 -81 -65 -47 -56 -32 -6 -13 -30 -70 -38 -9 -26 -48 -72 -57 -12 -78 -64 -53 -66 -34 -61 0
63 24 56 12 7 1 54 80 41 37 4 21 10 51 23 22 67 44 53 6 47 64 15 60 49 18 -39 -52 -34 -20 -74 -30 -25 -36 -57 -42 -72 -46 -55 -68 -38 -26 -70 -29 -35 -9 -48 -14 -61 0
29 47 51 68 56 7 74 -3 -57 -38 -17 -36 -52 0
20 43 62 48 31 53 41 33 36 23 19 81 77 57 35 52 72 12 50 1 34 70 79 25 -8 -18 -42 -73 -24 -40 -69 -13 -10 -22 -51 -16 -32 -65 -37 -44 -54 -58 -38 -56 -21 -61 -6 -60 -5 -78 -30 -64 -71 -68 -39 -80 -17 0
64 40 55 38 79 17 26 37 68 28 41 29 58 11 22 60 18 10 15 71 74 52 -31 -63 -34 -70 -32 -78 -3 -51 -7 -13 -65 -14 -39 -49 -69 -12 -35 -30 -1 -53 -57 -62 -67 -44 -25 0
52 72 29 74 8 17 23 26 77 73 70 56 64 4 19 2 36 79 34 20 13 21 49 80 9 60 44 11 53 42 25 39 1 32 6 12 78 67 48 71 46 7 -40 -24 -15 -54 -59 -38 -76 -30 -5 -37 -50 -14 -58 -33 -66 -43 -51 -62 -35 -69 -81 -3 -61 -65 -57 -68 -22 -63 -18 -16 -10 -28 -55 0
80 27 14 8 3 45 28 72 67 39 64 6 50 68 54 18 53 15 24 76 36 61 56 73 49 55 40 26 13 75 -52 -44 -38 -12 -46 -17 -62 -60 -66 -41 -47 -19 -7 -29 -5 -30 -57 -31 -81 -9 -58 -69 -59 -33 -42 -21 -4 -70 0
23 28 55 18 50 54 46 45 4 33 35 43 25 42 29 61 58 13 2 73 76 65 52 5 34 14 66 38 15 10 21 48 37 22 81 70 49 56 7 24 16 -51 -72 -53 -9 -19 -78 -40 -3 -63 -12 -11 -69 -1 -39 -74 -80 -79 -67 -30 -8 -57 -32 -75 -71 -41 -27 -68 -17 -31 -64 -44 -77 -20 -59 -36 -26 -62 -47 -60 0
15 46 29 69 22 16 33 23 -14 -44 -58 -10 -37 -20 -67 -55 -2 0
39 77 56 42 76 60 3 58 67 63 79 50 51 28 26 27 75 6 47 7 46 78 65 31 4 68 25 5 21 -35 -54 -16 -71 -33 -24 -70 -69 -57 -1 -30 -38 -49 -62 -10 -55 -64 -17 -23 -36 -14 -15 -2 -59 -45 -29 0
76 42 68 19 51 64 53 71 59 60 73 43 2 56 54 10 14 79 32 55 34 18 70 69 78 36 40 45 21 1 -23 -49 -31 -44 -13 -4 -7 -5 -77 -65 -50 -80 -66 -30 -37 -3 -35 -27 -67 -57 -11 -62 -12 -38 -58 -25 -75 -41 -24 -48 -61 -46 0
39 22 76 69 29 19 35 23 12 17 43 -40 -27 -16 -25 -66 -68 -70 -48 -42 0
51 56 29 28 60 77 25 36 8 53 61 80 69 26 42 76 68 1 11 37 66 22 18 54 4 9 47 30 16 19 39 -81 -78 -45 -20 -71 -6 -62 -12 -67 -13 -65 -70 -41 -73 -7 -3 -15 -32 -17 -34 -59 -52 -64 -48 -44 -63 -49 -35 -40 -58 -74 -33 -2 -72 -46 -57 -79 -75 0
42 72 25 51 46 67 65 28 63 69 13 48 19 35 59 36 20 26 58 78 30 70 55 61 31 56 71 37 6 17 15 23 24 18 4 52 39 73 76 9 81 -8 -27 -1 -40 -34 -49 -5 -62 -57 -44 -32 -43 -2 -3 -22 -38 -53 -77 -60 -29 -10 -21 -64 -54 -79 -47 -16 -41 -7 -66 -12 -33 -45 -74 -80 -14 -75 -50 -11 0
77 54 21 65 31 36 28 24 30 32 9 35 78 43 34 19 57 44 18 27 33 22 42 15 -8 -37 -58 -13 -23 -45 -39 -80 -17 -29 -40 -72 -59 -67 -52 -75 -12 -53 -63 -2 -66 -1 -61 -68 -56 -46 -62 -47 -49 -71 -11 -7 0
52 20 63 7 45 22 25 19 14 1 55 43 66 35 38 78 71 26 57 5 34 -17 -64 -65 -51 -6 -42 -29 -67 -39 -50 -70 -36 -9 -72 -23 -32 -69 -75 -30 -48 -81 -8 -31 -76 -60 -40 -3 -79 -53 -18 -12 0
60 75 59 30 32 70 18 38 37 27 45 15 65 6 31 42 57 3 47 64 74 43 28 56 48 55 52 25 44 61 69 72 22 41 20 -24 -17 -23 -8 -2 -40 -29 -35 -71 -66 -67 -14 -9 -58 -77 -33 -79 -46 -51 -62 -39 -21 -11 -81 0
50 4 19 46 54 35 78 44 51 66 11 55 -56 -24 -59 -77 -70 -45 -39 -36 -18 -32 -43 -22 -60 -79 -30 -61 -20 -40 -41 -9 -80 -2 -57 -27 -14 -8 -64 -68 -72 -42 -53 0
49 53 15 23 39 50 37 73 57 75 48 51 59 74 45 81 29 65 19 35 14 8 21 -2 -3 -31 -25 -62 -52 -54 -71 -72 -40 -26 -6 -69 -55 -76 -64 -5 -61 -30 -42 -33 -47 -56 -44 -22 -17 -16 -67 -78 -58 -34 -11 -38 -24 -70 -60 0
64 38 21 74 13 55 75 63 4 31 18 53 34 73 52 68 54 24 5 3 57 58 35 78 51 67 7 61 19 17 70 72 71 12 -66 -10 -48 -20 -69 -15 -62 -79 -36 -9 -77 -56 -6 -14 -26 -43 -59 -32 -40 -1 -27 -33 -45 -44 -37 -30 -60 -39 -28 -22 -25 -47 -2 -42 -49 -23 -81 -29 -11 0
6 73 28 4 60 69 63 50 29 71 74 10 67 20 24 76 25 42 35 16 52 37 55 23 31 36 7 45 47 43 53 77 62 41 49 51 19 15 -61 -46 -8 -70 -68 -40 -11 -78 -48 -39 -18 -44 -3 -54 -9 -30 -72 -22 -17 -21 -56 -64 -26 -33 -79 -80 -12 -38 -66 -57 -1 -34 -5 -81 -13 -27 -75 -59 -32 0
63 73 37 74 36 10 12 32 8 27 79 70 68 7 69 5 17 52 23 20 14 -4 -59 -66 -78 -28 -76 -26 -30 -46 -53 -34 -64 -56 -49 -40 -72 -33 -58 -16 -62 -13 -75 0
70 43 54 79 41 11 47 58 32 49 53 62 23 45 36 46 81 18 65 48 75 76 57 69 55 4 21 51 37 -10 -33 -72 -39 -5 -74 -38 -71 -64 -73 -56 -14 -12 -66 -2 -13 -31 -9 -35 -1 -60 -3 0
44 69 10 58 71 42 62 65 24 61 51 9 57 31 37 47 33 17 79 16 30 -73 -32 -40 -66 -55 -43 -18 -21 -6 -70 -7 -76 -4 -77 -39 -26 -35 -46 -50 -20 0
20 23 50 74 68 48 17 80 15 54 24 67 38 32 11 56 40 73 52 44 34 19 18 53 47 78 46 35 29 62 30 70 36 65 60 66 43 -25 -12 -21 -77 -2 -27 -69 -5 -64 -39 -76 -37 -7 -57 -8 -14 -9 -6 -3 -16 -1 0
40 37 16 12 51 70 22 63 29 6 21 76 79 64 31 81 25 78 48 50 10 2 71 7 4 32 46 57 39 19 52 24 56 -67 -3 -59 -14 -47 -74 -75 -30 -45 -18 -53 -33 -35 -5 -77 -73 -62 -66 -41 -28 -58 -55 0
69 61 66 37 7 5 74 68 57 59 64 71 17 32 53 35 44 76 3 27 45 63 67 79 49 6 -4 -11 -40 -24 -50 -2 -65 -46 -1 -62 -15 -72 -13 -43 -70 -81 -55 -21 -42 -56 -47 -75 -16 -54 -26 -22 -25 0
76 17 51 72 70 34 39 49 43 67 6 59 48 21 32 56 37 71 7 63 66 52 61 26 77 79 28 -53 -38 -69 -68 -35 -10 -22 -3 -36 -65 -14 -57 -9 -16 -75 -64 -27 -13 -25 -12 -54 -8 -62 -81 -80 -40 -74 -60 -4 -31 -29 -24 -78 -55 -41 0
52 4 38 60 26 29 65 55 -36 -79 -15 -9 -11 -45 -25 -33 0
65 55 40 42 58 62 15 17 4 76 63 12 27 29 11 22 44 24 78 16 66 6 26 39 72 45 10 77 68 70 50 36 7 35 -73 -81 -33 -67 -56 -47 -38 -71 -34 -80 -13 -52 -30 -48 -46 -1 -8 -37 -69 -60 -64 -54 -49 -20 -2 -61 -28 -32 -21 -74 -51 -31 -53 -43 -18 0
63 67 68 26 6 25 13 32 36 35 42 11 66 59 2 79 29 52 12 19 15 48 74 47 34 -70 -60 -7 -78 -53 -81 -65 -14 -18 -76 -46 -27 -72 -75 -51 -39 -61 -37 -23 -5 -62 -41 -3 -64 -56 -16 0
58 59 77 43 78 70 26 15 49 57 -6 -23 -35 -56 -45 -13 -64 -12 -5 -39 -25 0
79 66 5 28 34 70 77 47 41 49 37 52 40 60 23 51 36 43 21 2 8 38 -9 -20 -12 -81 -24 -71 -29 -7 -48 -44 0
67 6 38 31 71 3 50 64 19 40 16 1 23 75 61 58 8 54 73 62 15 63 36 37 22 42 53 77 32 -10 -43 -65 -70 -17 -72 -51 -30 -68 -79 -29 -26 -55 -41 -57 -2 -7 -24 -78 -11 -33 -12 -35 -25 -21 -14 -18 -28 -59 -34 -66 -74 -46 -81 -39 -48 -47 -9 -56 -80 -49 0
69 10 34 77 17 32 62 5 43 80 19 51 28 81 38 52 37 55 -1 -4 -59 -47 -73 -39 -71 -45 -18 -66 -40 -46 -6 -27 0
50 1 41 13 47 33 55 17 27 21 54 60 20 44 26 78 56 75 76 28 58 9 19 77 8 45 29 31 67 24 25 15 49 74 72 61 -40 -71 -62 -53 -36 -43 -14 -4 -79 -22 -34 -2 -42 -63 -48 -30 -59 -6 -35 -81 -80 -70 -39 -3 -18 -38 -64 -69 -73 -16 0
53 28 59 25 70 10 71 1 77 64 63 33 44 67 26 80 43 -36 -3 -58 -72 -20 -18 -21 -74 -2 -19 -16 -9 -65 -34 -39 -17 -31 -45 -38 0
13 41 48 3 80 52 24 1 53 81 45 78 21 2 79 47 64 54 26 67 75 30 20 14 74 -42 -68 -77 -23 -11 -4 -19 -31 -12 -51 -22 -9 -8 -5 -70 -38 -65 -71 -35 -25 -62 -72 -32 -39 -17 -6 -59 0
6 77 11 80 64 12 47 67 36 63 65 68 79 75 1 76 32 34 38 69 39 10 -48 -17 -26 -58 -50 -14 -61 -22 -28 -74 -81 -51 -8 -20 -53 -44 -24 -59 -73 -57 -37 -4 -23 -66 -41 -43 -3 -35 -60 -40 -29 -78 -54 -31 -15 -49 -2 -13 -30 0
77 4 30 69 63 51 81 58 39 12 71 78 36 18 43 -9 -32 -79 -66 -60 -33 -16 -67 -3 -44 -53 -2 -15 -1 -70 -27 -11 -28 0
8 -19 -44 -29 -65 0
54 16 6 41 30 72 32 81 43 79 64 2 1 39 62 22 59 57 15 34 50 33 31 76 52 70 24 47 69 20 42 49 48 12 60 73 28 56 14 67 61 45 -29 -38 -5 -58 -55 -27 -63 -9 -25 -17 -10 -40 -65 -7 -21 -3 -36 -44 -23 -18 -74 -53 -66 -26 -37 -78 -75 -8 -11 -68 -51 -19 -4 -71 -35 -77 0
61 38 16 29 8 60 35 47 18 2 42 3 50 76 45 10 11 80 -20 -68 -33 -52 -39 -7 -64 -34 0
22 35 38 29 51 8 43 32 -57 -18 -71 -10 -16 -52 -58 -59 -72 -55 -81 0
40 36 12 42 75 44 57 8 64 49 76 23 65 37 10 6 -17 -79 -16 -18 -30 -56 -50 -43 -1 -19 -5 -77 -35 -39 -62 -29 -15 -67 -22 -52 -48 -73 -9 -61 -72 0
26 8 15 47 58 44 5 41 76 78 23 27 34 62 74 48 2 70 24 45 3 60 12 20 52 64 9 1 18 61 46 16 4 -39 -38 -21 -29 -36 -69 -7 -66 -73 -65 -42 -25 -51 -14 -72 -77 -10 -56 -6 -81 -43 -22 -75 -32 -67 -53 -59 -13 -28 -79 -33 -30 -31 -63 -17 -50 -11 -49 -19 -80 -37 -57 0
51 28 32 37 48 56 7 6 42 -49 -13 -14 -44 -78 -20 -60 -34 -29 -15 -66 -17 -46 -69 -59 -54 0
32 36 54 79 31 20 76 58 44 35 -10 -77 -57 -2 -62 -19 -53 -49 -26 -42 -75 -17 0
29 36 48 11 35 39 19 72 54 61 6 21 52 44 68 12 55 81 58 37 53 34 76 57 63 24 47 9 8 3 51 80 -27 -40 -25 -16 -42 -15 -71 -1 -10 -17 -56 -65 -67 -26 -75 -32 -23 -79 -73 -74 -62 -28 -66 -22 -70 -14 0
32 1 70 17 69 4 47 50 36 72 51 2 -42 -34 -77 -79 -24 -26 -14 -49 -56 -52 -61 -25 -75 -33 -71 -5 -44 -11 -29 -37 -23 0
71 10 24 22 48 49 25 80 31 6 52 79 47 77 9 3 50 18 66 41 59 11 29 -8 -2 -27 -55 -12 -78 -56 -73 -70 -67 -20 -57 -17 -38 -76 -43 -60 -14 -23 -5 -13 -7 -51 -62 -53 -65 -16 -54 -75 -58 -40 -44 -35 -68 -19 -64 -33 -74 -1 -69 -63 0
12 32 56 61 37 53 49 63 38 6 75 22 25 11 31 -59 -23 -64 -8 -44 -10 -39 -67 -68 -5 -48 -17 -13 -74 -28 -62 -51 -66 -35 0
37 32 20 5 73 75 33 34 50 81 16 77 11 7 67 80 46 69 38 79 26 64 -68 -57 -12 -66 -27 -47 -42 -54 -15 -43 -52 -8 -45 -31 -61 -21 -25 -36 -30 -1 -71 -76 -40 -4 -35 -62 -2 -60 0
68 38 15 26 53 16 5 20 28 3 54 51 6 22 81 75 -19 -77 -27 -65 -41 -8 -72 -23 -79 -73 -63 -46 0
75 25 -26 -80 -78 -69 0
70 24 29 57 -75 -72 -81 0
63 7 6 73 81 43 34 60 70 11 75 29 23 15 -3 -13 -54 -77 -10 -28 0
15 46 78 13 24 26 58 12 6 59 64 21 14 62 79 23 -5 -72 -35 -57 -70 -51 -61 -40 -28 -25 -44 -33 -69 -38 -8 -73 -54 -55 -11 -63 -76 0
62 2 64 11 69 3 21 72 70 50 16 81 71 13 29 5 34 73 42 65 54 38 1 14 39 23 58 49 44 32 25 12 66 74 36 18 68 -27 -46 -43 -24 -77 -17 -52 -7 -76 -35 -41 -20 -56 -57 -51 -22 -33 -19 -30 -63 -45 -79 -61 -31 -48 -78 -4 -8 -80 -60 0
62 67 38 51 57 16 45 34 9 32 43 78 12 66 75 22 17 2 55 50 29 -15 -35 -37 -40 -1 -52 -60 -20 -47 -77 -5 -46 -18 -19 -63 -26 -70 -68 -24 -54 -8 -25 -64 -6 -71 -74 -48 -81 0
11 12 81 80 14 42 58 3 17 18 20 31 39 26 73 60 9 49 59 29 33 37 50 62 36 41 32 -16 -78 -75 -13 -43 -55 -35 -28 -23 -27 -45 -30 -1 -76 -79 -40 -5 -15 -68 -61 -44 -47 -4 -74 0
8 66 72 11 56 73 25 2 10 3 57 39 70 7 12 23 77 17 43 48 35 80 29 18 -32 -16 -55 -81 -60 -4 -67 -47 -20 -51 -34 -33 -58 -65 -78 -54 -76 -68 -1 -53 -49 -69 -21 -63 -19 -74 -28 -5 -42 -24 -45 -75 -71 -52 0
45 41 68 74 54 57 14 6 18 72 50 38 76 29 59 42 36 -67 -25 -73 -46 -5 -81 -61 -19 -49 -32 -11 0
10 28 79 52 73 -21 -64 -70 -75 -16 -3 -45 -76 -17 0
24 57 66 2 62 69 32 70 71 39 28 65 73 27 78 61 46 55 11 18 68 63 75 76 45 22 67 51 -23 -38 -6 -58 -21 -72 -79 -36 -7 -13 -8 -37 -56 -41 -14 -48 -81 -50 -31 -10 0
54 47 41 30 1 43 26 65 45 44 58 80 57 9 15 6 51 32 2 60 38 61 8 50 20 36 25 76 -55 -81 -35 -59 -49 -42 -31 -71 -27 -77 -66 -33 -14 -3 -12 -24 -52 -4 -67 -75 -22 -64 -7 -21 -53 -70 -48 -29 0
24 62 79 30 20 32 72 28 76 41 33 15 5 55 49 44 43 81 35 71 11 27 39 50 21 29 -22 -31 -54 -4 -38 -59 -64 -66 -75 -34 -61 -46 -19 0
21 27 81 23 60 -45 -32 -63 -52 -57 -42 -53 0
71 0
18 77 25 -61 -16 0
2 56 50 27 47 21 11 44 70 40 65 -59 -36 -34 -72 -79 -68 -74 -49 -38 -29 -58 -48 -57 -3 -19 0
80 2 36 66 22 -23 -79 -17 -65 -21 -70 -75 -51 0
3 81 15 79 23 36 62 58 22 6 80 7 65 59 74 55 28 42 49 5 66 8 20 54 67 76 33 53 52 32 48 -44 -1 -50 -75 -40 -38 -16 -4 -51 -41 -69 -11 -2 -14 -21 -26 -37 -71 -63 -19 -17 -9 -34 -25 -30 0
21 43 76 4 66 59 18 32 51 13 11 71 47 70 26 31 16 28 81 8 25 73 57 37 80 75 48 77 42 22 6 10 54 -60 -24 -3 -78 -36 -63 -30 -19 -40 -72 -53 -74 -29 -17 -12 -5 -27 -7 -64 -45 -9 -41 -55 -67 -33 -56 -46 -38 -23 -2 -35 -34 -65 -14 -58 -44 -52 -62 -68 0
66 6 52 55 71 48 50 32 51 27 13 12 49 64 36 46 73 58 19 41 25 14 40 79 15 44 57 62 22 76 63 68 24 61 37 53 81 77 28 20 29 -65 -39 -4 -8 -74 -35 -38 -75 -56 -10 -78 -70 -54 -16 -67 -59 -5 -18 -17 -1 -3 -47 -72 -26 -34 -21 -7 -69 -31 -33 -60 -45 -9 -30 0
67 68 47 29 18 58 30 60 44 25 26 38 -31 -50 -49 -78 -76 -8 -64 -40 -27 0
38 45 63 78 39 76 62 61 70 80 68 40 29 47 57 81 -48 -9 -54 -72 -28 -14 -46 -41 -66 -32 0
53 -34 -33 -37 0
65 59 78 5 8 14 43 30 67 35 31 15 24 19 37 44 18 40 10 32 58 52 49 45 13 33 57 73 72 71 56 51 75 74 12 42 68 21 -1 -70 -54 -34 -20 -48 -63 -17 -53 -7 -80 -79 -4 -16 -55 -69 -64 -66 -23 -38 -39 -6 -47 -26 -28 -27 -60 -77 -76 -46 -3 -41 -29 -62 -22 -50 -36 -9 0
-33 -80 -22 0
75 60 41 77 33 55 50 19 -43 -25 -37 -63 -24 -12 -5 -58 -59 0
16 37 80 70 20 50 36 73 2 32 51 60 56 9 35 64 39 24 74 30 62 29 15 69 10 31 13 76 28 78 46 55 -71 -81 -63 -18 -61 -54 -49 -68 -44 -57 -79 -34 -14 -7 -1 -66 -42 -26 -12 -3 -17 -27 0
44 35 55 23 49 57 1 74 51 73 52 -17 -22 -53 -12 -61 -64 -7 -39 -34 -21 -58 -11 -26 0
61 8 5 40 75 26 21 70 10 81 24 63 56 48 72 11 73 66 67 68 27 78 30 77 20 76 22 28 53 1 52 44 51 71 80 14 34 3 6 -15 -62 -59 -38 -33 -46 -57 -55 -37 -79 -64 -47 -13 -54 -9 -31 -49 -65 -18 -35 -36 -45 -41 -58 -2 -25 -42 -69 -23 0
40 13 14 57 2 81 20 80 26 49 6 50 46 22 70 61 10 63 66 30 76 44 -36 -21 -12 -74 -27 -24 -35 -29 -9 -51 -33 -38 0
42 6 66 1 47 36 70 -80 -74 -19 -31 -12 -20 -28 -81 -48 0
24 21 22 51 56 34 68 50 48 20 70 17 -66 -25 -35 -76 -27 -78 -57 -80 -1 -59 -46 -74 -36 -55 0
36 21 8 44 20 24 70 80 1 61 69 9 55 25 3 5 12 62 56 13 75 -51 -79 -11 -65 -33 -42 -16 -46 -2 -52 -32 -17 -73 -64 -72 -4 -58 -31 -39 -10 -67 -23 -15 0
36 60 42 15 41 52 81 4 55 30 56 31 80 58 54 21 37 71 13 28 17 68 63 -2 -72 -43 -45 -53 -69 -67 -44 -10 -74 -34 -64 -61 0
15 58 78 75 27 69 80 9 4 48 12 36 21 2 57 37 50 19 20 8 41 7 55 31 -54 -66 -73 -25 -46 -11 -43 -40 -39 -10 -47 -16 -63 -23 -34 -64 -62 -53 -71 -35 -29 -14 -5 -32 -45 -76 -13 -56 -77 -18 -60 -61 0
59 23 67 16 4 81 12 34 73 11 7 6 28 46 66 27 76 20 49 52 40 29 42 71 47 21 77 58 -62 -54 -2 -56 -36 -44 -41 -26 -19 -43 -25 -17 -32 -72 -63 -48 -22 -53 -8 -39 -30 -14 -69 -51 -78 -80 -75 -15 -35 -13 -9 -79 -10 -50 -37 -65 -74 -60 0
19 37 2 10 77 65 21 30 27 -16 -5 -48 -56 -36 -80 -15 -40 -38 -54 -1 -79 -81 -24 -12 -47 0
44 53 30 10 -77 -81 -68 -65 -64 -80 -50 -19 0
35 25 28 61 45 64 16 31 3 27 30 51 32 23 43 49 20 34 72 69 7 59 11 79 65 10 5 12 54 24 17 19 60 70 -67 -77 -38 -13 -81 -47 -74 -68 -44 -41 -55 -37 -2 -53 -62 -18 -63 -1 -29 -52 -78 -75 -57 -36 -33 -42 -9 -50 -14 -66 -6 -40 -73 -80 -48 -56 0
12 10 33 30 66 18 11 56 79 5 64 57 68 40 43 76 39 55 23 44 77 -36 -13 -48 -72 -73 -29 -74 -22 -24 -69 -37 -59 -70 -46 -31 -62 -1 -45 -51 -20 -16 -54 -71 0
66 28 15 42 81 75 70 4 27 22 17 5 23 30 73 -67 -55 -29 -64 -78 -34 -31 -69 -6 -10 -60 -63 -76 -68 -38 -21 -53 -74 -2 0
77 41 57 26 10 43 69 17 12 56 51 50 7 31 -54 -59 -52 -60 -42 -24 -20 -33 -27 -30 -3 -6 -68 0
41 43 64 7 4 16 66 39 68 20 2 81 57 46 47 71 62 70 74 29 32 3 67 44 12 56 1 -37 -33 -38 -8 -25 -27 -42 -49 -80 -5 -23 -48 -60 -13 -36 -52 -24 -45 -75 -79 -11 -35 -6 -61 -28 -73 -76 -22 -40 -77 0
32 10 59 38 28 23 14 55 68 13 15 42 66 53 58 4 9 6 77 30 36 5 67 72 25 54 -65 -70 -63 -44 -2 -11 -78 -62 -22 -39 -52 -56 -34 -73 -12 -19 -49 -33 -60 -61 -45 -26 -20 -76 -71 -7 0
6 32 77 17 45 79 59 51 2 71 5 80 58 60 22 30 19 68 20 75 15 56 -21 -14 -70 -65 -42 -29 -1 -13 -28 -10 -50 -57 -34 -63 -25 -40 -27 -49 -62 -4 -18 0
40 3 76 42 77 41 64 81 24 43 70 51 45 54 67 31 18 22 50 55 74 16 1 65 68 12 37 7 -38 -35 -52 -25 -27 -59 -20 -23 -56 -75 -8 -46 -11 -14 -39 -60 -63 -21 -44 -6 -72 -30 -4 0
77 15 37 59 30 43 10 18 5 8 72 40 17 -53 -56 -76 -79 -60 -74 -51 -34 -71 -61 -39 -23 -63 0
51 40 11 13 23 74 60 80 45 77 -69 -37 -16 -50 -14 -55 0
76 34 21 38 11 22 3 35 52 12 37 80 46 39 18 51 6 31 2 58 10 59 79 81 49 62 77 68 13 -47 -75 -36 -7 -41 -26 -43 -4 -24 -44 -72 -40 -23 -78 -5 -71 -1 -63 -45 -53 -9 0
47 21 3 8 44 74 11 59 71 31 80 14 34 70 -60 -5 -64 -58 -6 -33 -79 -20 -54 -32 -18 -37 -50 0
67 27 62 16 35 42 56 77 66 60 44 22 2 14 3 54 31 58 43 -7 -75 -41 -21 -65 -40 -53 -17 -13 -39 -8 -18 -26 -5 -45 0
70 42 38 76 3 27 17 75 80 57 81 77 7 60 61 -33 -67 -31 -55 -19 -43 -71 -10 -9 -25 -74 -54 -12 -21 -69 -6 -11 -14 0
47 5 74 56 12 -71 -37 -39 -19 -61 -21 -22 -23 -2 -24 0
21 35 8 4 43 13 14 5 32 76 34 23 19 68 51 11 77 78 31 69 45 56 49 59 70 10 81 50 74 55 29 60 46 12 42 28 33 72 53 15 9 41 58 75 25 -24 -65 -26 -62 -38 -67 -40 -44 -47 -1 -64 -3 -16 -30 -61 -7 -48 -73 -66 -63 -79 -36 -39 -80 -6 -27 -71 -52 -37 -2 -22 -54 -18 0
80 30 5 54 -1 -77 -66 -74 -13 -50 -71 -43 -29 0
32 2 12 46 49 54 22 13 6 8 77 48 75 20 23 69 51 37 9 3 47 70 36 -52 -39 -4 -59 -79 -78 -80 -45 -74 -55 -7 -62 -27 -42 0
64 18 42 11 16 38 22 80 9 3 10 23 12 17 65 77 55 36 60 44 45 4 29 24 40 75 15 59 67 61 47 32 13 34 -57 -53 -5 -1 -20 -51 -26 -68 -76 -37 -7 -31 -69 -70 -62 -27 -2 -39 -78 -43 -25 -28 -63 -49 -58 -6 -74 -48 -14 -71 -8 -50 -21 -41 -52 -46 -56 -66 -72 -30 -19 0
36 53 68 59 69 78 10 48 31 2 6 72 81 38 35 28 64 30 47 8 79 12 -55 -14 -74 -11 -23 -65 -60 -34 -18 -50 -66 -3 -44 -40 -49 -75 -71 -56 -45 -39 -37 -54 -24 -70 -27 -41 0
16 56 37 10 30 8 19 17 45 43 58 57 79 47 61 33 50 26 48 49 78 22 70 66 27 63 20 36 65 35 60 12 74 7 21 54 59 68 46 18 28 51 23 -64 -41 -4 -14 -69 -53 -77 -25 -62 -52 -40 -42 -3 -75 -72 -73 -38 -39 -15 -81 -76 -44 -32 -2 -55 -34 -11 -67 -13 -5 -24 -9 -1 0
43 15 46 10 5 -8 -25 -68 -54 -20 -14 -52 -45 -62 -56 -11 0
42 60 43 44 69 72 54 61 75 55 28 18 3 30 10 59 47 37 66 64 12 14 16 45 9 65 25 36 38 23 68 13 63 46 56 79 -8 -74 -6 -76 -11 -53 -29 -70 -77 -31 -78 -58 -62 -33 -1 -35 -22 -21 -52 -81 -50 -48 -4 -19 -7 -20 -39 -24 -51 -71 0
67 39 8 46 64 34 15 44 63 62 37 69 3 75 26 68 43 22 56 31 47 51 2 54 78 17 59 19 53 70 60 1 32 -29 -76 -73 -23 -71 -80 -27 -36 -61 -16 -13 -50 -77 -12 -14 -20 -21 -40 -66 -58 -65 -25 0
12 81 13 21 75 30 -10 -71 -33 -28 -38 -67 -25 -52 -22 -79 -58 0
30 24 58 28 23 34 36 33 26 12 46 25 66 4 61 8 60 16 72 -79 -77 -81 -40 -64 -18 -37 -80 -39 -41 -42 -7 -43 -13 -53 -17 -76 0
79 30 10 58 42 17 70 64 3 34 -73 -51 -71 -60 -26 -72 -81 -36 -59 -20 -2 -28 -67 0
14 61 45 32 22 39 12 50 48 31 79 63 28 1 24 2 64 47 6 51 57 76 49 80 60 23 55 36 -77 -18 -33 -54 -67 -26 -11 -4 -35 -30 -27 -46 -56 -17 -20 -68 -13 -19 -25 -38 -81 -78 -40 -72 -5 -8 -58 -7 -21 -9 -29 -69 0
77 19 27 50 80 15 4 72 30 7 67 68 78 8 60 21 45 40 79 62 6 31 43 18 76 11 63 41 65 71 33 39 61 -23 -49 -51 -54 -20 -26 -32 -36 -22 -53 -66 -14 -55 -69 -24 -44 -57 -9 -74 -37 -38 -64 -16 -28 -5 -81 -59 -52 -17 -70 0
10 22 72 34 37 60 6 76 43 40 53 19 5 13 55 65 70 51 78 39 74 52 71 24 62 9 41 31 -57 -64 -46 -11 -42 -81 -68 -35 -54 -16 -36 -44 -27 -63 -61 -20 -18 -79 -67 -4 -28 -66 -21 -38 -2 -29 -48 -45 -49 -56 -25 -73 -33 -26 -75 -69 -32 -17 -12 -15 -14 0
22 46 50 76 19 49 10 25 4 38 62 11 57 54 69 75 7 43 65 8 2 59 70 -34 -67 -6 -13 -56 -81 -21 -9 -68 -66 -73 0
20 21 52 61 44 26 75 4 47 39 28 58 43 46 79 65 70 25 54 63 29 41 59 67 23 33 69 5 2 7 45 37 80 42 64 57 18 17 -34 -81 -30 -40 -71 -31 -72 -55 -62 -24 -74 -66 -38 -35 -15 -32 -3 -10 -22 -50 -9 -8 -73 -11 -6 -53 -56 0
36 52 30 13 24 38 -54 -46 -79 -70 0
29 9 67 64 19 42 10 18 -63 -44 -60 -74 -13 -8 -14 -72 -31 -61 -57 0
22 79 11 70 39 55 56 25 57 47 29 52 -50 -32 -43 -12 -76 -53 -64 -37 0
8 16 50 29 57 58 49 72 36 48 66 17 4 1 71 78 6 52 9 54 35 7 21 51 38 79 39 34 80 64 20 70 41 5 62 76 -28 -40 -59 -69 -81 -25 -22 -67 -43 -75 -37 -44 -53 -45 -31 -15 -68 -10 -55 -63 -46 -56 -27 -12 -74 -32 -77 -23 -14 -60 -13 -61 -65 0
68 81 79 66 9 4 28 64 53 54 16 23 31 -40 -57 -70 -3 0
58 50 22 73 42 26 44 69 35 3 12 70 17 15 43 51 48 76 79 19 6 71 33 8 53 30 46 63 14 4 68 77 54 62 -29 -56 -20 -27 -65 -59 -81 -75 -66 -23 -55 -7 -39 -78 -74 -49 -40 -24 -38 -61 -10 -1 -9 -72 -41 -25 -64 -52 -21 -36 0
11 30 80 -63 -49 -58 -53 -22 -3 -35 -37 0
53 33 49 68 25 73 48 22 40 52 66 3 57 51 36 69 16 28 6 11 5 44 75 76 9 21 62 -64 -74 -79 -15 -7 -19 -20 -77 -13 -32 -43 -59 -60 -10 -23 -18 -35 -2 -58 -8 0
7 28 15 48 23 25 24 59 65 50 18 43 62 42 26 78 19 11 68 38 45 31 71 8 -33 -9 -32 -6 -44 -5 -77 -76 -34 -49 -27 -12 -81 -63 -22 -55 -60 -4 -30 -36 0
27 61 46 71 6 51 75 76 45 78 38 20 77 59 19 62 81 -80 -69 -74 -68 -40 -33 -22 -35 -2 -24 -60 -15 -56 -25 -63 -9 -5 -79 -72 -66 -65 -14 0
61 35 18 14 49 66 58 34 65 59 15 54 21 57 37 23 79 67 36 24 -19 -12 -27 -63 -31 -81 -13 -50 -39 -4 -80 -29 -41 -5 -8 -10 -3 -62 -22 -32 -47 -44 0
28 37 29 25 35 68 63 57 71 47 3 72 79 4 74 38 42 13 24 76 26 27 56 12 69 73 77 53 54 70 64 60 -44 -31 -16 -9 -39 -33 -17 -6 -19 -58 -65 -41 -20 -81 -62 -34 -40 -51 -43 -36 -78 0
68 48 50 1 58 41 59 36 18 66 10 19 29 80 47 13 35 74 22 11 69 42 3 54 70 44 78 9 62 76 16 72 -39 -79 -2 -17 -67 -38 -65 -4 -8 -24 -37 -40 -49 -52 -7 -33 -71 -81 -25 -55 -23 -56 -57 -32 -15 -31 -73 -6 -63 -61 -64 0
81 3 44 4 40 34 14 2 38 35 31 52 32 8 18 67 53 58 19 70 -60 -36 -55 -71 -72 -57 -1 -24 0
26 65 3 50 28 32 62 41 64 81 38 77 78 51 54 45 24 75 5 17 63 42 1 7 14 -80 -73 -12 -21 -46 -6 -9 -52 -34 -31 -15 -37 -19 -68 -55 -29 -35 -16 -66 -30 -56 -33 -2 -57 -8 -23 -11 -61 -22 0
60 20 79 77 -24 -18 -71 -44 -30 -48 -57 0
37 42 2 4 18 56 40 5 46 45 61 28 16 71 35 38 68 33 80 26 39 -13 -30 -9 -60 -50 -69 -52 -27 -3 -76 -19 0
15 53 7 21 57 33 31 63 38 1 36 19 65 40 46 78 -58 -43 -4 -30 -17 -64 -74 -20 -61 -12 -70 -28 -26 -59 -72 -54 -9 0
64 61 75 44 66 10 31 1 81 68 54 59 13 45 65 79 71 62 30 77 57 43 6 14 22 -34 -74 -8 -9 -17 -28 -67 -3 -40 -50 -52 -37 -27 -19 -15 -41 -5 -72 0
42 40 34 5 38 78 36 65 11 76 70 23 47 19 24 80 60 32 81 75 4 6 7 57 41 49 79 30 2 22 68 3 39 9 28 29 35 69 44 74 -15 -72 -46 -61 -21 -18 -71 -56 -27 -52 -50 -14 -51 -25 -20 -37 -48 -55 -66 -1 -31 -53 -43 -63 0
7 77 13 17 25 27 72 14 48 20 81 76 80 12 37 38 34 32 44 46 71 63 45 64 66 73 19 33 74 15 26 67 28 36 61 -68 -2 -54 -51 -60 -58 -57 -40 -47 -11 -53 -65 -8 -9 -24 -41 -49 -39 -4 -3 -16 -23 -70 -75 -35 -52 -79 -62 -5 -30 -56 -31 -22 -29 -21 -69 -10 -6 -59 -18 0
55 53 9 25 8 12 45 41 4 16 36 67 60 81 28 29 43 78 56 59 76 1 19 -44 -63 -13 -32 -35 -74 -2 -50 -15 -57 -61 -21 -70 -17 -22 0
66 6 58 27 43 76 60 1 49 28 64 75 33 63 18 70 26 2 9 47 5 15 19 30 61 -50 -62 -31 -79 -4 -35 -56 -3 -11 -52 -39 -46 -59 -68 -65 -48 -13 0
42 39 28 18 63 12 -50 -26 -54 -32 -29 -3 -45 -66 -53 0
49 70 59 1 19 29 38 2 76 61 46 7 80 37 81 22 23 34 5 52 48 78 65 6 45 67 32 77 24 3 66 -60 -10 -20 -41 -14 -75 -57 -35 -62 -79 -33 -30 -56 -50 -17 -43 -58 -15 -47 -9 -54 -69 -31 -64 -73 -36 -25 -21 -39 -63 -12 -71 -44 -26 -68 -51 0
72 32 13 22 9 81 44 68 71 49 37 60 73 -24 -54 -21 -52 -41 -80 -57 -1 -20 -48 -62 -7 -36 -5 -61 -59 -53 -70 0
79 56 57 28 26 5 25 69 -73 -81 -62 -45 -75 -63 -31 0
28 55 19 7 35 -77 -39 -50 -15 0
74 72 3 68 75 13 43 79 26 33 53 48 1 27 30 65 15 9 63 28 66 34 64 6 39 50 52 56 14 5 -78 -80 -59 -46 -44 -71 -35 -17 -45 -12 -40 -51 -32 -77 -55 -58 -81 -24 -54 -4 -47 -49 -42 -25 0
32 9 5 76 45 68 47 80 24 73 46 72 57 48 67 17 34 81 37 65 -79 -13 -70 -58 -40 -28 -42 -2 -44 -18 -64 -41 -1 -51 -78 -16 -31 -8 -29 -20 -74 0
5 77 76 42 8 38 61 58 14 59 47 64 11 49 52 1 73 27 4 6 60 18 53 68 55 57 3 54 50 28 33 -29 -80 -7 -12 -72 -75 -63 -10 -31 -69 -17 -44 -24 -22 -19 -56 -40 -51 -15 -41 -21 -26 -13 -9 -46 -74 -78 -65 -20 -23 -67 -32 -30 -45 0
16 31 49 71 47 40 64 45 38 77 66 59 13 63 37 -11 -69 -36 -17 -32 -56 -53 -76 -44 -75 -22 -61 -81 -74 0
41 77 55 20 18 52 28 36 27 21 38 71 3 16 45 19 -64 -57 -31 -66 -72 -44 -61 -75 -12 -81 -73 -56 -59 -30 -6 -67 -29 -4 0
17 73 26 22 65 24 79 21 62 47 12 18 -9 -34 -35 -32 -11 -36 -42 -33 -20 -30 -25 -41 -51 -49 -66 -67 0
16 63 3 18 25 4 50 77 66 34 42 68 49 26 44 31 43 57 73 19 62 53 72 46 6 69 -5 -12 -38 -67 -35 -41 -40 -56 -54 -24 -52 -65 -79 -28 -14 -7 -2 -15 -70 -21 -13 -51 -9 -58 -29 -8 -30 -1 -45 0
51 19 69 79 62 72 33 67 26 7 10 34 66 21 81 3 -13 -77 -35 -59 -31 -64 -38 -71 -12 -4 -5 -76 -39 -24 -63 0
4 24 49 35 27 20 52 70 5 40 42 50 6 59 12 32 38 46 22 62 56 33 11 43 25 47 74 16 77 48 23 30 51 -57 -29 -64 -65 -9 -28 -61 -79 -78 -72 -13 -63 -36 -68 -67 -17 -58 -21 -14 -44 -31 -81 -18 -45 -80 -60 -73 -37 -71 -2 -39 -15 -3 -53 -8 -69 -26 -55 -66 -75 -54 -76 -7 -41 -10 0
63 26 0
3 61 27 17 60 5 23 70 35 32 38 19 36 11 12 65 8 24 26 80 22 41 31 34 68 2 53 57 43 62 81 42 -1 -58 -59 -40 -20 -77 -72 -13 -55 -47 -56 -46 -10 -52 -76 -4 -7 -54 -37 0
24 49 28 23 27 78 75 3 35 21 40 73 59 26 54 20 42 11 50 36 64 -81 -1 -80 -60 -51 -68 -22 -52 -67 -63 -79 -34 -44 -43 -9 0
39 1 -55 -35 0
42 21 53 7 18 20 14 26 50 35 55 30 46 3 29 77 76 47 10 5 65 9 -22 -25 -72 -78 -23 -56 -49 -38 -41 -15 -17 -12 -74 -51 -39 -81 -64 -36 -54 -80 -28 -1 -67 -70 -6 -34 0
35 81 45 61 32 36 38 27 65 46 37 13 23 34 9 62 3 7 72 52 18 33 11 60 74 15 70 48 44 54 16 2 1 50 31 14 49 8 41 57 43 -28 -67 -19 -58 -66 -24 -75 -29 -59 -25 -56 -12 -76 -53 -17 -51 -80 -10 -6 -4 -26 -21 -40 -69 -5 -64 -20 -68 -39 -22 -78 -42 -79 0
-19 -20 -8 0
78 80 34 40 21 41 53 10 14 51 43 9 52 48 59 45 69 57 71 -60 -20 -23 -24 -16 -70 -44 -33 -63 -13 -36 -64 -62 -29 -73 -12 0
76 71 7 40 59 73 57 26 80 5 49 64 41 -44 -34 -9 -45 -31 -70 -81 -33 -39 -67 -13 -11 -17 -15 0
23 46 27 77 16 25 18 70 49 39 62 58 3 15 75 7 68 19 9 31 10 2 12 69 48 30 13 74 66 71 45 61 5 22 24 80 67 28 44 6 32 37 4 42 -57 -56 -64 -65 -54 -41 -51 -47 -26 -59 -17 -55 -78 -38 -11 -33 -8 -63 -60 -43 -76 -72 -21 -14 -73 -40 -50 -36 -20 -52 0
21 13 10 78 53 27 70 51 39 25 15 36 67 61 81 31 35 3 11 1 60 50 38 69 79 18 40 54 6 14 4 44 37 17 33 42 63 41 58 76 75 -57 -73 -71 -80 -66 -28 -68 -32 -48 -9 -23 -16 -26 -46 -74 -30 -34 -52 -45 -29 -43 -8 -65 -64 -20 -55 -47 -2 -22 -77 0
72 71 38 70 58 41 73 13 62 49 27 79 1 33 -19 -12 -10 -59 -53 -3 -36 -4 -44 -57 0
16 37 38 67 7 28 50 77 35 63 32 11 34 69 46 60 30 49 23 78 24 45 -59 -48 -72 -8 -71 -79 -20 -68 -12 -26 -6 -22 -75 -54 -73 -66 0
55 12 61 35 24 30 40 78 77 54 37 64 6 5 13 57 18 19 16 62 20 -76 -8 -15 -49 -50 -3 -63 -36 -58 -53 -42 -45 -51 -44 -33 -66 -7 -28 -9 -47 -81 -22 0
47 40 52 55 73 76 32 30 15 24 53 33 38 -41 -54 -56 -31 -19 -61 -45 -20 -50 -42 -72 -58 -17 -46 -71 -44 -29 0
28 50 55 80 41 56 75 26 71 24 64 13 43 -52 -38 -60 -72 -81 -21 -73 -12 -8 -45 -16 -66 -6 -5 -18 -17 -69 -35 0
49 56 76 19 55 15 43 45 67 66 70 37 7 62 40 81 75 41 54 30 25 13 18 20 78 50 42 58 6 77 59 74 2 44 60 -47 -35 -12 -48 -24 -51 -4 -11 -28 -38 -39 -53 -71 -8 -14 -65 -61 -22 -72 -31 -79 -9 -5 -27 -34 0
47 15 40 36 7 58 2 35 74 -62 -26 -18 -71 -79 -44 -20 -57 0
22 55 37 60 26 27 77 67 68 3 36 58 64 66 31 28 5 76 52 45 30 32 46 -42 -1 -69 -39 -8 -25 -6 -13 -40 -81 -75 -16 -2 -43 -48 -74 -70 -54 -72 -65 -23 -9 -34 -29 -15 -62 0
19 18 3 77 7 51 6 37 13 71 22 25 62 63 28 56 -20 -73 -29 -41 -67 -50 -36 -17 -74 -52 -5 -1 -4 -16 0
60 49 32 28 64 56 27 35 26 19 77 74 58 42 72 36 34 38 18 -78 -41 -14 -22 -80 -68 -9 -46 -51 -40 -44 -73 -47 -6 -62 -31 -33 -79 -52 0
28 76 71 52 80 1 54 69 33 37 12 -63 -13 -43 -9 -70 -49 -10 -67 -24 -36 -65 -51 -68 0
63 37 32 26 22 42 43 9 27 31 71 11 68 13 50 15 80 73 2 49 45 56 74 19 59 8 28 77 34 70 62 72 55 33 38 -24 -17 -16 -3 -14 -52 -44 -10 -60 -40 -5 -58 -7 -41 -53 -61 -46 -23 -76 -12 -67 -57 -1 -64 -18 -47 -81 -78 -39 0
73 51 59 76 3 40 23 60 9 54 39 70 79 63 -43 -14 -16 -11 -17 -26 -28 -50 -31 -77 -55 -12 -18 -81 0
34 69 58 71 7 13 16 31 62 11 -40 -75 -59 -2 -80 -10 -33 -20 -76 -1 -67 -56 0
17 22 0
10 26 42 19 47 5 77 13 18 21 54 45 49 70 8 11 1 69 -43 -39 -22 -53 -30 -14 -63 -41 -75 -50 -35 -23 -60 -7 -62 -79 -48 -61 -32 -76 -57 0
10 39 18 38 75 57 73 34 50 -1 -21 -20 -58 -53 -15 -36 -46 -55 -13 -2 -22 -17 -29 0
11 20 -59 -14 0
11 46 42 60 2 52 63 45 26 50 35 22 18 77 7 14 24 71 32 55 48 53 34 57 67 9 20 13 -70 -8 -3 -81 -39 -37 -79 -80 -19 -78 -75 -64 -76 -5 -16 -38 -47 -41 -30 -68 -65 -58 -51 -6 -56 -4 -66 -59 -28 -69 -29 -12 -21 -36 0
20 53 11 28 24 67 73 18 77 72 10 64 43 -6 -12 -48 -71 -61 -55 -5 -15 -59 0
8 32 11 77 37 71 2 1 44 51 43 21 75 33 4 49 57 28 72 78 68 40 64 61 54 79 -48 -80 -6 -9 -81 -45 -66 -50 -24 -74 -59 -3 -17 -29 -19 -10 -31 -60 -13 -5 -70 -55 -18 -35 -16 -65 -42 -23 -58 -20 -36 -63 0
12 4 32 53 31 27 42 37 58 20 56 1 50 62 11 26 68 59 61 38 72 41 76 34 43 8 29 48 24 55 49 64 39 57 69 16 36 19 -74 -75 -77 -65 -47 -7 -44 -80 -54 -51 -35 -25 -3 -79 -22 -10 -66 -71 -18 -33 -60 -17 -28 -78 -15 -52 -46 -23 -45 -40 0
58 10 66 45 55 81 65 30 60 -25 -50 -79 -15 -13 -22 -26 0
1 34 79 22 40 13 45 56 27 24 4 18 9 52 47 30 50 33 65 26 77 51 74 43 67 59 53 16 6 69 55 15 23 46 3 35 -32 -8 -63 -10 -66 -19 -80 -71 -60 -21 -42 -20 -54 -31 -12 -76 -11 -57 -73 -48 -68 -81 -44 -36 -7 -61 -2 -38 -5 -14 0
23 28 50 26 38 25 51 55 69 61 39 76 -29 -58 -10 -56 -27 -59 -2 -19 -45 -70 -5 0
15 45 7 79 50 42 66 36 77 31 12 11 34 44 27 22 80 5 68 37 47 75 56 76 20 41 10 54 39 65 -28 -38 -24 -62 -58 -48 -59 -49 -78 -8 -13 -64 -33 -2 -17 -35 -14 -30 -60 -57 -55 -9 -46 -21 -72 -18 -43 -52 -70 0
12 31 42 53 23 30 77 45 27 7 49 71 79 67 21 6 40 56 80 15 55 41 -69 -59 -51 -44 -34 -78 -72 -57 -70 -54 -10 -14 -65 -16 -20 -60 -32 -68 -76 -46 -8 -81 0
28 25 24 38 11 32 47 37 60 23 50 44 75 49 34 29 66 43 45 17 41 73 13 20 52 40 57 30 64 58 39 21 55 69 42 3 14 74 26 36 63 -22 -77 -19 -59 -12 -79 -62 -61 -65 -9 -16 -48 -18 -27 -6 -80 -51 -78 -5 -81 -31 -67 -7 -15 -46 -54 -8 -2 -76 -71 -68 -33 -35 -10 -72 0
7 -68 -69 -79 0
63 36 65 6 47 81 -1 -2 -60 -71 -43 -45 -49 -66 -11 0
11 70 67 2 23 65 1 62 15 71 69 16 59 61 79 74 10 -6 -45 -53 -14 -28 -51 -81 -27 -80 -46 -34 -66 -32 -76 -78 0
31 72 63 14 27 76 58 66 56 10 38 17 16 7 8 59 18 62 51 37 48 50 71 81 78 23 20 19 15 39 45 2 -28 -11 -32 -70 -24 -54 -80 -68 -46 -64 -29 -4 -26 -1 -41 -3 -74 -61 -21 -77 -43 -6 -35 -73 -57 -49 -42 -5 -65 -12 -34 -33 -67 -9 -69 -22 -36 -52 0
22 73 72 -67 -29 -39 -66 -64 0
19 16 50 58 5 54 77 23 75 -39 -74 0
59 57 47 69 51 11 70 39 6 36 75 29 5 -68 -28 -23 -14 -21 -18 -16 -67 -12 -78 -10 -45 -34 -1 0
26 19 22 36 27 70 31 20 42 12 11 5 25 28 -37 -41 -71 -15 -14 -3 -61 -77 -55 -64 -34 -67 -56 -38 -45 0
53 64 37 68 52 81 80 39 16 38 13 70 69 29 30 20 72 78 -79 -11 -73 -4 -35 -75 -9 -66 -50 -77 -51 -31 -17 -74 -41 -44 -24 -5 0
80 56 60 49 19 59 52 1 33 25 31 76 22 26 11 68 65 16 24 58 41 55 78 13 29 6 54 64 67 74 30 23 77 -81 -27 -69 -45 -48 -20 -75 -3 -34 -4 -17 -63 -10 -32 -37 -43 -5 -70 -14 -61 -47 -7 -15 -38 -57 -44 -66 -42 -2 -28 -72 -12 -50 -36 -79 0
24 77 13 55 65 19 20 18 34 6 81 22 75 61 57 29 62 59 35 50 73 74 32 51 68 70 72 58 64 7 31 53 33 67 -16 -17 -12 -63 -48 -2 -38 -45 -49 -1 -78 -60 -36 -66 -39 -80 -9 -47 -37 -42 -30 -23 -44 -71 -54 -56 -5 -46 -11 -76 -25 -69 -27 -8 -10 -79 -26 -4 -3 -52 -43 -14 -15 -21 0
64 58 25 33 1 -6 -78 -49 -30 -15 -73 -21 -9 -80 -26 -71 -53 -40 0
40 76 61 2 4 44 36 30 14 5 12 50 48 21 72 58 15 80 1 31 51 25 7 -32 -59 -39 -23 -56 -63 -62 -54 -47 -53 -46 -75 -42 -20 -35 -65 -18 -71 -24 -68 -37 -16 0
38 27 17 8 75 45 44 28 71 70 40 76 69 -43 -48 -23 -18 -12 -57 -65 -77 -54 -25 -46 -29 -47 0
-80 -60 0
5 41 59 10 28 14 61 33 74 79 26 30 35 19 68 8 15 42 23 67 40 53 60 18 37 43 64 80 27 13 69 81 3 9 65 38 1 12 31 22 11 17 -66 -32 -16 -20 -34 -72 -70 -47 -56 -24 -44 -49 -51 -62 -4 -6 -75 -7 -71 -73 -77 -76 -57 -52 -78 -36 -58 -63 -48 -50 -2 -25 0
35 68 67 79 32 -64 -49 -71 -80 -4 -30 -56 -7 -36 -12 -10 -3 0
22 75 27 14 52 48 47 56 43 31 23 71 50 55 51 13 37 9 36 30 17 46 66 45 49 18 39 79 -53 -76 -57 -12 -69 -26 -3 -80 -7 -73 -10 -63 -81 -32 -5 -61 -68 -6 -35 -38 -33 -20 0
76 15 58 32 35 80 29 52 68 44 33 -27 -62 -31 -24 -78 -22 -55 -75 -39 -65 0
32 48 21 68 64 61 39 10 45 76 56 15 -40 -2 -46 -1 -13 -60 -81 -19 -44 -77 0
69 41 28 75 19 32 36 54 18 25 26 56 29 80 40 1 2 49 21 13 38 63 11 51 4 78 60 46 -42 -45 -7 -77 -48 -8 -59 -10 -79 -72 -62 -35 -61 -55 -20 -68 -53 -30 -33 -14 -66 -65 -17 0
8 54 4 76 34 9 21 36 -1 -26 -49 -46 -53 -67 -32 -16 -50 0
39 6 35 62 16 52 57 19 29 41 7 -10 -53 -54 -45 -69 -63 -26 -9 -71 -31 -20 -77 -34 -78 -75 -73 0
65 31 13 79 61 18 14 62 37 5 41 1 12 60 44 26 8 71 25 33 28 59 73 34 49 78 57 20 19 -15 -36 -68 -16 -47 -39 -29 -17 -10 -75 -77 -35 -80 -50 -2 -21 -3 -55 -74 -48 -67 -66 -22 -53 -58 -32 -76 -30 -52 -64 -56 -81 -23 -63 -42 0
68 44 35 7 39 66 74 8 22 19 52 71 12 23 25 59 75 21 -72 -24 -45 -76 -2 -64 -40 -30 -47 -11 -60 -48 -29 -62 -69 -77 -54 -70 -53 -31 -6 -15 -78 -42 -57 -73 -33 -37 0
67 27 29 42 58 28 70 18 64 72 10 41 9 46 77 12 36 8 14 3 53 51 34 75 33 49 45 22 7 65 6 -5 -1 -32 -15 -63 -56 -62 -31 -60 -61 -73 -2 -25 -48 -50 -23 -79 -11 -19 -44 0
26 70 80 21 2 13 9 20 38 61 81 73 60 58 67 64 14 22 53 6 5 34 11 39 30 74 77 69 -12 -66 -72 -33 -59 -45 -41 -42 -52 -8 -48 -4 -54 -17 -16 -57 -71 -46 -15 -62 0
2 14 36 3 38 66 29 54 12 5 37 47 34 41 52 49 51 24 55 78 10 72 33 -69 -11 -62 -76 -6 -28 -43 -75 -53 -32 -58 -64 -20 -23 -70 -4 -13 -67 -16 -57 -68 -8 -63 -42 -61 -56 -79 -21 -31 -30 0
44 21 6 75 63 -76 -51 -13 -20 -26 -54 -38 -9 -77 -56 -81 0
4 63 49 9 39 27 11 60 33 10 51 77 5 52 54 7 61 46 20 18 31 62 57 24 14 17 71 45 48 30 75 47 65 36 70 41 8 29 81 37 79 34 -25 -6 -35 -32 -69 -78 -72 -74 -43 -22 -44 -68 -19 -13 -67 -58 -64 -12 -76 -26 -53 -1 -3 -15 -21 -59 -55 -42 -56 -16 -38 -23 -50 -66 -2 0
7 52 15 79 75 -13 -30 -28 0
31 46 68 4 27 36 71 32 9 24 37 78 44 6 34 55 69 80 5 70 62 -18 -41 -38 -61 -10 -56 -35 -23 -58 -28 -59 -48 -53 -39 -65 -17 -54 -47 -74 -14 -25 -66 -30 -43 -64 -76 -51 -72 -57 0
1 16 19 32 74 45 76 11 58 12 43 47 50 28 21 8 17 29 -2 -57 -79 -24 -22 -52 -33 -23 -51 -80 -36 -70 -59 -3 -4 -39 -71 -6 -81 -31 0
70 48 46 31 45 71 56 59 73 52 47 2 67 32 49 -4 -25 -16 -22 -17 -80 -63 -24 -6 -61 -76 -75 -9 0
26 79 69 16 37 38 18 24 19 22 15 39 62 23 27 28 4 8 47 43 51 41 68 20 56 29 17 80 25 40 -7 -50 -6 -32 -78 -52 -2 -61 -59 -21 -9 -48 -10 -13 -14 -46 -36 -76 -35 -57 -42 -44 -77 -67 -81 -71 -60 -3 -49 -74 -12 -45 0
56 26 40 22 44 33 34 80 7 51 57 2 27 10 24 71 58 13 79 77 62 46 -37 -41 -25 -54 -35 -76 -70 -1 -36 -65 -75 -11 -55 -81 -19 -18 -63 0
81 57 48 79 80 39 46 28 24 71 29 6 49 10 47 4 72 54 15 8 11 36 66 34 68 63 60 19 13 21 7 -44 -61 -53 -58 -62 -64 -2 -27 -18 -40 -32 -25 -33 -51 0
52 34 78 13 66 56 46 36 20 18 63 2 40 74 44 22 3 69 33 61 1 42 28 5 29 23 15 38 62 70 60 49 27 24 58 50 37 64 81 -32 -77 -73 -72 -80 -21 -53 -68 -12 -14 -19 -47 -67 -43 -25 -76 -7 -48 -8 -10 -59 -31 -4 -45 -16 -75 -79 -26 -30 -41 -54 -51 -39 -17 -35 -55 -57 -9 -6 0
39 55 47 60 16 36 29 1 22 31 79 61 50 80 35 4 77 33 48 62 17 54 26 64 34 40 71 15 7 -53 -73 -72 -30 -74 -45 -69 -5 -2 -6 -46 -14 -23 -21 -78 -37 -67 -13 -27 -10 -25 -68 -51 -42 -52 0
80 41 17 32 73 21 66 75 49 46 14 29 31 3 53 24 81 55 65 67 18 9 63 10 45 70 43 27 51 5 -33 -50 -26 -69 -59 -76 -52 -15 -57 -1 -19 -54 -23 -56 -35 -78 -39 -6 -74 -64 -4 -58 -7 -2 0
57 62 80 -71 -13 0
12 77 37 39 75 68 26 1 32 58 66 24 70 20 8 65 51 52 35 57 60 2 73 50 63 5 80 46 6 29 3 48 -25 -64 -40 -69 -47 -42 -61 -81 -17 -41 -43 -16 -34 -49 -18 -30 -62 -78 -28 -11 -33 -74 -9 -71 -59 -22 -13 -53 -10 -36 -19 -45 -72 -44 -21 0
20 11 39 37 70 15 36 10 80 22 21 26 13 25 78 81 51 43 6 32 41 55 56 33 58 47 35 53 54 4 77 46 60 72 50 18 -68 -40 -61 -30 -29 -66 -27 -14 -62 -3 -71 -52 -59 -31 -73 -24 -63 -44 -45 -1 -76 -65 -2 -34 -74 -8 -49 -9 -42 -19 -69 -75 -16 -7 0
23 53 41 74 27 11 80 38 58 29 43 76 78 81 45 30 50 12 8 18 44 14 19 25 13 70 3 26 -61 -1 -62 -15 -17 -72 -60 -4 -47 -63 -59 -66 -51 -71 -56 -68 -55 -10 -21 -33 -28 -2 -64 -57 -49 -35 -73 -42 -16 -6 -22 -37 -40 -54 -79 -65 -31 0
56 23 57 73 12 79 48 8 36 74 50 19 60 3 65 33 10 80 6 11 -70 -75 -45 -41 -2 -78 -54 -51 -13 -26 -76 -71 -28 -68 -14 -20 -15 -40 -61 -32 -27 -34 -16 -52 -4 -72 0
60 70 7 64 78 6 49 75 61 26 21 81 17 22 33 47 32 1 66 50 31 2 10 44 46 80 59 9 18 54 14 62 12 -72 -71 -30 -55 -16 -27 -53 -28 -38 -42 -20 -56 -24 -40 -15 -65 -29 -63 -67 -3 -68 -58 -4 -5 -34 0
72 35 13 69 79 57 41 10 43 15 55 20 44 56 59 37 80 50 52 62 32 40 78 65 4 17 5 58 46 34 31 6 45 48 67 7 33 81 -53 -77 -66 -28 -2 -1 -47 -73 -61 -16 -8 -42 -22 -3 -21 -39 -54 -76 -12 -9 -68 -14 -51 -74 -30 -36 -27 -25 -64 -71 -19 -23 -63 -49 -24 -11 -60 -26 -38 -75 -70 -18 0
26 55 32 51 60 21 53 62 8 35 2 4 40 71 12 16 52 41 57 68 54 73 10 11 65 -37 -3 -72 -19 -48 -7 -17 -39 -18 -6 -74 -59 -77 -30 -29 -81 -38 -9 -46 -14 -28 -67 -34 0
65 79 12 34 59 70 24 67 54 2 74 3 18 71 11 4 81 37 14 76 40 16 22 31 56 6 47 32 72 27 -19 -29 -33 -52 -77 -63 -21 -5 -13 -61 0
30 46 24 -15 -2 0
63 -34 -7 0
65 8 37 23 6 -2 -78 -24 0
53 23 70 -68 -14 -66 -2 -34 -62 -80 -16 -12 0
21 65 75 20 38 -71 -10 -56 -46 -77 -39 -64 -59 -49 -62 0
77 11 68 2 27 24 53 10 20 78 21 -64 -7 -65 -44 -26 -52 -80 -42 -72 -3 -79 -46 -4 -23 -32 0
58 23 33 77 13 5 32 31 26 21 62 45 61 -6 -4 -17 -38 -44 -43 -40 -3 -57 -48 -37 -72 -64 -20 -49 -29 0
51 15 52 41 75 -66 -43 -68 -2 -79 0
13 79 63 21 31 65 56 70 12 26 55 32 6 23 -46 -58 -10 -66 -8 -43 -20 -38 0
70 35 11 10 36 71 25 43 1 -79 0
55 79 27 74 9 81 49 52 67 59 8 20 61 5 40 62 25 24 -34 -16 -69 -75 -17 -47 -11 -60 -32 -70 -26 -65 -68 -15 -39 -77 -44 -53 -57 -10 -71 -45 -64 -23 -3 0
53 70 32 38 62 9 80 17 79 60 58 -76 -50 -34 -33 -72 -25 -22 -42 -68 -40 -26 -56 -41 -74 0
42 10 15 71 21 43 57 70 24 53 30 18 23 19 47 81 36 3 41 -78 -35 -27 -29 -80 -59 -77 -69 -66 -52 -26 -9 -28 -7 -73 -50 -33 -72 -31 -11 -49 -38 -75 -37 -32 -39 -1 -14 0
81 17 18 40 33 53 8 66 61 22 71 24 57 68 38 77 32 62 10 4 78 44 37 50 42 63 65 -55 -51 -49 -36 -28 -16 -34 -14 -9 -75 -64 -21 -43 -29 -5 -30 -52 -25 -56 -48 -3 -74 -35 -41 -20 -26 -47 -2 -59 -58 -1 -19 -27 -45 -73 -31 0
27 24 12 26 40 18 33 22 80 65 10 52 20 9 19 11 76 -38 -39 -57 -21 -53 -14 -46 -32 -43 -56 -81 -74 -29 -4 -54 -3 -13 -48 -66 -70 -30 -62 -58 -47 0
81 78 43 79 12 31 51 53 21 38 77 -19 -67 -9 -15 -36 -18 -5 -49 -62 -42 -11 -23 -58 -61 -75 0
60 69 16 53 47 75 59 41 9 78 54 31 13 67 30 50 57 71 58 29 19 21 24 45 76 74 4 -80 -40 -11 -3 -28 -14 -35 -72 -12 -62 -63 -36 -22 -52 -64 -20 -66 -17 -46 -38 -44 -15 -34 0
64 49 61 62 59 42 20 39 31 63 35 1 16 7 4 48 33 71 14 25 24 55 10 3 44 22 27 65 6 57 38 60 76 28 -47 -53 -50 -29 -18 -70 -36 -15 -52 -69 -66 -81 -37 -9 -72 -23 -43 -21 -77 -74 -30 -11 -67 -79 -54 -58 -78 -40 -13 -19 -75 -5 -68 -32 -12 -51 -17 0
80 75 70 14 18 67 69 77 26 63 66 46 28 40 78 42 51 79 1 57 33 34 60 49 20 13 5 -41 -25 -2 -24 -52 -81 -58 -48 -38 -62 -6 -68 -76 -71 0
78 5 27 24 32 21 57 67 36 11 20 48 17 8 25 30 64 14 76 34 80 56 44 22 1 41 3 55 47 58 26 42 53 50 45 -40 -74 -39 -49 -35 -23 -43 -63 -60 -71 -2 -54 -61 -31 -18 -66 -69 -46 -37 -33 -65 -9 -4 -29 -70 -81 -75 -16 -12 -6 -28 -62 -13 -7 -77 -19 0
69 23 53 31 47 49 80 79 44 20 50 38 16 28 52 12 65 55 25 61 56 17 18 39 42 75 70 40 15 33 51 2 64 4 46 7 21 11 58 -67 -59 -34 -45 -36 -77 -6 -37 -76 -73 -62 -24 -60 -72 -81 -32 -3 -43 -41 -27 -29 -78 -22 -5 -57 -1 -74 -10 -9 -8 -35 -19 -26 -63 -54 -71 -30 -66 0
50 36 23 30 46 69 75 49 41 26 38 72 81 7 24 64 -29 -48 -39 -21 -52 -43 -12 -65 -28 -70 -22 -58 -34 -19 -76 -74 -33 -40 -73 -57 -9 -6 -47 0
14 8 78 26 5 20 23 27 39 70 31 11 53 34 41 16 43 49 45 40 65 74 60 77 4 18 30 -44 -42 -68 -54 -10 -75 -50 -9 -19 -21 -73 -12 -79 -56 -7 -71 -32 -33 0
-36 -3 -20 -38 -59 -10 0
44 64 66 3 5 12 13 36 41 30 71 16 9 53 31 1 40 50 -74 -34 -46 -67 -62 -72 -75 -10 -56 -60 -19 -32 -77 -22 -28 -38 0
75 21 35 6 15 32 57 19 45 43 12 62 13 26 80 31 70 1 77 29 48 2 25 65 17 36 9 18 73 74 44 4 -5 -10 -58 -53 -68 -3 -54 -71 -67 -14 -37 -51 -60 -42 -46 -64 -30 -23 -40 -78 -72 -16 -59 -34 -24 -81 -69 -66 -79 -38 -11 -55 -47 -22 -41 -33 -27 -8 -50 0
25 38 28 42 70 53 27 75 24 14 65 79 -72 -34 -7 -29 -40 -68 0
41 16 23 3 77 22 67 76 14 81 25 36 19 73 53 60 31 48 38 51 12 68 69 34 52 44 -24 -4 -37 -8 -56 -32 -63 -9 -17 -1 -43 -75 -7 -57 -35 -13 -62 -54 -70 -45 -28 -20 -78 -65 -21 0
25 73 44 8 1 23 5 45 77 10 78 76 9 28 24 63 38 15 39 68 49 51 46 6 11 41 72 29 4 14 71 -19 -33 -3 -22 -62 -35 -56 -70 -36 -42 -43 -58 -55 -59 -47 -40 -34 -48 -27 -21 -69 -2 -50 -81 0
34 76 47 29 64 27 45 78 40 72 20 30 37 77 73 65 48 68 81 -58 -55 -14 -3 -10 -66 -22 -32 -62 -11 -79 -70 -46 -54 -59 -6 -63 -15 -56 -53 -23 -13 -69 -42 -49 -24 -57 -16 -75 0
48 61 78 31 59 64 10 20 56 8 28 40 41 11 13 36 -74 -71 -66 -53 -26 -24 -18 -49 -25 -47 -34 -68 -23 -62 -33 -70 -30 -69 -9 -5 0
77 69 52 26 15 19 39 45 29 1 40 4 18 43 66 76 30 7 8 48 20 2 70 14 -42 -22 -49 -38 -64 -41 -34 -80 -31 -25 -13 -53 -47 -57 -24 -78 -68 -36 -63 -73 -10 -75 0
9 35 78 20 32 59 13 18 68 55 10 57 46 5 30 63 74 58 6 61 34 15 2 23 45 -41 -72 -31 -67 -60 -42 -51 -53 -54 -66 -65 -24 -25 -4 -47 -71 -37 -40 -79 -12 -7 -70 -8 -76 -50 -69 -17 0
25 43 1 7 56 50 39 65 22 -54 -37 -14 -72 -20 -29 -75 -40 -8 -77 0
32 62 14 40 4 75 54 37 58 69 66 7 51 33 45 2 9 38 5 59 13 67 57 50 76 48 31 81 27 56 19 28 52 35 47 79 43 72 6 24 41 23 -80 -25 -77 -55 -46 -68 -64 -61 -8 -60 -29 -16 -49 -10 -36 -34 -12 -44 -11 -39 -20 -18 -15 -42 -74 -53 -63 -78 -71 -3 -17 -1 -65 -26 -70 -30 0
77 60 70 75 4 31 24 78 49 73 56 76 20 66 11 59 34 26 58 45 57 30 41 9 21 80 33 38 51 63 27 29 36 35 62 28 2 -15 -67 -52 -44 -71 -47 -64 -10 -54 -53 -37 -72 -61 -1 -74 -68 -13 -6 -39 -65 -40 -17 -46 -42 -55 -16 -32 -18 -22 -12 -23 -19 -7 -48 -25 -5 -69 -43 -81 -3 -50 -14 0
18 27 23 36 46 17 60 75 33 70 11 35 44 38 58 24 47 72 51 34 59 71 -37 -30 -76 -53 -32 -14 -62 -8 -74 -77 -41 -26 0
81 53 74 38 14 3 44 54 23 56 16 41 26 69 76 30 58 25 11 29 35 8 21 66 28 57 39 71 64 73 59 40 60 68 80 -18 -63 -67 -79 -22 -2 -13 -27 -12 -36 -46 -10 -4 -42 -19 -47 -72 -49 -37 -61 -5 -15 -62 -50 -33 -17 -31 -78 -20 -9 -65 -52 0
14 39 54 49 13 43 42 75 70 62 44 9 16 40 37 27 77 32 1 59 48 -17 -3 -57 -26 -52 -66 -45 -8 -11 -71 -15 -31 -55 -51 -10 -68 -76 -74 -56 -28 -7 -5 -34 -78 -63 -4 0
67 37 8 15 77 75 4 18 61 33 51 48 30 46 73 26 22 29 25 58 42 39 19 72 74 34 41 50 78 38 49 31 69 64 27 21 40 60 7 54 12 13 -9 -35 -36 -66 -56 -45 -3 -59 -5 -57 -71 -28 -1 -10 -2 -65 -6 -76 -81 -32 -16 -68 -55 -44 -53 -62 -23 -80 -47 -24 -11 -14 0
27 65 74 25 68 10 59 70 52 18 40 20 48 -19 -33 -44 -49 -80 -16 -37 -4 -38 -66 -45 -31 -56 -72 0
14 66 3 78 20 72 26 22 -71 -69 -28 -48 -33 -19 0
22 46 31 68 27 78 3 28 67 -13 -10 -79 -21 -26 -60 -29 -56 0
64 30 72 66 11 23 21 18 7 57 63 13 51 -24 -19 -77 -14 -53 -38 -31 -48 -70 -4 -36 -62 -10 0
21 27 56 34 41 73 70 81 67 23 36 15 32 66 62 61 29 39 76 54 38 20 31 71 72 2 55 51 30 63 14 24 -78 -49 -13 -3 -46 -68 -59 -64 -57 -11 -17 -48 -79 -58 -26 -18 -75 -77 -74 -16 -28 -22 -65 -19 0
57 35 80 6 11 8 15 40 7 52 30 18 53 47 45 72 -51 -49 -44 -54 -29 -1 -22 -25 -61 -39 -23 -5 -31 -17 0
54 31 78 35 80 45 69 17 81 72 74 16 6 14 19 50 67 64 68 20 4 36 59 56 7 53 10 75 30 61 55 8 29 77 13 22 -70 -65 -5 -3 -32 -63 -26 -23 -48 -21 -40 -66 -9 -71 -24 -18 -38 -41 -62 -79 -46 -52 -73 -2 -15 -51 -1 -42 -47 -44 -11 -12 0
79 12 8 17 44 37 42 24 77 27 11 59 51 53 7 28 -35 -69 -43 -14 -16 -18 -45 -67 -34 -4 -19 -52 -66 -75 -25 -54 -48 -3 -26 -81 0
72 73 79 43 53 -37 -33 -28 -2 -47 -80 -35 -25 -42 -58 0
72 45 18 61 25 74 28 76 53 29 54 57 -27 -4 -49 -7 -60 -35 -70 -14 -81 -59 -30 0
47 67 21 77 46 3 76 24 1 73 65 72 44 15 64 14 49 18 55 68 43 28 33 31 56 37 19 38 59 -16 -35 -62 -13 -26 -29 -75 -63 -7 -8 -48 -45 -79 -74 -36 -41 -17 -78 -32 -20 0
13 41 33 75 50 30 2 28 1 51 67 61 62 -44 -46 -76 -49 -71 -52 -63 -20 -68 -66 -23 -56 -24 -27 -21 -58 -4 0
71 58 67 25 5 73 39 27 56 30 29 32 60 10 16 6 76 79 -40 -55 -61 -45 -57 -38 -52 -70 -75 -15 -8 -34 -11 -53 -9 -1 -12 -50 -4 -43 -74 0
32 49 21 59 10 14 33 36 12 68 38 27 15 54 39 37 53 9 61 47 71 34 44 40 13 52 72 3 75 7 30 77 35 67 1 4 51 45 2 -50 -57 -5 -55 -17 -64 -41 -46 -58 -60 -62 -19 -80 -65 -56 -81 -76 -22 -48 -20 -74 -42 -66 -29 -78 -24 -26 -70 -28 -25 0
29 3 30 56 63 78 66 71 17 10 16 15 31 46 5 12 34 53 68 19 69 -8 -42 -73 -35 -40 -20 -32 -79 -21 -36 -43 -6 -14 0
18 43 -5 -58 0
79 50 71 64 35 33 57 23 58 17 21 75 25 6 46 80 9 -18 -63 -37 -74 -77 -14 -13 -7 -36 -19 -42 -60 -39 0
75 79 32 7 50 44 9 28 74 70 -69 -6 -15 -58 -30 -48 -53 -13 0
26 75 31 20 53 50 13 1 38 -62 -64 -72 -73 -59 0
6 -41 0
16 13 49 15 65 36 17 12 46 8 77 31 35 34 75 79 68 62 61 44 45 38 78 32 24 63 58 53 2 48 25 30 54 14 81 26 10 41 -60 -40 -72 -18 -70 -33 -7 -1 -55 -47 -59 -50 -22 -37 -67 -74 -76 -51 -52 -11 -66 -39 -69 -23 -64 -57 -4 -80 -19 -29 -3 -73 -21 -71 -28 -20 -27 -56 0
51 18 67 77 1 61 63 17 47 64 9 8 81 5 -39 -76 -23 -55 -34 -70 -4 -53 -74 -65 -48 -44 -46 -45 -41 -78 -7 -56 -20 -26 0
56 46 75 42 27 36 20 19 78 1 24 25 30 81 2 26 17 58 40 35 14 38 66 9 15 18 8 -34 -63 -23 -7 -48 -45 -33 -16 -22 -21 -68 -32 -43 -77 -6 -39 -72 -51 -57 -64 -37 -49 0
22 27 6 51 70 14 30 3 43 25 79 23 8 38 20 34 46 73 49 19 39 17 63 61 53 13 58 16 26 21 28 12 45 57 67 -62 -37 -80 -10 -32 -31 -74 -9 -11 -71 -81 -40 -47 -59 -4 -41 -77 -44 -54 -1 -35 -2 -52 -75 -15 -66 -7 -69 -55 -64 -36 -5 -18 -76 -24 -29 -48 -33 -50 -78 0
11 10 0
79 29 41 54 4 80 8 36 62 66 35 30 2 9 69 56 37 72 14 74 43 49 52 71 16 64 42 75 33 11 -24 -12 -31 -28 -78 -81 -63 -22 -26 -65 -34 -39 -60 -27 -13 -45 -76 -17 -57 -1 -55 -21 -77 -10 -67 -68 -51 -58 -23 -25 0
63 28 57 29 -44 -66 0
13 34 1 18 76 3 58 22 15 39 17 47 75 43 54 -55 -73 -60 -41 -65 -69 -62 -67 0
35 26 77 22 9 12 68 64 37 24 17 61 6 59 78 25 13 71 46 52 38 15 14 75 69 8 -3 -4 -54 -49 -73 -57 -2 -72 -80 -10 -20 -27 -39 -19 -76 -51 -28 -16 -34 -74 -50 -11 -67 -60 -44 -33 -31 -47 -81 -43 -70 -23 -40 -7 -55 -65 -29 -58 -45 -21 -36 -5 -1 -41 -32 0
1 20 63 19 21 11 58 81 38 73 78 18 72 56 37 33 61 71 64 13 12 62 -57 -80 -16 -44 -70 -75 -49 -43 -77 -39 -30 -50 -69 -9 -10 -6 -74 -36 -68 -41 -60 -66 -23 -54 -8 -46 -25 -45 -26 -34 -65 -59 0
20 25 -15 -76 -73 -30 -79 -34 -4 -31 0
81 11 71 9 12 31 22 35 28 52 53 38 40 63 69 74 -21 -64 -13 -45 -55 -68 -51 -15 -19 -80 -49 -6 -61 -57 -8 -1 -25 -43 -18 -66 -20 0
80 16 13 69 1 46 49 62 18 5 29 40 -54 -34 -79 -14 -31 -27 -15 -19 -32 -60 -56 -52 -48 -2 -75 -59 0
67 48 60 8 55 34 13 28 18 36 -47 -10 -7 -2 -62 -57 -22 -45 -54 -29 0
28 -27 0
76 1 70 50 69 18 4 46 11 38 36 32 45 22 67 23 -64 -79 -8 -75 -53 -14 -56 -12 -43 -72 -2 -3 -52 -55 -30 -66 0
61 18 73 21 58 80 19 66 67 45 33 47 14 23 50 78 11 28 15 48 17 16 9 55 53 5 -7 -34 -22 -74 -36 -77 -81 -27 -39 -20 -51 -31 -56 -30 -29 -6 -64 -62 -32 -70 -65 -69 -72 -42 0
