c NeuroCodeBench 2.0 CNF formula with verdict Sat
p cnf 90 839
63 0
66 68 51 40 9 17 69 35 60 12 70 79 46 39 34 59 88 90 74 32 14 8 73 25 58 15 1 63 37 41 44 7 50 87 80 77 2 -81 -29 -62 -13 -22 -26 -75 -72 -76 -45 -43 -30 -49 -5 -38 -84 -47 -16 -28 -33 -82 -23 -3 -53 -61 -10 -86 0
43 60 38 57 67 69 74 29 45 50 59 -17 -27 -7 -56 -77 -36 -66 -61 -87 0
53 22 8 2 39 49 7 3 77 28 35 33 70 89 55 52 14 83 34 75 65 85 59 -48 -29 -87 -54 -21 -81 -68 -42 -12 -62 -41 -30 -31 -15 -79 -45 -23 -38 -84 -36 -18 -72 -50 -16 -40 -32 -86 -90 0
21 23 68 65 82 81 48 89 19 88 9 33 78 50 22 14 11 56 67 46 31 20 54 53 5 43 47 -13 -60 -64 -4 -29 -39 -1 -37 -27 -18 -71 -57 -87 -61 -90 -66 -70 -52 -83 -42 -77 -74 -25 0
70 3 14 65 82 76 84 26 35 29 75 67 11 6 78 40 61 87 4 90 59 72 88 83 71 86 9 33 64 38 57 15 -81 -19 -60 -8 -36 -44 -43 -21 -73 -68 -79 -25 -49 -31 -58 -85 -7 -24 -77 -50 -42 -48 -12 -1 -20 -45 -56 -23 -74 -41 -80 -62 -32 -17 -39 -22 -51 -34 0
88 5 -80 -44 -22 -42 -69 -59 -52 -57 0
29 21 67 8 46 43 37 83 32 15 34 70 11 35 26 20 62 71 -49 -23 -80 -59 -25 -40 -56 -19 -2 -38 -7 -50 -13 0
36 77 84 76 75 80 73 65 53 48 24 37 28 34 10 62 15 8 30 -2 -29 -7 -33 -61 -43 -69 -56 -83 -82 -67 -54 -74 -44 -4 0
76 62 42 73 80 51 15 79 -20 -13 -3 -52 -68 -1 -39 -67 -6 -41 -46 -78 -27 -4 -87 0
35 -56 0
42 90 85 45 4 86 33 58 27 83 6 72 35 52 30 87 66 55 69 44 65 49 41 47 26 88 51 -57 -28 -39 -34 -43 -23 -22 -13 -48 -89 -24 -11 -25 -77 -38 -70 -46 -60 -31 -37 -14 -36 -21 -63 -20 -5 -54 -80 -64 -67 -62 -12 -8 -32 -61 -81 -74 0
58 70 39 53 26 3 87 67 8 1 57 41 19 85 73 -76 -10 -79 -27 -84 -30 -5 -46 -68 -60 -59 -72 -17 -51 -42 -36 0
10 18 51 59 61 73 86 89 26 65 48 5 36 24 -35 -4 -15 -32 -41 -71 -19 -52 -63 -28 -81 -20 -55 -6 -78 -54 -68 -47 -57 -74 -34 0
8 46 21 33 23 42 44 14 47 29 30 71 54 13 41 26 87 -67 -53 -83 -43 -75 -37 -65 -40 -31 -90 -45 -10 -2 -69 -11 0
-35 -23 -13 -75 -47 -57 -25 -72 0
50 62 39 47 4 22 11 79 10 16 44 26 49 6 21 68 -51 -25 -7 -48 -73 -80 -43 -55 -33 -40 -12 -56 -86 -76 -34 -35 -28 -67 -29 -66 -85 0
47 15 77 87 29 72 67 55 90 54 52 42 80 48 34 32 20 76 22 44 62 81 1 14 40 33 2 -35 -11 -4 -88 -64 -13 -8 -37 -57 -26 -39 -63 -89 -58 -18 -49 -46 -85 -7 -56 -78 -68 -59 0
7 56 58 62 74 23 15 44 67 12 26 34 38 66 83 51 40 24 86 16 71 64 82 77 33 54 79 39 70 90 29 17 68 73 22 45 1 2 61 89 8 85 43 78 18 63 76 81 21 27 55 35 46 20 52 69 41 -65 -19 -53 -9 -25 -4 -75 -30 -59 -88 -57 -42 -60 -48 -6 -37 -13 -11 -3 -72 -32 -5 -50 -47 -28 -36 -49 -84 -14 -87 -80 -31 0
69 80 79 37 77 85 57 52 32 53 -25 -11 -47 -1 -72 -75 -84 -30 -49 -8 -82 -38 -56 -71 0
24 84 -64 -89 -57 -33 -38 0
55 81 84 7 51 29 53 47 76 67 63 79 32 19 13 40 83 34 77 49 64 12 88 30 60 72 27 78 50 25 71 23 73 54 8 16 43 28 90 46 -3 -42 -89 -66 -15 -38 -82 -45 -70 -18 -75 -20 -26 -31 -11 -10 -39 -17 -61 -41 -74 -35 -6 -48 -1 -57 -69 -44 -56 -21 -33 -24 -62 -85 -65 -87 -80 -4 -86 -58 -22 -59 -68 -14 -5 -37 -36 -9 -52 0
46 47 87 85 62 63 84 12 -43 -14 -11 -44 -20 -65 -57 -2 -7 -35 -28 -37 -24 -49 -5 -82 0
35 89 61 58 87 33 19 10 5 56 4 79 51 31 49 88 63 50 57 83 55 69 47 38 2 54 27 -67 -59 -1 -76 -53 -42 -29 -41 -22 -82 -28 -37 -90 -74 -18 -45 -46 -71 -80 -3 -16 -75 -60 -52 -20 -78 -7 -86 -13 -77 -12 -8 -21 -39 -73 -66 -65 0
85 61 88 80 34 65 68 8 40 3 24 42 66 72 57 79 11 36 -67 -78 -33 -5 -77 -14 -32 -55 -90 -76 -20 -56 -69 -17 -10 -27 0
80 29 53 78 84 -76 -33 -36 -7 -82 -57 -79 -8 0
7 30 60 41 27 58 53 16 33 13 35 21 8 75 54 24 34 76 6 46 38 84 4 -23 -66 -17 -15 -59 -36 -62 -32 -48 -56 -88 -89 -18 -85 -74 -12 -51 -86 -57 -55 -87 -45 -44 -29 -64 -14 0
31 30 23 29 46 80 70 78 26 89 85 79 49 41 28 40 75 61 62 17 68 32 11 1 9 15 25 44 4 6 83 35 53 37 21 86 72 71 -67 -45 -42 -16 -8 -50 -59 -52 -19 -58 -54 -48 -82 -69 -73 -27 -77 -3 -88 -55 -39 -65 -74 -33 -14 -12 -36 -2 -57 -13 -63 -22 -5 -43 -60 -51 -81 -84 -10 -76 0
59 6 84 23 9 55 15 71 80 19 67 63 44 87 3 13 8 30 52 74 60 62 82 24 57 66 36 90 48 75 12 41 42 29 16 -54 -32 -76 -46 -4 -2 -83 -22 -28 -89 -86 -38 -70 -21 -18 -7 -56 -64 -17 -65 -10 -45 -39 -25 -33 -27 -37 -5 -69 -35 -50 -88 -72 -11 -43 -1 -51 -40 -77 -85 -78 -79 -53 -49 -31 -14 -81 -26 -20 -58 -61 -47 -68 -73 0
50 49 44 40 69 19 5 80 82 16 84 39 51 87 -12 -65 -90 -30 -46 -20 -35 -26 -45 -41 -7 -55 -32 0
6 34 11 69 18 68 37 17 84 40 32 67 16 28 58 45 2 52 8 4 87 71 25 -19 -36 -79 -90 -81 -29 -43 -75 -85 -55 -46 -30 -73 -74 -24 -15 -20 -3 0
28 73 35 15 89 88 31 21 9 81 59 85 41 17 14 67 40 7 69 60 37 30 80 19 83 76 4 16 45 84 43 6 -36 -52 -2 -32 -13 -72 -87 -47 -63 -8 -56 -38 -50 -39 -5 -24 -65 -46 -74 -77 -26 -71 -66 0
1 11 56 41 26 52 62 65 64 14 34 44 12 9 51 67 78 77 73 8 3 85 75 -27 -29 -28 -31 -24 -57 -70 -86 -49 -42 -79 -15 -69 -23 -19 -71 -18 -68 -61 -32 -59 -39 -6 -87 -80 -45 -88 -81 -20 -16 -22 -5 -83 -76 -33 -10 -30 0
21 -6 -34 0
55 11 8 42 45 46 69 4 18 70 6 30 29 48 89 50 75 71 10 62 47 23 17 58 37 57 66 61 -64 -40 -33 -49 -63 -60 -59 -83 -39 -44 -79 -36 -24 -3 -21 -67 -32 -15 -16 -27 0
70 4 65 47 87 8 68 18 77 88 32 23 44 71 72 57 16 43 40 5 9 19 90 36 61 26 84 24 75 66 89 28 62 55 83 22 11 39 48 54 -73 -60 -3 -53 -17 -67 -38 -10 -20 -14 -2 -37 -56 -30 -79 -49 -74 -76 -63 -12 -33 -50 -1 -25 -86 -80 -51 -78 -45 -85 -35 -82 -21 -46 -15 -41 -31 -52 -7 -81 -29 -69 -27 -34 -42 -59 -6 -58 0
22 74 86 -24 0
79 25 5 33 32 27 12 36 71 65 87 62 24 16 50 73 63 48 53 22 7 83 56 13 37 45 28 -64 -2 -26 -90 -70 -82 -8 -4 -35 -41 -1 -42 -76 -39 -77 -18 -20 -84 -52 -31 -21 -19 -15 -74 -72 -66 -51 -30 -61 -14 -78 -88 -23 -60 -86 -85 -49 0
45 10 88 2 79 65 82 58 16 78 84 47 72 48 38 73 32 85 36 54 86 55 26 42 76 69 -31 -41 -20 -35 -33 -28 -6 -70 -40 -49 -53 -3 -64 -90 -17 -8 -12 -1 -37 -39 -7 -67 -9 0
9 58 0
78 14 37 36 18 21 57 40 25 32 81 11 71 51 33 27 23 8 -64 -43 -34 -30 -55 -6 -70 -82 -87 -84 0
10 -73 -48 0
69 85 41 31 25 15 38 53 75 5 43 6 64 47 90 10 72 89 23 21 18 30 62 73 70 61 65 60 50 78 54 76 36 9 34 55 39 84 8 12 52 87 77 67 3 51 86 -27 -14 -66 -13 -7 -33 -40 -56 -19 -2 -17 -71 -83 -68 -29 -58 -45 -11 -4 -82 -49 -26 -16 -24 -37 -63 -81 -20 -59 -57 -28 -35 -46 -79 -88 -32 -48 -74 -1 -80 -22 0
66 20 52 24 55 31 3 45 1 84 43 44 6 74 51 40 10 16 63 49 68 47 -57 -22 -80 -72 -41 -28 -62 -56 -27 -76 -54 -2 -30 -87 -77 0
87 81 63 48 30 58 41 6 3 82 86 72 -13 -62 -25 -43 0
74 55 59 47 75 11 3 28 57 2 61 -64 -79 -81 -83 -56 -30 -35 -65 -48 -1 0
56 70 30 38 8 85 80 52 22 1 64 48 2 55 25 79 10 81 51 9 59 19 68 6 62 84 44 13 17 61 83 77 36 34 58 74 50 14 24 39 -87 -27 -32 -29 -18 -16 -40 -42 -73 -28 -7 -82 -90 -67 -60 -89 -20 -78 -57 -45 -15 -66 -11 -72 -63 -23 -53 -37 -5 -3 -4 -21 -33 -86 -88 -46 -54 -35 -65 -76 -26 -75 -47 -41 -12 -43 0
73 74 25 10 70 78 48 17 55 75 79 59 3 60 32 83 -84 -66 -21 -8 -2 -56 -68 -16 -58 -7 -9 -87 0
43 11 49 51 83 85 12 53 59 79 27 9 87 39 64 14 76 63 19 57 47 7 61 54 40 52 74 32 55 23 81 80 41 46 70 30 -10 -73 -21 -42 -8 -86 -36 -45 -71 -22 -33 -15 -62 -16 -34 -77 -6 -24 -67 -78 -82 -3 -26 -31 -89 -38 -75 -50 -66 -88 -18 -13 -29 0
46 45 17 73 14 36 89 42 43 50 60 29 76 26 86 69 30 34 35 72 11 9 77 64 25 68 10 75 13 74 61 32 63 57 -33 -66 -23 -1 -71 -51 -62 -2 -18 -6 -83 -40 -84 -52 -49 -58 -28 -5 -59 -53 -44 -67 -22 -81 -27 -37 -21 -82 -12 -70 -20 -16 0
40 70 5 33 42 88 1 34 47 28 73 25 17 38 74 32 -58 -65 -35 -2 -43 -64 -52 -21 -45 -13 -14 -29 -55 -22 -9 -30 -53 -41 -50 -31 -82 -4 -71 -89 -66 -83 -6 -8 0
23 45 68 40 31 76 19 13 83 71 86 21 35 84 85 1 27 63 33 32 30 41 65 11 14 56 43 39 5 77 90 88 4 67 20 2 66 57 75 69 79 60 -18 -52 -54 -53 -29 -38 -50 -6 -37 -25 -3 -74 -80 -78 -87 -70 -55 -49 -17 -72 -24 -34 -16 -10 -8 -82 -42 -51 -22 -81 -47 -26 -44 -89 -64 -9 -36 -28 -12 0
57 65 9 1 48 14 53 58 35 38 60 4 72 44 17 45 66 43 50 -71 -25 -39 -29 -59 -64 -68 -21 -83 -61 0
86 15 88 44 83 54 61 37 71 12 29 60 21 46 55 9 5 57 90 80 33 24 68 23 48 4 78 47 -27 -6 -14 -79 -85 -56 -11 -41 -25 -77 -70 -87 -40 -35 -63 -58 -42 -45 -82 -76 -81 -28 -34 -16 -13 -89 -65 -84 -62 -52 -38 -43 -50 -18 0
56 46 11 89 37 7 25 74 75 54 35 -85 -88 -86 -78 -81 -15 -63 -60 -8 -44 -73 -26 -82 -47 -6 -67 -71 0
73 61 85 71 5 11 83 41 1 56 32 36 23 24 37 47 33 30 57 34 26 7 60 -62 -52 -45 -54 -74 -8 -19 -13 -18 -90 -15 -72 -3 -55 -29 -51 -64 -81 -48 -77 -10 0
25 60 59 85 32 68 82 10 1 75 64 18 88 83 9 87 74 52 56 86 69 -48 -8 -23 -24 -3 -36 -63 -4 -42 -44 -28 -76 -34 -65 0
69 28 46 39 87 4 29 44 35 34 50 43 48 -60 -32 -23 -72 -27 -64 -66 -17 -45 -75 0
71 72 88 4 46 78 47 63 54 25 11 81 16 -62 -65 -10 -37 -69 -53 -31 -17 -8 0
32 61 15 8 70 51 85 52 90 48 49 31 19 68 45 86 88 84 75 3 13 55 72 67 58 60 44 42 5 87 27 38 40 36 23 73 82 41 14 -57 -74 -9 -56 -1 -47 -16 -43 -12 -76 -79 -65 -35 -54 -37 -80 -29 -59 -6 -25 -50 -11 -46 -83 -2 -81 -20 -77 -17 -26 -21 -30 -34 -71 -24 -18 -62 0
16 5 62 82 73 71 80 69 36 10 21 89 11 20 61 -37 -90 -87 -49 -85 -63 -78 -45 -6 -28 -60 -13 -39 -1 0
88 19 38 83 61 33 24 52 12 4 64 68 48 67 84 65 9 15 46 60 37 54 8 41 59 6 -76 -21 -78 -62 -7 -29 -72 -34 -89 -31 -66 -2 -25 -27 -5 -17 -86 -35 -74 -70 -85 -90 -49 -80 -20 -13 0
23 27 87 11 14 32 48 83 24 57 13 61 -9 -41 -86 -19 -54 -71 -60 -75 -64 -1 -3 -31 -36 -56 -40 -2 -15 -45 -81 -62 -76 -58 -74 -21 0
83 58 53 47 74 31 -85 -52 -73 -32 0
42 24 28 6 30 38 59 78 40 54 11 57 1 18 63 87 41 26 76 33 55 36 80 83 35 43 29 22 46 15 84 71 2 51 34 61 44 10 77 -86 -67 -21 -62 -47 -68 -14 -85 -88 -82 -31 -37 -50 -5 -69 -73 -70 -3 -27 -89 -74 -20 -75 -52 -81 -39 -13 -58 -53 -48 -16 -66 -4 -60 -72 -32 -45 -56 -19 -17 -7 0
46 65 90 64 41 23 7 61 47 48 52 14 5 83 70 -6 -86 -15 -74 -49 -69 -78 -56 -27 -17 -25 0
71 61 47 4 58 13 89 64 87 7 39 -72 -62 -67 -90 -36 -30 -82 -84 -33 -10 -41 -86 0
-24 -8 0
30 88 35 8 49 16 63 84 21 17 89 83 28 78 70 38 58 65 37 27 72 75 82 53 13 80 48 57 54 -46 -62 -34 -18 -9 -51 -36 -7 -56 -87 -79 -4 -68 -5 -60 -90 -22 -10 -47 -64 -24 -69 -23 -86 -44 -85 -55 -67 -61 -29 -25 -14 -52 -40 -41 -6 -77 -39 -2 -33 -19 -1 -73 -15 -20 -71 -43 -42 -11 -12 -66 0
41 3 54 37 22 85 6 -7 -50 -45 -12 -27 -40 -26 -68 0
83 22 46 7 33 73 49 70 1 -27 -58 -64 -26 -48 -77 -29 -21 -18 -59 -53 0
16 4 26 39 3 52 70 84 8 45 66 72 51 69 79 -17 -54 -77 -85 -65 -71 -87 -90 -43 -48 -42 -35 -76 -14 -18 -24 -12 -31 -21 -44 -38 -41 -89 -19 -36 0
15 39 10 33 88 35 22 61 73 19 18 55 64 40 65 67 84 27 -72 -49 -57 -28 -20 -53 -86 -16 -75 -21 -2 -34 0
68 40 51 62 76 20 11 84 86 71 77 48 61 59 75 -7 -81 -16 -13 -27 -32 -65 -21 -30 -52 -19 0
32 15 41 13 22 25 53 86 37 61 8 75 84 64 82 26 71 51 50 39 10 72 45 18 58 31 85 40 7 23 1 56 36 9 33 30 27 24 73 87 65 59 43 88 21 2 -35 -17 -48 -80 -70 -44 -78 -67 -46 -57 -60 -69 -4 -89 -12 -83 -16 -3 -74 -66 -52 -90 -54 -34 -20 -77 -68 -49 -79 -29 -5 -14 -76 -19 -11 -81 -55 -6 -47 0
5 89 75 22 63 38 19 86 8 3 52 42 21 81 71 17 10 79 60 87 64 45 4 6 36 66 67 53 69 1 32 62 61 24 78 33 43 57 44 59 48 55 82 76 39 -7 -50 -88 -54 -65 -85 -47 -46 -34 -68 -11 -40 -74 -51 -41 -30 -72 -23 -70 -84 -58 -28 -77 -37 -73 -49 -56 -90 -31 -29 -83 -15 -12 -20 -14 -35 -80 0
60 33 3 49 58 -44 -51 -54 -71 -78 -18 -52 -19 -28 0
72 44 41 3 60 30 83 74 27 45 7 85 -87 -12 -68 -65 -35 -24 -89 -32 -16 -55 -13 -78 -82 -51 -31 -63 -77 -64 -39 -38 -9 -75 -14 -69 0
-8 -61 -69 0
16 89 67 62 24 21 5 32 71 50 37 46 59 48 56 30 77 64 10 88 68 52 17 29 35 41 40 23 65 87 73 25 60 4 7 33 53 49 3 -47 -82 -38 -55 -72 -63 -27 -20 -74 -54 -18 -76 -44 -51 -45 -79 -6 -85 -81 -36 -43 -42 -34 -90 -14 -69 -80 -31 -61 -2 -39 -11 -75 -12 -84 -26 -28 -1 -8 -13 -9 0
70 29 24 30 33 4 87 19 43 84 47 57 17 2 75 54 77 45 90 41 78 76 40 60 55 50 25 68 72 51 7 81 46 64 66 -53 -14 -73 -49 -16 -8 -74 -82 -63 -39 -22 -9 -48 -37 -27 -85 -13 -62 -52 -6 -69 -31 -61 -5 -28 -44 -56 -35 -89 -26 -10 -23 -42 -3 -36 -88 -11 -20 -38 -58 -79 -59 -67 -71 -65 -32 0
67 15 32 87 14 65 28 3 22 69 51 18 80 68 56 73 58 25 12 74 24 23 86 90 89 11 20 70 17 60 52 88 9 50 44 8 85 35 26 2 63 53 79 54 48 37 77 62 -40 -76 -4 -30 -57 -55 -39 -84 -47 -31 -6 -27 -29 -21 -59 -45 -43 -16 -33 -78 -13 -10 -19 -75 -61 -71 -83 -66 -46 -38 -5 -1 -41 -49 -7 -34 -36 -82 -64 0
16 45 22 15 23 26 42 48 1 43 76 35 34 12 36 87 10 53 14 90 54 86 6 44 67 8 77 17 83 52 56 21 75 71 37 29 63 62 84 4 50 -88 -70 -65 -61 -59 -25 -57 -41 -24 -7 -39 -69 -46 -60 -74 -3 -51 -47 -38 -64 -79 -49 -33 -18 -2 -40 -58 -19 -89 -72 -11 -28 0
7 15 65 2 31 37 90 84 60 21 49 -48 -51 -76 -35 -77 -1 -16 -36 -87 -47 -4 -45 -28 -43 0
90 47 73 2 42 66 40 24 30 69 46 8 31 35 54 27 16 61 79 67 33 53 80 13 5 23 4 37 45 1 38 19 55 57 87 20 51 68 -3 -22 -15 -89 -12 -6 -65 -49 -86 -62 -83 -32 -17 -75 -77 -18 -64 -11 -7 -70 -34 -41 -26 -21 -56 -58 -78 -36 -63 -60 -59 -28 -81 0
8 86 73 13 77 76 79 30 1 59 10 43 35 44 68 64 82 58 18 -87 -28 -14 -81 -9 -53 -37 -74 -80 -49 -41 -83 -54 -25 -48 -66 0
21 40 59 11 10 72 33 70 41 65 74 48 32 64 80 84 -23 -15 -87 -3 -81 -54 -20 -16 0
63 4 76 51 62 77 40 7 35 26 3 15 21 60 45 59 19 37 67 11 29 1 79 41 88 43 44 48 85 46 56 80 49 47 32 -5 -87 -53 -86 -61 -83 -55 -14 -74 -65 -57 -39 -23 -2 -36 -22 -58 -54 -10 -24 -20 -38 -16 -70 -13 -81 -64 -31 -68 -50 -28 0
73 23 46 76 53 -40 -72 -83 -66 -48 0
59 80 8 50 84 48 68 61 83 63 38 51 9 30 82 34 88 71 87 43 -13 -85 -7 -57 -21 -52 -37 -2 -22 -33 -44 -62 -23 -90 -55 -35 -66 -72 -40 -75 -77 -70 -45 -53 -16 -86 -60 -4 -10 -14 -28 -11 -64 -41 0
83 38 15 59 87 43 40 42 47 33 31 67 34 12 70 32 54 20 14 30 28 16 19 62 3 17 49 66 25 48 72 13 68 44 56 74 2 4 6 35 29 57 9 58 46 26 75 45 73 22 23 41 79 64 55 -63 -71 -77 -27 -80 -36 -21 -10 -61 -53 -5 -37 -85 -81 -51 -65 -24 -1 -76 -18 -89 -69 -52 -7 -39 -90 -11 -50 -84 -86 0
4 30 38 54 46 64 13 89 49 56 35 57 43 -67 -44 -18 -8 -23 -37 -88 -17 -87 -80 -45 0
58 24 59 83 68 81 40 7 79 76 34 -23 -11 -84 -49 -15 -17 -44 -10 -22 0
43 66 36 54 41 2 23 50 5 35 53 18 83 57 81 90 28 12 56 52 86 38 -40 -79 -55 -22 -61 -64 -88 -39 -48 -74 -33 -42 -14 -80 -85 -11 0
4 3 35 90 39 40 59 23 42 1 86 16 34 88 27 41 50 5 22 32 66 75 33 78 21 60 24 70 82 36 6 20 80 -77 -13 -63 -65 -54 -15 -14 -83 -87 -12 -26 -73 -43 -81 -79 -72 -56 -38 -48 0
6 79 61 42 65 68 16 63 11 19 1 46 58 69 75 15 55 54 66 80 39 50 47 28 8 25 76 89 34 71 7 88 83 2 49 43 18 29 4 41 38 40 -72 -85 -45 -56 -24 -30 -32 -90 -77 -37 -82 -86 -17 -81 -52 -12 -21 -23 -9 -62 -53 -13 -3 -70 -51 -74 -78 -36 -14 -10 -84 -60 -64 -31 -35 -67 -33 -5 -20 0
32 26 44 75 38 72 16 -17 -21 -48 -13 -19 0
34 82 19 66 80 77 87 33 1 32 41 23 20 44 12 36 18 26 31 17 13 35 83 29 53 89 76 25 86 -16 -28 -37 -78 -85 -27 -40 -47 -68 -63 -75 -57 -74 -54 -64 -6 -88 -5 -84 -38 -60 -62 -58 -14 -56 -43 -9 -4 -49 -39 -79 -73 -45 -22 0
63 9 39 35 29 27 22 2 53 43 57 41 76 12 50 6 54 42 65 71 11 48 72 77 26 19 69 44 46 88 20 32 15 33 68 -73 -8 -60 -56 -74 -55 -45 -14 -49 -18 -78 -82 -75 -51 -4 -36 -31 -52 -83 -70 -40 -61 -86 -37 -23 -87 -30 -5 -90 -25 -24 -64 -13 -3 -38 -21 -84 -1 -62 -16 -66 -89 0
19 22 25 89 24 21 49 71 58 80 51 84 26 45 42 81 40 9 72 6 29 88 11 68 18 47 1 34 86 5 70 16 76 54 90 35 64 83 28 85 61 59 67 33 37 46 -20 -74 -41 -23 -63 -52 -79 -13 -56 -32 -8 -17 -53 -27 -44 -60 -50 -30 -14 -69 -82 -48 -62 -2 -12 -77 -10 -38 -15 -3 -66 -57 -7 -39 -36 -73 -78 -65 -87 -55 -43 0
11 31 18 84 46 49 75 21 69 42 33 83 44 26 82 88 61 79 77 81 2 36 -16 -52 -58 -38 -4 -72 -6 -17 -76 -10 -43 -62 -50 -85 -47 -87 -68 0
27 56 26 60 86 24 66 19 40 49 90 36 38 -85 -44 -37 -78 0
42 9 54 88 -38 -74 -62 -81 -58 -24 -19 -68 0
82 18 10 55 81 24 71 36 83 31 23 30 49 44 -35 -3 -56 -77 -66 -43 -74 -50 -88 -47 -5 -86 -63 0
8 89 44 86 42 47 82 12 -72 -90 -3 -71 -46 -84 -10 -20 -2 -41 -21 -85 -13 -43 -33 -65 0
64 13 78 -47 -14 -32 0
22 87 3 30 -21 -29 -70 -36 -57 -47 -41 -66 -88 0
90 23 36 57 64 31 -32 -30 -55 -54 -38 0
82 72 56 31 26 8 3 32 27 49 44 24 52 78 -75 -28 -71 -18 -30 -65 -85 -76 -16 -21 -20 -9 -46 0
54 37 20 79 82 35 75 10 67 77 33 18 15 89 66 25 47 29 32 24 84 64 87 26 53 60 6 -12 -1 -81 -49 -52 -28 -7 -50 -19 -39 -16 -78 -56 -4 -42 -13 -22 -41 -76 -55 -5 -45 -21 -44 -88 0
34 29 16 55 68 63 85 14 38 84 37 72 49 83 17 66 21 56 54 25 27 70 45 -80 -32 -3 -20 -51 -52 -13 -62 -42 -57 -19 -41 -75 -44 -35 -28 -30 0
24 70 49 11 74 58 2 7 13 48 34 73 83 81 50 51 68 33 80 10 55 86 27 32 14 84 53 82 20 8 47 41 78 15 90 28 21 75 29 26 -62 -87 -36 -63 -1 -25 -59 -18 -77 -56 -4 -46 -9 -42 -57 -40 -76 -85 -3 -72 -79 -52 -37 -35 -45 -66 -67 -44 -12 -22 -31 -88 -61 -60 -69 -30 -17 -54 -5 -19 -89 -38 -64 -43 -71 -39 0
60 4 6 70 73 22 89 54 66 16 81 20 68 39 27 45 77 15 26 85 64 -80 -37 -31 -88 -8 -84 -75 -2 -52 -44 -53 -25 -40 -7 0
33 90 30 2 60 87 27 3 62 46 15 17 84 48 8 24 20 81 10 22 14 13 57 78 7 80 69 67 12 50 58 66 31 52 36 85 25 28 89 9 59 71 63 72 75 21 74 88 73 -55 -1 -83 -42 -79 -76 -77 -11 -35 -32 -39 -16 -49 -65 -40 -64 -38 -43 -61 -18 -82 -70 -4 -44 -86 -47 -68 -37 -51 -29 -6 0
15 1 58 23 4 76 79 90 20 9 77 14 10 -34 -17 -22 -80 -26 -32 -18 -12 -81 -33 -7 -19 -88 -3 0
46 8 48 22 36 56 35 1 17 67 44 68 20 26 87 58 59 40 77 16 75 15 80 51 37 71 54 76 34 21 89 61 13 47 78 90 63 18 5 86 24 66 32 19 88 28 30 7 -23 -85 -55 -12 -9 -84 -52 -50 -53 -10 -81 -60 -33 -4 -29 -70 -42 -65 -45 -57 -3 -38 -72 -39 -31 -62 -11 -74 -14 -73 -25 -82 -6 -2 -69 -79 -83 0
3 89 39 72 30 61 86 55 31 87 7 57 82 51 81 2 62 21 17 54 83 29 47 84 27 76 53 14 32 38 43 60 42 40 9 8 56 71 18 50 70 64 67 6 65 44 46 -80 -78 -69 -15 -88 -12 -5 -73 -90 -49 -20 -48 -10 -41 -37 -4 -45 -24 -58 -63 -66 -25 -79 -1 -36 -28 -68 -77 -33 -23 -13 -35 -85 -75 -59 -19 -16 -11 -34 0
19 87 26 54 1 59 77 33 72 69 20 89 30 65 31 55 12 2 66 6 39 62 18 82 11 88 45 47 3 76 10 71 51 8 16 28 27 83 7 -38 -40 -73 -67 -86 -15 -85 -84 -32 -46 -75 -60 -24 -17 -36 -42 -49 -80 -13 -21 -78 -35 -23 -58 -79 -37 -29 -70 -22 -48 -61 -9 -43 -4 -14 -74 -90 -53 -63 -34 -25 -64 -50 0
89 37 30 32 79 11 88 67 41 8 33 18 74 77 83 14 26 71 82 59 25 16 28 61 64 80 19 40 46 57 -45 -29 -58 -21 -10 -72 -27 -53 -4 -38 -55 -51 -52 -87 -22 -69 -48 -31 -54 -62 -39 -63 -44 -68 -1 -70 -5 -12 -3 -86 -65 -43 -20 -85 -47 -76 -90 -56 -73 -24 -6 -34 0
15 6 84 43 82 37 47 11 87 16 77 86 18 31 71 59 62 81 26 1 73 57 14 35 54 88 67 66 74 60 5 64 29 10 51 30 19 -42 -38 -34 -49 -68 -28 -39 -50 -8 -63 -27 -7 -33 -4 -89 -41 -23 -2 -40 -79 -85 -75 -45 -56 -20 -78 -61 -12 -76 -55 -46 -65 -32 -52 -80 -25 0
48 46 53 11 32 33 24 37 49 83 8 -17 -41 -87 -34 -50 -58 -78 -20 -26 -84 -81 0
56 69 71 21 54 77 19 68 30 41 26 14 1 51 48 4 83 70 28 16 65 5 38 75 61 33 62 50 57 8 42 44 58 87 12 34 -25 -45 -6 -10 -43 -89 -9 -18 -37 -17 -32 -46 -59 -88 -67 -90 -84 -72 -81 -11 -78 -52 -31 -3 -63 -73 -40 -7 -55 -29 -80 -36 -13 -2 -66 -27 -47 -15 -76 -64 -22 0
89 45 28 49 71 -61 -42 -88 -32 -48 -6 -9 -30 -83 -82 0
10 13 20 44 11 74 6 9 51 58 88 67 21 76 29 68 -49 -5 -26 -48 -72 -71 -4 -14 0
84 23 31 50 6 78 51 85 81 4 73 33 20 46 11 24 55 72 3 56 67 54 40 30 39 60 1 2 12 28 49 19 16 21 18 -47 -38 -90 -58 -79 -64 -5 -86 -13 -66 -63 -74 -17 -75 -57 -37 -65 -82 -9 -43 -77 -36 -88 -10 -35 0
67 12 40 85 51 88 86 43 57 1 77 22 64 50 15 8 76 46 63 53 69 79 38 13 16 87 73 74 21 -14 -75 -83 -84 -45 -5 -60 -19 -61 -90 -3 -70 -33 -71 -47 -26 -37 -10 -58 -78 -81 -29 -59 -48 -4 -49 -66 -31 -41 -39 -42 -9 -56 -17 -6 -20 -7 -44 -72 -89 -28 -55 -2 -34 -25 -36 0
39 43 72 7 66 85 -35 0
48 29 17 36 43 25 18 72 1 54 26 13 70 39 31 28 38 88 74 -87 -79 -44 -60 -63 -41 -71 -20 -90 -80 -76 -8 -30 -64 -9 -7 -27 -35 -73 -49 0
42 29 54 16 5 85 67 35 53 65 88 45 81 4 71 69 19 70 21 2 -24 -17 -49 -6 -8 -10 -9 -26 -72 -77 -43 -23 -79 -41 -56 -47 -48 -40 -11 0
49 47 77 28 37 90 7 88 15 55 8 23 30 78 38 1 -68 -35 -40 -32 -53 -74 -76 -82 -89 -67 -46 -48 -57 -25 -41 -27 -66 -14 -71 0
31 69 -81 -46 0
58 14 73 55 87 67 4 15 53 9 48 70 85 -66 -39 -7 -8 -24 -20 -26 -52 -36 -68 -77 -38 -60 -89 -3 -33 -47 0
27 73 75 4 87 46 59 38 69 81 64 71 5 8 25 53 68 49 15 43 36 28 41 50 76 88 78 7 2 1 51 12 17 21 23 67 -86 -10 -29 -16 -89 -30 -70 -82 -66 -60 -18 -72 -56 -61 -37 -44 -13 -26 -45 -80 -39 -57 -14 -65 -58 -3 -47 -24 -34 -84 -77 -20 -79 -9 -90 -63 -19 -6 -31 -54 -85 0
76 47 70 29 52 57 82 22 60 31 75 32 78 58 63 41 74 42 45 21 4 7 2 73 72 18 17 59 61 62 71 48 28 10 30 14 83 23 -12 -35 -40 -20 -46 -54 -19 -49 -68 -67 -15 -26 -34 -43 -24 -89 -86 -56 -16 -6 -90 -37 -84 -81 -85 -51 -39 -27 0
3 33 18 72 53 77 28 87 35 8 38 59 27 6 60 39 45 7 37 54 -57 -63 -14 -78 -88 -84 -24 -71 -4 -46 -58 -31 -41 -13 -23 -79 0
63 32 86 76 -88 -20 -55 0
36 83 42 87 10 37 66 45 70 90 52 27 40 72 22 58 11 50 63 18 59 85 16 29 7 62 23 74 49 46 67 15 60 6 30 89 33 -75 -61 -35 -13 -39 -68 -56 -82 -24 -17 -20 -8 -64 -1 -28 -48 -65 -31 -2 -21 -55 -9 -80 -3 -38 -32 -76 -81 -19 -69 -44 -47 -51 -79 -43 -34 -26 -5 -78 -14 -86 0
55 32 71 72 27 51 58 90 43 24 47 -25 -68 -54 -78 -61 -84 -9 -1 -39 -30 -21 -38 -20 -44 -26 0
81 82 87 77 37 -29 -36 -25 0
27 30 46 26 85 65 74 63 -47 -53 -50 -41 -29 -44 -9 -87 -24 -55 -54 0
70 52 75 78 68 90 39 28 44 45 23 40 26 85 11 54 14 71 32 27 65 56 86 42 10 59 6 1 50 88 77 51 18 76 38 62 69 22 63 30 -20 -9 -55 -3 -74 -31 -64 -41 -13 -35 -83 -33 -60 -48 -81 -79 -15 -67 -2 -16 -29 -87 -8 -36 -37 -21 -89 -84 0
37 63 59 25 3 8 83 36 18 28 12 5 9 21 84 78 13 23 51 30 73 62 89 15 27 19 6 16 2 32 82 50 45 71 65 33 55 -87 -68 -4 -76 -26 -69 -85 -43 -54 -88 -17 -66 -1 -35 -42 -41 -75 -90 -56 -80 -11 -77 -67 -34 -81 -64 -72 -49 -48 -39 -20 -47 -79 -24 -86 0
31 4 45 63 84 5 49 -38 -10 0
19 51 90 52 70 16 77 57 26 75 63 48 50 21 23 2 82 32 60 76 46 72 49 67 34 20 25 -27 -66 -79 -45 -11 -87 -17 -62 -43 -28 -89 -40 -73 -85 -4 -71 -83 -18 -61 -58 -35 -65 -41 -15 -47 -22 -81 -86 -12 -9 -5 0
58 49 -64 -41 0
15 75 1 62 31 5 49 40 36 86 71 80 41 69 70 20 2 37 23 29 13 -19 -6 -65 -81 -25 -12 -60 -82 -58 -52 -24 -88 -72 -59 -64 0
31 84 21 10 29 63 56 14 18 36 15 28 75 39 65 2 -8 -5 -88 -90 -86 -89 -45 -16 -20 -42 -17 -1 -58 -9 -41 -33 -34 -68 0
14 55 11 24 42 50 77 22 37 9 80 12 62 40 57 87 68 83 63 32 41 78 82 89 56 43 47 -7 -58 -1 -45 -10 -60 -28 -84 -79 -35 -44 -30 -33 -18 -5 -69 -13 -75 -67 -26 -53 -90 -31 -76 -49 -27 -59 -4 -2 -6 -20 -29 -8 -3 -71 -16 -86 -21 0
35 39 48 2 81 85 47 26 8 70 84 17 36 71 56 13 -53 -62 -22 -72 -43 -12 -7 -6 -23 -83 -27 -87 0
5 78 29 19 69 17 79 50 58 7 25 65 49 12 61 55 86 56 11 40 62 42 27 88 54 68 45 63 26 38 80 28 47 39 73 3 89 83 31 57 64 30 -10 -22 -18 -44 -43 -76 -72 -13 -84 -67 -33 -81 -24 -41 -60 -82 -77 -20 -32 -75 -53 -36 -15 -34 -16 -2 -87 -71 -74 -85 -90 -8 -21 -51 -6 -1 -52 -59 -4 -23 -9 -37 -14 -66 -70 -46 -48 0
54 77 87 41 58 12 33 23 84 24 28 52 73 86 82 66 35 47 19 43 31 48 68 44 50 59 37 56 9 13 -20 -17 -5 -79 -49 -60 -32 -55 -45 -88 -26 -51 -90 -36 -53 -16 -83 -4 -18 -57 -7 -8 -46 -81 -34 -72 -30 -29 -62 -1 -67 -27 -40 -64 -89 -85 -6 -75 0
81 14 66 59 89 18 79 -1 -43 -60 -20 -30 -62 -52 0
43 36 42 50 8 20 39 3 75 -62 -22 -83 -37 -25 -74 -38 -47 -49 -51 -29 -45 -5 -7 -14 -44 -87 -24 -18 -67 -60 -57 -77 0
5 83 88 13 2 -54 -17 -22 -34 0
55 25 28 70 33 66 2 73 85 69 41 8 29 20 30 35 14 45 89 37 87 54 5 11 88 21 38 24 77 9 27 10 82 63 86 32 78 34 4 64 67 36 12 72 44 90 74 -68 -15 -1 -51 -47 -52 -60 -13 -84 -26 -65 -61 -58 -80 -59 -39 -62 -76 -81 -7 -6 -23 -56 -79 -71 -3 -31 -16 -83 -40 -57 -50 -75 -43 -22 -42 -46 -17 -19 -49 -18 -48 0
14 19 6 69 54 39 32 46 64 15 31 55 50 51 70 13 25 79 86 16 44 23 26 33 85 72 87 41 -71 -28 -90 -60 -17 -40 -27 -57 -12 -74 -68 -4 -88 -7 -52 -9 -42 -76 -22 0
83 86 53 84 4 88 18 17 61 82 41 11 33 15 5 14 85 65 63 19 46 6 54 75 40 49 32 1 42 66 12 28 57 64 38 37 34 62 80 24 48 72 78 -8 -22 -67 -23 -25 -39 -30 -43 -58 -7 -3 -27 -16 -29 -87 -13 -70 -51 -35 -71 -2 -73 -69 -74 -44 -76 -36 -47 -56 -26 -50 -77 -59 -45 -9 -31 -81 -90 -52 -55 -10 -60 -89 0
32 67 48 9 72 88 78 79 52 53 2 6 51 17 42 64 66 16 21 5 -30 -3 -81 -55 -27 -19 -41 -12 -57 -83 -49 -89 -37 -8 -24 -54 -73 -38 -85 -71 -59 -75 0
82 14 5 13 86 45 52 11 44 70 53 71 24 66 -23 -39 -85 -50 -51 -73 -36 -77 -89 -4 -16 -31 -46 -90 0
12 17 53 -36 -75 -21 -34 -15 -79 0
22 17 90 5 12 41 33 35 44 18 59 36 9 2 32 72 49 89 88 56 53 6 29 14 40 74 70 21 47 42 50 -31 -37 -84 -81 -66 -65 -45 -76 -4 -27 -63 -64 -62 -55 -80 -46 -1 -7 -16 -67 -83 -34 -3 -60 -61 -52 -38 -75 -79 0
34 72 23 80 83 66 47 24 40 30 64 78 73 45 29 13 -52 -17 -46 -39 -3 -56 -2 -65 -51 -67 -12 -71 -88 -35 -37 -31 -42 -90 0
88 1 52 64 -43 -86 -77 -32 -13 -68 -50 -5 -17 -82 -9 -59 -54 -81 0
45 36 85 53 14 52 25 1 33 10 84 17 51 23 88 74 16 81 43 27 31 26 65 58 21 8 13 77 73 44 34 19 64 89 72 71 4 11 90 87 86 30 82 22 -12 -63 -76 -42 -5 -50 -79 -57 -48 -47 -28 -38 -75 -54 -7 -39 -41 -46 -20 -2 -62 -15 -61 -83 -69 -40 -68 -37 -18 -9 -80 -67 -59 -55 -66 -78 0
27 73 35 11 43 76 23 88 51 78 16 83 71 48 77 20 24 57 80 59 37 31 3 56 28 -17 -60 -47 -6 -19 -7 -45 -75 -84 -50 -2 -89 -34 -13 -55 -21 -61 -14 -63 -46 -64 -49 -4 -18 -40 -36 -53 -66 -12 -70 -39 -72 0
69 18 88 72 35 38 40 33 1 39 17 2 19 84 28 76 45 82 8 86 89 -90 -14 -52 -12 -58 -49 -78 -77 -29 -71 -60 -32 -54 -85 -51 -27 -67 0
50 56 90 65 2 7 79 12 9 25 16 82 63 38 10 86 44 73 8 68 36 34 59 61 66 19 6 37 5 28 30 1 -31 -24 -49 -41 -77 -33 -69 -14 -70 -48 -35 -43 -4 -87 -45 -60 -32 -52 -58 -51 -3 -74 -55 -85 -21 -11 -84 -15 -40 -27 -67 -88 -18 -22 -57 -20 -26 0
71 79 12 33 30 87 4 15 -45 -89 -68 0
84 -66 -48 0
77 64 46 33 55 27 5 73 32 42 41 51 81 36 17 60 2 14 76 85 74 72 1 19 7 25 37 71 56 69 79 86 80 -59 -54 -66 -70 -38 -26 -83 -34 -89 -82 -28 -62 -43 -84 -30 -29 -18 -52 -15 -40 -9 -13 -22 -65 -50 -58 -16 -67 -75 -48 -87 -3 -21 -63 -68 -35 0
76 37 69 -49 0
74 69 18 3 20 2 89 46 9 28 6 88 8 12 56 47 29 54 5 33 63 86 26 34 73 24 59 80 35 7 30 21 37 68 50 -53 -79 -42 -13 -81 -62 -22 -61 -78 -16 -48 -84 -31 -38 -25 -45 -10 -23 -43 -44 -65 -17 -76 -58 -4 -11 -90 -67 -75 -70 -57 -77 -71 -60 -19 -36 0
86 32 44 54 17 65 23 24 18 75 72 33 50 63 71 -14 -79 -74 -2 -87 -31 -10 0
54 27 14 35 1 42 16 21 7 39 -12 -46 -24 -11 -79 -73 0
18 53 14 64 11 66 74 72 49 62 48 34 52 68 21 7 78 30 46 83 26 45 57 31 23 86 25 89 60 1 56 5 81 80 15 -70 -51 -16 -10 -50 -84 -54 -29 -77 -12 -82 -40 -44 -47 -61 -36 -87 -28 -85 -33 -90 -75 -32 -79 -13 -39 -8 -9 -35 -4 -76 -55 -17 -27 -42 -71 -43 -22 -38 -58 -69 -19 -24 -3 -88 -65 -73 -2 -63 -20 -67 0
19 34 12 64 71 26 27 31 77 28 36 40 65 23 1 22 -4 -59 -84 -82 -25 -20 -69 -76 -74 -67 -14 -57 -53 0
48 8 82 72 70 4 62 40 61 9 35 14 2 39 28 50 -84 -27 -23 -26 -1 -5 -37 -3 -49 -17 -90 -83 -41 -76 -60 -67 -32 -79 -74 -45 -22 -57 0
26 10 35 25 84 53 44 -4 -31 -61 -71 0
65 44 39 64 85 27 49 5 57 32 15 1 82 18 26 19 24 20 81 16 74 68 9 41 10 30 51 89 75 38 12 80 8 59 60 42 14 13 11 71 25 45 78 2 54 6 33 58 62 34 83 55 -46 -35 -29 -48 -28 -23 -84 -52 -70 -61 -4 -40 -73 -79 -47 -66 -22 -88 -50 -86 -90 -72 -87 -3 -77 -63 -17 -36 -7 -31 -53 -43 -67 -56 0
10 85 27 75 2 64 32 15 1 11 8 82 87 79 30 17 40 72 55 23 3 28 46 86 70 66 84 48 33 78 39 9 65 19 12 25 50 -20 -53 -81 -80 -45 -56 -44 -31 -59 -49 -90 -57 -83 -6 -36 -38 -35 -43 -69 -61 -76 -42 -24 -63 -13 -21 -5 -73 -37 -74 -47 -67 -54 0
9 10 54 59 69 77 -25 -67 -36 -82 -51 0
8 87 21 33 66 16 47 34 13 43 20 64 28 77 46 50 70 83 45 63 55 48 76 12 44 32 82 81 24 53 14 52 58 86 37 88 6 38 79 -10 -17 -41 -57 -49 -60 -78 -80 -26 -3 -15 -84 -36 -27 -19 -65 -59 -22 -35 -39 -25 -40 -2 -31 -18 -90 -4 -61 -1 -62 -30 -69 -5 -11 0
49 26 89 23 50 76 3 83 35 42 60 81 5 17 30 38 28 19 14 39 20 -85 -70 -45 -15 -6 -67 -22 -8 -9 -55 -64 -10 -13 -61 -40 -33 -56 -71 -18 -78 -34 -21 -53 -73 -32 -7 0
31 66 39 76 7 56 57 43 28 8 51 45 11 42 62 12 -24 -38 -85 -61 -54 -4 -46 -34 -69 -25 -55 -86 -1 -52 -64 0
68 12 28 79 49 70 63 9 17 59 73 48 6 14 5 24 40 3 16 34 45 72 4 36 89 32 23 39 41 85 61 80 71 69 67 88 56 38 1 27 21 26 13 -8 -87 -46 -42 -18 -15 -44 -37 -55 -75 -20 -50 -64 -54 -35 -52 -82 -62 -51 -19 -81 -30 -25 -74 -31 -11 -65 -83 -2 -66 -58 -57 -47 0
4 45 67 39 2 35 8 74 37 79 43 40 16 44 68 3 41 17 71 78 19 15 7 58 13 52 63 -57 -76 -88 -20 -14 -70 -46 -12 -48 -54 -81 -38 -51 -85 -59 -47 -73 -25 -24 -21 -69 -32 -42 -53 -61 -34 -65 -75 -72 0
9 70 26 50 2 58 44 24 4 -35 -43 -89 -37 -42 -7 -27 0
39 49 11 56 48 27 69 55 31 73 52 9 12 47 6 64 86 68 58 38 83 53 61 35 79 20 18 87 54 36 84 72 89 10 8 37 45 14 3 16 -63 -67 -4 -17 -32 -30 -82 -44 -75 -22 -25 -46 -65 -15 -7 -1 -59 -90 -57 -80 -74 -29 -43 -34 -62 -19 -23 -13 -70 -77 -78 -60 -71 -85 -40 -33 0
55 76 -36 -42 0
4 38 39 18 83 48 19 57 22 80 86 43 35 2 77 85 79 65 54 31 7 8 10 45 16 84 82 87 11 72 89 61 41 25 30 63 70 67 59 78 55 44 60 50 6 62 -33 -23 -88 -66 -73 -71 -26 -49 -51 -29 -36 -1 -69 -46 -12 -17 -24 -40 -34 -53 -42 -64 -90 -37 -81 -56 -13 -32 -76 -28 -14 -68 -52 -15 -47 -3 -75 -74 -9 -20 -5 -58 -21 0
90 44 71 15 82 39 62 42 73 -74 -8 -21 0
86 52 12 13 6 17 10 66 69 51 81 2 26 49 60 38 15 30 88 34 -57 -47 -4 -25 -72 -68 -14 -27 -42 -16 -65 -44 -74 -84 -8 -79 -19 -40 -24 -11 -85 -73 -23 -50 -7 -61 -5 -89 -35 -3 -70 -87 0
78 90 55 25 11 66 89 9 39 41 34 32 42 49 38 3 74 64 12 29 8 65 43 63 61 69 71 50 22 36 56 84 2 24 26 80 87 33 14 7 82 -47 -1 -27 -37 -75 -58 -52 -28 -31 -86 -60 -77 -6 -67 -35 -10 -68 -83 -19 -18 -70 -48 -72 -44 -4 -59 -30 -20 -45 -46 -85 -5 -54 -62 -13 -16 -51 -57 -21 0
44 58 40 39 85 67 -52 -34 0
14 42 62 57 2 40 36 17 29 9 8 81 24 74 73 41 75 38 1 7 89 49 28 86 55 25 56 16 60 84 65 11 4 3 35 33 85 18 10 43 48 27 -21 -26 -37 -12 -5 -47 -44 -64 -15 -19 -23 -88 -6 -83 -50 -58 -20 -80 -76 -67 -32 -30 -31 -45 -54 -13 -51 -72 -59 -63 -82 -71 -90 -68 -69 -34 -79 -39 -53 -77 -52 -66 -22 -46 -61 -87 -70 0
7 73 40 29 67 28 71 54 81 47 21 79 3 88 20 65 16 85 43 38 24 59 61 46 63 78 75 6 52 42 49 19 76 89 68 -50 -66 -17 -87 -58 -86 -8 -18 -82 -90 -37 -11 -12 -74 -83 -32 -44 -72 -84 -39 -27 -48 -15 -53 -77 -1 -35 -26 -34 -14 -41 -2 -10 -70 -33 -80 -4 -30 -45 -9 0
87 28 21 24 53 12 -76 -73 -77 -63 0
56 16 27 48 42 79 1 34 9 81 28 15 3 74 45 31 14 13 23 73 12 85 77 89 17 80 53 5 22 41 36 47 82 -6 -59 -18 -43 -20 -11 -40 -63 -64 -21 -44 -71 -57 -76 -88 -39 -55 -84 -7 -33 0
88 13 32 45 2 69 82 53 75 5 72 71 39 4 22 46 11 67 30 24 60 1 3 37 38 73 6 20 80 -21 -16 -61 -90 -17 -49 -44 -34 -8 -50 -31 -14 -64 -33 -41 -56 -86 -55 -78 -79 -7 -52 -36 -27 -29 -54 -40 -84 -81 -25 -42 -28 -59 -9 0
56 85 64 35 40 29 39 41 54 1 73 82 87 70 57 71 22 80 42 52 30 79 7 14 68 34 15 3 44 24 60 20 37 49 55 48 33 13 6 27 -23 -43 -88 -59 -63 -86 -28 -2 -74 -76 -5 -61 -78 -83 -31 -90 -11 -89 -47 -25 -10 -32 -62 -84 -45 -18 -69 -72 -67 -53 -12 -58 -66 -9 -26 -19 -77 -75 -46 -38 -65 -50 -21 -17 -8 -36 -81 0
49 68 27 11 3 9 38 54 4 17 26 71 56 59 90 43 88 20 2 70 82 7 18 15 47 80 89 69 12 50 41 46 87 13 23 74 19 -28 -85 -35 -14 -36 -61 -5 -53 -6 -39 -44 -32 -21 -24 -78 -34 -40 -64 -8 -73 -65 -76 -48 -16 -62 -57 -37 -33 -25 -66 -72 -86 -58 -45 0
53 62 16 30 -44 0
46 25 3 64 7 47 72 59 52 80 12 21 67 35 62 60 1 68 20 82 87 65 58 50 -10 -63 -66 -11 -17 -79 -19 -22 -15 -78 -56 -43 -86 -74 -75 -9 -37 -51 -16 -83 -54 -69 -90 -6 -38 -32 -39 0
60 36 25 84 29 83 89 4 9 6 17 90 15 78 53 81 38 74 57 39 40 14 19 -13 -28 -5 -46 -76 -67 -50 -85 -33 -44 -54 -12 -82 -56 -72 -2 -22 -42 -68 -26 -11 -79 -61 -31 -77 -37 -23 -69 -3 -47 -8 -86 0
-22 -76 0
39 62 76 31 37 26 75 70 46 67 52 40 80 23 7 63 14 79 88 85 12 21 38 41 13 71 54 28 1 53 72 27 64 -66 -55 -51 -17 -3 -86 -73 -81 -59 -22 -30 -18 -34 -36 -65 -44 -58 -56 -25 -74 -11 -24 -69 -89 -6 -45 -9 -32 -16 -15 -49 -47 -68 -61 -48 -82 -29 -8 -5 -57 -90 -19 -42 -33 -4 -60 -83 0
34 23 51 26 27 48 15 18 5 90 3 46 49 7 11 16 40 54 44 74 82 88 13 58 66 2 65 10 62 50 52 6 84 14 38 -25 -72 -85 -17 -89 -60 -79 -70 -75 -73 -36 -32 -67 -71 -4 -41 -33 -83 -76 -42 -87 -29 -53 -55 -56 -24 -43 -21 -1 -63 -80 -61 -68 0
22 2 47 59 89 57 84 60 4 13 12 30 10 50 54 58 26 14 73 40 76 41 37 29 16 86 83 42 74 -34 -43 -82 -44 -53 -11 -49 -38 -61 -87 -52 -75 -15 -68 -80 -63 -39 -85 -51 -67 -66 -18 -65 -3 -31 0
64 81 15 60 85 36 1 53 30 40 7 58 88 73 3 82 20 71 90 72 19 89 54 -45 -57 -84 -23 -25 -9 -21 -11 -46 -66 -79 -34 -77 -59 -10 -70 -38 -22 -4 -76 -37 -41 -6 -24 -83 -8 -35 -65 -42 -68 0
75 22 27 67 59 23 10 49 26 15 85 29 5 82 20 69 54 16 6 7 51 9 61 48 32 25 37 76 72 -64 -84 -40 -41 -66 -71 -74 -52 -63 -24 -46 -78 -60 -50 -38 -18 -87 -68 -44 -21 -14 -45 -31 0
62 18 63 45 4 85 83 86 44 38 25 82 17 -90 -37 -56 -57 -68 -27 -15 0
28 37 39 58 90 18 34 35 54 25 57 3 76 20 2 87 27 26 22 42 67 11 73 78 70 68 17 53 63 15 66 83 71 45 13 -75 -61 -89 -23 -77 -65 -56 -40 -86 -47 -10 -30 -49 -85 -69 -7 -59 -19 -5 -62 -46 -38 -51 -12 -43 -8 -81 -84 -16 -50 -9 -80 0
59 43 4 78 31 77 15 44 8 9 42 24 11 38 47 88 -3 -87 -16 -53 -21 -25 -35 -61 -7 -45 -73 -84 0
10 39 57 1 49 54 45 32 34 55 3 56 -20 -25 -15 -66 -12 -72 0
39 49 15 30 -22 -29 -57 -88 -55 -70 -21 -24 0
3 21 58 18 49 85 60 72 34 87 -38 -56 -27 -25 -11 -2 -88 -80 -6 -29 -37 -43 -57 0
27 62 18 41 79 52 9 60 64 78 87 80 5 90 23 2 51 13 69 14 84 66 -63 -36 -40 -34 -82 -56 -8 -12 -31 -35 -76 -1 -22 0
71 74 7 30 13 21 48 14 81 68 86 72 79 17 10 83 58 52 6 55 5 35 47 65 43 31 82 76 61 50 90 38 25 -64 -27 -26 -2 -69 -39 -40 -77 -24 -85 -80 -57 -33 -60 -8 -56 -46 -84 -11 -9 -19 -1 -4 -45 -44 -18 -51 -73 -28 -37 -32 0
82 76 36 66 46 40 39 84 77 64 61 80 49 54 20 86 85 15 41 83 65 44 2 90 31 29 73 38 10 30 34 -17 -52 -12 -22 -4 -48 -50 -72 -88 -67 -70 -16 -45 -21 -5 -27 -55 -8 -11 -60 -63 -79 -57 -33 -75 -43 -13 -71 -26 -62 -14 -6 -7 -9 -81 -89 -87 -18 -3 0
57 19 83 42 32 31 4 89 36 71 18 75 29 35 52 47 56 11 58 82 78 23 49 59 90 22 62 34 64 61 16 10 65 -85 -70 -25 -54 -26 -73 -50 -3 -30 -76 -5 -48 -7 -80 -27 -44 -24 -81 -66 -55 -88 -21 -37 -2 -41 -60 -43 -63 -1 -17 -74 -15 -69 -9 -6 -68 -20 0
89 62 59 87 66 56 46 24 19 65 68 26 32 6 7 51 8 27 2 22 60 17 35 15 50 18 70 20 12 67 64 84 76 41 52 14 77 88 49 47 -1 -29 -4 -34 -23 -40 -58 -86 -54 -36 -39 -30 -71 -11 -10 -75 -81 -45 -73 -85 -43 -63 -74 -13 -61 -48 -37 -38 -83 -3 -42 -31 -57 -90 -79 0
26 8 61 31 88 30 62 66 37 19 53 58 6 49 21 17 3 9 22 45 12 14 36 57 70 20 75 16 10 29 27 78 87 90 51 43 11 55 28 32 13 68 15 -60 -48 -79 -5 -69 -56 -67 -72 -65 -52 -35 -46 -1 -23 -77 -89 -64 -73 -18 -47 -44 -39 -84 -24 -85 -76 -34 -40 0
69 1 27 40 49 29 13 68 60 30 71 25 19 80 18 82 5 63 34 8 11 72 17 4 39 2 9 7 70 47 56 66 85 64 37 42 45 3 55 -20 -53 -31 -59 -88 -28 -26 -89 -76 -54 -32 -14 -52 -51 -62 -77 -36 -46 -90 -43 -57 -15 -16 -81 -24 -73 -86 -22 -48 -65 -74 -79 -33 -78 -10 -67 -44 -84 -87 -6 -58 -21 -61 -50 -35 0
82 86 68 72 65 -39 -26 -33 -77 -31 -19 0
87 84 30 88 15 89 11 29 77 37 61 7 35 8 31 49 -71 -68 -19 -50 -45 -38 -67 -64 -25 -56 -48 -5 -27 -1 -53 0
11 48 71 53 86 37 57 87 27 33 9 24 90 52 41 55 88 32 -35 -1 -45 -25 -78 -29 -68 -65 -44 -26 -13 -16 -10 -12 -39 -89 -40 -62 0
75 17 44 53 49 47 51 3 66 5 30 6 24 45 71 15 59 85 56 22 67 4 70 60 25 69 61 -42 -16 -82 -73 -9 -20 -55 -77 -32 -13 -79 -26 -40 -86 -21 -52 -58 -11 -41 -54 -64 -23 -83 -62 -2 -89 -31 -50 -8 -27 -65 0
56 88 7 41 60 64 38 31 26 14 57 32 15 1 22 51 90 21 6 70 34 17 62 86 42 35 83 55 53 81 54 24 48 -87 -20 -85 -13 -43 -19 -78 -25 -10 -82 -40 -33 -30 -47 -5 -50 -46 -75 -11 -63 -4 -52 -18 -3 -36 -76 -74 -79 -68 -45 -9 -65 -69 -89 -77 -67 -2 -72 0
14 10 46 71 40 73 7 26 18 34 9 -68 -60 -45 -56 -11 -28 -39 -30 -59 -43 -4 -31 -16 -87 0
86 10 8 47 15 14 67 44 16 20 36 26 46 48 87 7 37 52 71 70 42 60 89 61 56 24 23 76 12 18 17 75 5 49 81 11 13 -74 -4 -84 -43 -63 -62 -72 -3 -28 -27 -90 -6 -68 -40 -39 -78 -38 -35 -9 -45 -83 -82 -66 -31 -22 -30 -32 -53 -77 0
35 81 70 89 75 43 10 56 55 63 67 28 79 58 5 12 40 41 18 11 31 66 84 13 -57 -6 -34 -83 -2 -52 -24 -36 -3 -80 -30 -59 -32 -51 -68 -49 0
17 6 28 86 65 71 32 29 60 27 81 54 85 59 16 43 78 87 13 50 79 23 8 35 64 80 88 18 25 34 31 19 42 9 30 21 75 76 -36 -82 -1 -72 -40 -84 -49 -37 -10 -44 -2 -33 -11 -68 -45 -90 -67 -56 -83 -57 -69 -89 -70 -41 -52 -4 -5 -74 -58 -46 -26 -61 -62 -77 -7 -14 -73 -47 -51 -3 -39 -24 -53 -63 -12 -48 -38 -22 0
24 30 55 31 77 26 41 40 23 3 15 83 51 48 6 45 84 60 14 82 78 2 12 70 49 7 80 -87 -47 -33 -21 -35 -66 -89 -13 -37 -17 -56 -8 -86 -4 -73 -54 -58 -20 -22 -18 -53 -10 -59 0
68 56 51 89 50 20 43 76 6 7 59 63 66 45 74 4 37 3 5 28 -80 -54 -21 -10 -88 -31 -83 -15 -73 -70 -38 -55 -71 -16 -25 -44 -9 -85 -11 0
51 12 4 63 54 33 38 62 48 27 81 60 31 85 35 28 50 79 73 25 89 70 26 78 41 14 -75 -16 -8 -29 -49 -55 -86 -40 -18 -84 -65 -45 -1 -3 -22 -43 -88 -56 -46 -34 -39 -37 -80 -24 0
40 59 64 4 67 37 29 42 5 27 49 45 70 33 68 12 -15 -85 -77 -73 -11 -53 -48 -25 -47 -38 -60 -81 -14 -24 -8 -21 0
16 45 35 83 29 80 72 66 22 71 44 49 38 46 10 26 50 64 74 25 78 6 40 17 32 28 4 36 67 69 -90 -8 -39 -5 -52 -23 -7 -48 -56 -18 -12 -51 -54 -59 -2 -87 -14 -9 -82 -86 -19 -3 -31 -70 -34 -15 -13 -81 -84 -37 -88 -85 -27 -43 -63 -33 -58 -76 -47 -79 -11 0
62 56 18 77 47 45 4 23 6 5 37 41 38 24 1 74 69 34 19 27 60 59 26 80 17 -22 -9 -87 -79 -63 -81 -11 -49 -86 -58 -40 -14 -29 -71 -48 -10 -65 -25 -36 -72 -89 -7 -16 -3 -39 -90 -73 -78 -67 -61 -28 -42 0
39 86 31 17 5 87 57 30 27 28 44 68 47 37 38 7 2 23 60 41 49 76 -19 -84 -89 -53 -52 -12 -72 -13 -33 -34 -43 -18 -73 -90 -66 -46 -58 -81 -71 -78 -20 -75 0
47 34 42 46 40 81 10 37 30 13 75 66 9 6 69 3 70 33 38 44 26 85 77 62 24 35 41 -58 -23 -48 -52 -55 -65 -31 -88 -78 -25 -22 -51 -20 -53 -83 -2 -17 -27 -16 -68 -18 -89 -1 -49 -73 0
21 38 60 1 64 32 43 78 -36 -88 -13 -33 -10 -76 0
17 15 39 46 37 -71 -87 -13 -27 0
57 16 48 64 19 43 68 41 46 72 40 26 59 15 55 10 30 23 28 71 -22 -29 -6 -61 -51 -65 -84 -87 -33 -89 -66 -73 -25 -74 -58 -85 -13 -8 -47 -18 -31 0
77 0
64 67 56 -76 -19 0
74 1 68 13 44 50 73 4 19 6 45 40 8 29 36 84 38 27 69 9 30 49 17 60 37 42 66 21 18 71 59 57 20 12 -80 -58 -46 -16 -77 -34 -82 -25 -32 -56 -62 -35 -64 -24 -39 -28 -79 -43 -10 -33 -78 -52 -67 -76 -72 -14 -23 -61 -3 -85 0
57 22 37 24 35 10 52 8 79 78 46 56 58 23 38 71 -27 -72 -11 -42 -18 -5 -82 -39 -49 -47 -13 -51 -65 -45 -62 -74 -9 -60 -48 -73 -40 -2 0
1 63 59 71 58 42 77 13 52 88 89 4 74 35 19 5 14 20 31 57 67 -56 -37 -53 -7 -64 -32 -8 -24 -66 -15 -60 -29 -76 -25 -2 -9 -23 -43 -75 -46 -18 -84 -27 -86 -38 -39 -69 -87 -61 0
11 71 19 33 20 42 77 48 21 61 41 83 18 27 49 23 39 30 -25 -4 -64 -51 -63 -2 -53 -66 -62 -58 -29 -47 -35 -10 -57 -8 -7 -68 -17 -69 -14 -16 -82 -52 0
48 62 1 86 4 41 73 69 46 11 64 58 80 26 -29 -59 -5 -65 -39 -88 -31 -81 -25 -70 -8 -85 -45 -10 -43 0
36 76 71 56 16 4 17 45 28 68 64 21 80 25 51 6 1 60 47 15 89 72 83 14 70 69 57 75 29 86 9 40 -7 -5 -90 -50 -37 -3 -38 -74 -24 -30 -43 -82 -35 -73 -48 -39 -20 -67 -19 -53 -11 -13 -65 -66 -77 -10 -58 -12 0
15 57 75 87 45 58 64 36 2 24 68 78 20 63 48 33 43 66 42 79 21 34 69 12 72 6 -41 -38 -71 -26 -25 -3 -39 -10 -1 -56 -16 -17 -4 -13 -89 -29 -19 -61 -47 -85 -30 -50 -77 -27 -88 -83 -73 -46 -70 -9 -67 -52 -7 0
25 38 4 9 88 84 80 22 12 15 68 74 24 64 18 35 76 36 45 27 48 14 41 28 90 67 73 63 7 54 61 6 59 46 31 51 -17 -29 -21 -19 -37 -55 -23 -13 -75 -16 -49 -2 -8 -89 -26 -1 -11 -3 -86 -77 -83 -44 -56 -69 -70 -62 -72 -71 -10 -40 -39 -66 -32 -81 -50 -79 -43 -57 -53 -85 -20 -60 -42 -34 -65 -5 -30 -52 0
32 28 -18 -37 -8 0
37 1 23 51 24 32 65 14 26 3 83 4 64 77 63 31 47 71 2 -46 -73 -76 -38 -39 -82 -11 -27 -50 -74 -89 -84 -60 -80 -79 -69 -33 -61 -25 -86 -28 -35 -5 0
83 35 59 17 32 30 71 24 76 38 39 47 65 90 36 75 22 1 49 57 60 66 68 14 -21 -20 -7 -63 -45 -31 -40 -26 -12 -33 -43 -87 -77 -2 -46 -51 -42 -70 -16 -13 -86 -10 -27 -69 -19 -78 -74 -85 -18 -88 -37 -28 -80 -56 -54 0
15 33 73 24 40 20 29 53 50 74 58 47 83 63 25 32 30 70 37 78 49 60 64 44 31 59 36 10 79 85 27 11 66 52 82 88 54 21 -41 -56 -65 -67 -72 -55 -26 -8 -90 -17 -6 -13 -81 -12 -69 -34 -38 -71 -39 -84 -3 0
27 37 45 84 26 62 77 40 42 53 14 12 66 90 60 63 44 69 36 28 15 52 11 64 75 56 10 88 -85 -82 -57 -50 -71 -55 -59 -61 -65 -83 -70 -16 -79 -80 -18 -32 -3 -8 -76 -21 -9 -49 -74 0
30 72 51 83 78 50 53 80 79 41 37 48 59 32 27 10 84 64 74 31 24 52 57 21 55 17 45 -70 -81 -29 -76 -47 -4 -89 -1 -28 -19 -6 -87 -40 -34 -77 -56 -73 -46 0
71 35 40 38 61 64 60 41 12 80 33 -85 -14 -3 -18 -75 -72 -7 -30 -88 -77 -42 -21 -23 -62 -86 -57 0
46 5 71 29 24 37 83 87 2 11 48 79 88 86 1 43 63 28 66 62 25 65 3 72 47 14 78 -57 -10 -27 -34 -38 -89 -20 -80 -7 -50 -8 -6 -74 -42 -64 0
5 29 70 61 9 39 54 26 57 72 19 59 76 90 33 7 21 45 81 58 18 43 47 50 83 84 87 62 28 13 11 88 17 64 30 51 82 60 53 74 -38 -52 -46 -12 -49 -3 -22 -68 -32 -24 -20 -40 -63 -79 -86 -37 -55 -4 -85 -78 -1 -73 -42 -6 -2 -31 -25 -56 -36 -69 -16 -14 -44 -67 -77 -23 -66 -8 -71 -89 -34 -65 -75 -10 0
70 47 55 89 46 87 45 53 42 11 12 -43 -49 -28 -15 -48 -31 -90 -86 -69 0
24 70 67 76 25 55 26 18 47 40 49 33 46 57 19 31 66 89 77 56 79 50 4 35 39 15 27 83 72 84 -1 -2 -48 -9 -38 -29 -37 -74 -52 -81 -87 -21 -82 -6 -42 -69 -53 -51 -54 -65 -23 -7 -11 -88 -60 -13 -41 -68 -34 -75 -78 -86 -59 -30 -44 -63 0
27 45 72 63 5 11 35 -90 -88 -18 -59 -70 -22 -89 -1 0
36 26 11 67 41 22 29 28 87 85 71 61 74 15 18 40 1 39 77 73 31 57 54 90 30 81 89 33 88 42 68 58 43 46 -82 -12 -65 -53 -56 -47 -84 -83 -70 -19 -6 -24 -14 -20 -2 -80 -44 -8 -13 -78 -3 -27 -38 -52 -51 -48 0
12 4 18 22 38 5 84 44 83 32 88 39 75 70 15 82 53 52 25 60 19 71 6 76 33 77 51 50 34 47 46 72 28 61 27 -2 -64 -87 -81 -57 -20 -9 -79 -1 -8 -69 -78 -36 -30 -43 -49 -16 -65 -59 -48 -17 -11 -73 -90 -55 -23 -58 -89 -80 0
21 20 49 46 57 22 68 38 84 10 35 19 79 51 74 18 25 71 76 17 66 3 30 59 44 14 42 5 45 39 87 81 70 37 58 34 -7 -77 -2 -31 -89 -24 -6 -23 -26 -8 -12 -90 -48 -27 -83 -28 -60 -55 -47 -69 -16 -52 -61 -67 -65 -32 -15 -75 -82 -9 -86 -53 -80 -72 -36 -29 -41 -4 -40 -64 -88 -56 -11 -85 -54 -50 -1 -63 -33 0
90 -34 0
73 21 76 68 63 40 43 29 42 51 2 20 64 83 7 18 6 4 33 9 47 35 10 17 67 8 78 38 14 50 60 56 34 5 22 90 82 45 49 23 66 -57 -62 -61 -25 -30 -46 -75 -26 -37 -72 -58 -74 -31 -79 -12 -13 -19 -77 -27 -86 -1 -28 -24 -69 -85 -11 -87 -84 -55 -15 -71 -48 -65 0
61 28 7 31 79 55 6 70 68 2 66 46 1 20 72 17 85 41 43 9 48 39 62 16 21 18 33 34 81 88 83 59 57 84 12 -27 -65 -19 -23 -51 -13 -82 -54 -56 -11 -45 -73 -38 -49 -60 -63 -32 -69 -15 -50 -42 -53 -87 -14 -90 0
39 24 44 73 63 27 62 85 18 7 46 34 79 65 29 89 67 72 88 90 41 61 32 42 15 37 66 81 47 36 87 33 -25 -74 -82 -6 -30 -69 -19 -75 -23 -16 -2 -4 -71 -8 -45 -1 -13 -70 -55 -57 -12 -56 -28 -51 -54 -77 -59 -50 -17 -3 -80 -49 -9 -40 -58 -43 -84 -53 -76 -35 -26 -20 0
70 21 56 42 10 45 19 88 9 85 52 44 51 63 48 39 40 8 16 -74 -1 -28 -13 -62 -84 -41 -83 -49 -22 -18 -67 -24 -3 -90 -7 -53 -82 -60 -25 -26 -87 -65 -11 -73 -12 -54 -2 -14 0
32 45 28 22 73 44 64 81 69 25 31 38 37 83 82 77 59 16 84 60 8 -47 -17 -86 -80 -26 -39 -57 -65 -10 -70 -66 -88 -63 -56 -68 -71 -4 -3 -14 0
85 4 26 86 3 6 29 23 31 43 5 27 10 52 56 77 33 79 18 51 -17 -55 -9 -35 -41 -90 -7 -8 -19 -66 -49 -34 -74 -37 -42 -24 -73 -78 -81 -82 -38 -13 -47 -70 -57 -16 -53 -22 -63 -83 -84 0
36 60 83 47 61 -6 -81 -27 -82 -8 -28 0
82 8 69 28 88 83 90 49 89 36 24 81 -27 -55 -75 -29 -80 -35 -87 -9 0
22 59 18 40 72 61 88 78 27 32 15 47 42 39 9 65 71 33 51 25 43 49 34 3 20 21 6 56 14 63 74 36 2 87 8 44 50 -4 -30 -57 -75 -26 -67 -45 -41 -29 -58 -12 -54 -80 -81 -28 -62 -46 -16 -89 -90 -77 -76 -48 -35 -82 -38 -79 -64 -68 -66 -19 0
17 24 81 29 76 42 13 -43 -1 -25 -61 -11 0
65 3 33 76 26 86 9 36 88 66 51 90 25 77 29 41 73 52 55 12 89 63 23 -58 -83 -49 -81 -45 -38 -60 -72 -10 -57 -1 -78 -30 -53 -50 -80 -16 -18 -35 -69 -13 -67 -85 -56 -82 -6 0
15 3 66 65 90 42 76 77 85 31 51 36 54 25 24 46 2 84 35 67 19 57 89 81 47 20 86 58 -32 -40 -12 -37 -52 -4 -27 -70 -1 -11 -55 -43 -61 -28 -71 -69 -16 -41 -5 -33 -82 -34 -13 -38 -75 -63 -88 -45 -23 -78 -22 -17 0
34 51 61 36 -11 -88 -64 -81 -80 -47 -17 0
50 72 38 3 36 47 16 85 66 78 84 56 70 10 13 23 32 12 82 65 18 29 77 7 4 48 76 44 6 71 83 52 17 59 58 35 63 39 15 69 27 37 53 -49 -31 -8 -68 -88 -19 -21 -81 -46 -62 -24 -74 -45 -87 -42 -67 -11 -43 -20 -61 -41 -51 -80 -1 -30 -14 -73 -9 -79 -40 -86 -90 -64 -60 -54 -26 -28 -33 -57 -22 -75 -5 -2 -89 0
47 66 25 13 20 46 90 69 37 68 31 55 74 4 88 48 83 49 9 58 35 27 60 16 24 43 19 -50 -1 -53 -21 -17 -44 -89 -28 -23 -5 -65 -87 -11 -82 -86 -6 -22 -26 -10 -30 -79 -77 -18 -36 -51 -67 -57 -2 -39 -62 -12 -54 -73 -80 -70 -45 -15 -41 -52 0
54 37 53 19 90 4 61 18 21 65 64 -11 -85 -45 -16 -26 -79 -32 -17 -55 -43 -82 -62 -5 0
14 80 7 54 83 15 34 70 6 19 3 63 28 11 59 16 40 56 69 33 -61 -23 -85 -67 -86 -38 -53 -44 -76 -18 -51 -89 -81 -71 0
64 41 7 52 36 75 21 78 90 63 53 66 39 1 76 48 51 83 19 35 69 18 25 37 33 65 54 -8 -31 -45 -82 -62 -32 -44 -20 -17 -60 -58 -16 -42 -81 -87 -49 -73 -14 -77 0
7 22 33 70 6 8 11 19 86 51 56 24 40 15 9 87 42 63 14 13 80 50 41 68 73 -18 -74 -79 -23 -28 -44 -45 -64 -77 -60 -38 -65 -46 -85 -4 -54 -34 -26 -57 -66 -17 -16 -88 -30 0
55 58 60 23 82 20 70 52 10 73 69 35 54 43 46 48 89 40 51 75 27 59 30 61 47 74 21 31 32 81 -15 -90 -41 -9 -38 -39 -42 -2 -14 -17 -4 -49 -25 -68 -22 -87 -28 -53 -11 -19 -45 -3 -64 -37 -71 -12 -6 -85 -5 -50 -7 -16 -29 -84 -1 -66 -65 0
65 38 32 68 62 23 52 46 37 40 -15 -18 0
32 19 65 45 79 61 41 38 51 34 -84 -25 -87 -20 -6 -10 -24 -2 -11 -75 0
75 10 9 33 35 44 28 83 50 16 73 38 80 1 54 48 40 77 85 46 11 -14 -76 -49 -57 -32 -34 -74 -13 -22 -15 -43 -58 -67 -60 -8 -51 -47 -6 -53 -64 -79 -84 -7 -90 -17 -3 0
51 18 3 14 89 35 37 75 56 85 82 13 24 63 12 61 81 48 64 25 19 76 66 72 70 39 20 34 88 26 50 73 9 42 74 21 2 80 -78 -16 -77 -22 -36 -43 -86 -55 -38 -71 -31 -33 -84 -11 -40 -58 -83 -5 -7 -4 -29 -68 -30 -17 -67 -59 -47 -28 -8 0
82 23 85 9 17 76 38 54 49 52 15 44 84 14 19 62 12 67 31 51 70 29 -18 -86 -28 -36 -57 -35 -6 -48 -40 -42 -50 -43 -64 -21 -90 -3 -56 -24 0
67 30 44 28 75 9 49 19 22 6 83 12 -54 -85 -90 -89 -51 -76 -17 -74 -84 0
27 44 54 73 2 18 52 61 32 70 42 72 1 31 20 13 79 55 68 58 25 74 -66 -30 -62 -82 -69 -29 -50 -41 -67 -34 -8 -10 -49 -7 -53 -59 -19 -65 -77 -33 0
11 66 88 17 48 14 10 18 41 27 1 70 33 87 7 51 71 6 69 3 61 31 16 42 15 55 39 63 85 62 60 90 -8 -64 -45 -43 -67 -52 -76 -25 -21 -44 -56 -82 -75 -46 -74 -13 -19 -59 -4 -83 -54 -73 -29 0
25 1 81 11 70 2 76 85 41 56 80 6 54 61 52 30 78 24 23 13 36 73 59 58 69 47 17 66 39 79 4 42 8 35 -18 -46 -37 -62 -14 -29 -15 -77 -31 -20 -74 -57 -88 -55 -33 -40 -68 -43 -32 -89 -45 -16 -48 -26 -34 -87 0
57 80 79 60 78 90 69 59 38 52 70 72 -44 -5 -43 -68 -49 -30 -65 -74 -10 -13 -76 -54 -6 -28 -71 -67 0
68 41 49 23 15 77 90 16 82 57 72 27 51 28 22 76 37 56 64 9 13 60 14 39 19 74 -44 -83 -31 -38 -66 -84 -55 -29 -2 -62 -3 -80 -26 -79 -81 0
82 29 -60 -4 -90 0
29 80 43 38 6 2 74 -84 -18 -10 -62 -78 -9 -82 -22 -49 -42 -47 -67 -72 -20 -76 -27 -89 0
80 44 18 37 63 1 78 20 51 68 62 70 83 27 39 2 29 34 54 31 19 72 55 38 45 79 52 32 4 49 36 24 64 73 50 26 59 67 -16 -61 -23 -15 -11 -17 -77 -5 -71 -25 -8 -81 -28 -21 -89 -88 -3 -75 -65 -14 -6 -84 -42 -10 -56 -66 -33 -35 -53 -85 -47 -58 -76 -69 -46 -9 0
5 39 1 -7 0
38 59 11 19 50 27 6 31 69 57 66 80 62 51 71 73 63 85 37 30 8 56 83 28 12 14 -25 -55 -86 -20 -22 -42 -41 -43 -78 -16 -49 -68 -3 -54 -26 -21 -45 -76 -33 -64 -53 -70 -47 -2 -18 -84 -75 -82 -65 -1 -39 -44 -40 0
36 48 81 58 4 55 10 8 46 47 30 63 79 54 59 80 40 33 83 43 39 64 22 42 77 50 -56 -16 -31 -74 -68 -82 -60 -1 -20 -61 -62 -12 -28 -44 -9 -53 -76 -14 -19 -85 -32 -86 -11 -52 -89 -37 -65 -34 -84 -88 -23 -38 0
25 24 31 73 80 46 -63 -30 -75 -77 -84 0
29 27 88 58 85 28 37 14 11 68 47 83 90 73 33 9 87 8 76 77 40 49 84 61 48 -12 -66 -70 -38 -41 -36 -26 -79 -13 -86 -60 -51 -63 -34 -65 -53 -78 -21 -52 -42 -6 -22 -67 -44 -69 -19 -45 -35 -39 -2 -54 -59 -18 -20 -17 -57 -4 0
23 78 50 10 -87 -30 0
53 55 77 6 37 54 35 88 18 1 7 68 67 73 34 24 49 83 86 41 51 60 32 9 33 61 29 16 19 71 42 84 74 82 27 2 75 31 20 5 57 66 90 64 47 25 -40 -79 -8 -21 -12 -11 -43 -69 -58 -28 -17 -48 -22 -78 -62 -23 -81 -39 -80 -56 -89 -44 -52 -45 -4 -36 -63 -50 -59 -87 -76 -30 -85 -38 -65 0
44 34 1 24 17 26 76 61 5 2 69 43 35 75 14 25 77 74 23 10 68 48 87 9 36 39 82 -81 -42 -80 -56 -37 -28 -33 -31 -20 -30 -88 -86 0
8 77 86 74 69 63 42 84 81 59 9 80 40 41 6 4 5 25 65 48 24 49 15 7 51 83 34 55 19 46 78 75 44 16 -14 -31 -10 -71 -53 -52 -2 -60 -38 -64 -57 -82 -37 -73 -32 -11 -36 -30 -62 -17 -1 -67 -21 -70 -90 -18 -33 -54 -76 -50 -88 -28 -45 -79 -87 -13 -85 -3 -89 0
-53 -3 0
17 23 65 25 5 7 -29 -46 -45 -68 -55 -33 -53 -74 0
52 18 82 63 90 12 76 72 56 32 57 27 15 67 85 34 28 40 86 42 2 24 50 9 46 80 35 -23 -73 -44 -39 -69 -20 -62 -78 -65 -19 -4 -77 -64 -22 -84 -70 -75 -61 -59 -53 -36 -6 -13 -47 -45 -79 -29 -81 -83 -33 -37 -3 -43 -58 -31 -49 0
38 87 27 77 58 76 32 29 67 89 39 45 57 73 70 48 43 53 79 5 25 28 36 9 72 55 71 85 12 47 31 60 33 10 35 -40 -13 -3 -7 -74 -83 -1 -75 -15 -8 -56 -65 -23 -6 -42 -90 -18 -80 -82 -41 -22 -62 -61 -26 -51 -49 -2 -24 -84 -68 -88 -81 -63 -30 -37 -19 -78 0
40 45 60 47 22 79 12 38 6 4 55 24 42 17 35 66 90 51 36 77 27 67 20 -2 -5 -11 -3 -84 -53 -81 -61 -76 -8 -15 -52 -10 -78 -87 -69 -19 -63 -29 -7 -14 -85 -89 -82 -75 -43 -54 -73 -83 -86 -26 -18 -57 -72 -58 -13 0
27 49 55 46 13 76 26 8 17 60 62 70 84 75 42 19 12 11 36 33 38 51 77 71 79 29 86 41 -6 -45 -68 -67 -57 -52 -9 -7 -20 -65 -15 -30 -83 -78 -14 -40 -24 -35 -31 0
83 63 11 59 22 61 19 30 82 10 72 53 13 2 27 6 64 70 69 16 51 34 18 23 73 87 31 38 46 50 32 33 17 28 84 65 77 3 -88 -86 -1 -78 -43 -35 -67 -80 -74 -47 -44 -71 -68 -75 -85 -39 -62 -90 -48 -89 -45 -56 -36 -29 -79 -76 -25 -24 -57 -14 -7 -40 -4 -81 -58 -5 -20 -9 0
37 56 63 26 76 39 5 16 82 80 73 1 -4 -36 -19 -44 -6 -15 -85 0
12 73 64 68 90 25 30 55 32 81 6 19 35 88 74 49 80 21 23 7 2 77 47 39 -62 -67 -42 -14 -22 -82 -76 -13 -56 -84 -65 -52 -66 -26 -48 -43 -71 -1 -31 -20 -69 -17 -57 -34 -29 -60 0
23 19 60 13 75 76 2 66 52 84 65 11 63 43 61 12 32 88 83 80 68 18 27 71 22 74 35 44 3 58 40 79 -70 -15 -87 -16 -90 -57 -29 -24 -48 -85 -36 -78 -46 -7 -55 -37 -64 -54 -89 -42 -4 -45 -81 -1 -86 -10 -67 -20 -5 -33 -49 -31 -69 -26 -17 -51 0
84 90 12 13 25 1 76 32 55 18 52 80 -78 -64 -71 -22 -11 -82 -26 -51 -20 -39 -65 -81 -53 -7 -17 -28 0
30 42 13 17 75 56 18 41 89 65 72 -4 -69 -24 -27 -80 -54 -66 -11 -47 -45 -33 -70 0
38 89 35 49 29 72 75 69 40 4 56 16 55 78 43 85 83 87 17 12 81 64 47 13 79 -62 -30 -77 -3 -86 -90 -44 -70 -14 -2 -27 -26 -54 -45 -9 -15 -42 -18 -52 -33 -24 -74 0
15 90 71 1 -34 -77 -19 -27 -54 -59 0
59 12 32 57 34 63 81 1 4 58 66 7 79 46 17 74 30 71 76 64 73 45 90 38 20 39 70 19 -5 -6 -78 -13 -88 -85 -89 -36 -21 -49 -28 -22 -87 -61 -40 -51 -86 -83 -77 -62 -44 -2 -56 -25 -47 -67 -14 -35 -69 -37 -82 -18 -60 -50 0
78 13 63 89 67 84 82 53 80 75 83 36 70 65 22 40 28 39 31 58 33 45 7 85 51 81 34 60 14 18 43 49 17 21 38 64 23 48 -1 -62 -30 -44 -2 -88 -4 -26 -3 -29 -35 -55 -24 -72 -90 -10 -42 -74 -46 -5 -73 -57 -59 -79 -12 -8 -9 -11 -41 -87 -47 -86 -77 -15 -20 -6 -19 -69 -16 0
18 66 13 55 60 41 26 21 37 43 90 71 52 78 14 8 73 16 48 3 4 80 -74 -77 -86 -76 -44 -45 -83 -27 -65 -46 -51 -63 -89 -68 -69 -19 -49 -9 -47 -59 -6 -30 -11 -15 -33 -88 -58 -40 -53 -54 0
18 65 16 36 52 62 71 49 84 21 31 30 73 15 76 23 83 70 48 37 87 17 67 58 8 35 82 11 39 81 50 69 44 1 24 26 40 32 74 25 38 57 56 89 64 47 4 6 -85 -20 -19 -55 -45 -28 -9 -27 -80 -34 -43 -59 -78 -46 -90 -54 -72 -22 -51 -12 -60 -5 -41 -33 -53 -88 -61 -13 -2 -29 -10 -42 -7 -68 -75 -66 -86 -14 0
89 54 83 73 41 56 84 23 46 59 1 28 64 33 21 36 74 -13 -87 -10 -65 -72 -19 -50 -52 -29 -2 -67 -57 -48 -12 -24 -79 -42 -51 -63 -61 -88 -16 -26 -44 -27 0
9 5 2 36 87 24 37 54 1 90 23 4 40 55 3 34 64 74 72 29 67 89 44 85 30 70 41 39 31 21 -62 -18 -53 -81 -6 -45 -57 -51 -14 -27 -16 -82 -69 -78 -11 -48 -75 -15 -66 -79 -80 -42 -58 -13 -68 -8 0
88 61 10 67 62 20 65 87 13 27 63 80 38 35 15 81 72 85 64 89 76 9 22 78 11 47 46 56 79 32 6 28 58 82 24 59 69 33 83 90 53 31 16 5 70 23 26 -36 -41 -68 -21 -1 -12 -30 -40 -37 -84 -51 -7 -74 -25 -75 -19 -18 -71 -2 0
71 0
90 2 64 40 52 59 12 35 75 66 22 68 80 63 -54 -51 -43 -11 -23 -16 -25 -50 -88 -65 -53 -21 -19 -79 -58 0
45 49 57 25 62 19 12 15 29 83 42 86 34 78 77 40 14 88 11 85 24 22 6 8 7 30 21 64 31 72 63 35 81 5 18 90 60 87 56 1 -4 -28 -2 -10 -84 -73 -80 -53 -58 -16 -59 -48 -13 -67 -17 -32 -27 -54 -66 -65 -9 -74 -50 -37 -70 0
89 76 60 29 59 75 11 33 3 36 16 12 43 74 7 58 71 79 25 31 64 40 22 46 35 81 10 20 78 88 86 37 73 90 51 -27 -9 -6 -85 -23 -52 -65 -53 -21 -5 -18 -62 -68 -70 -82 -15 -19 -24 -17 -30 -57 -38 -49 -41 -4 -42 -14 -56 -67 -32 -80 -47 -8 -55 -66 -1 0
46 31 62 35 18 1 32 52 30 66 33 53 8 80 64 43 13 19 47 36 77 12 58 55 78 70 29 89 76 49 27 4 63 82 22 5 -73 -75 -83 -81 -61 -9 -71 -37 -42 -21 -59 -90 -54 -38 -67 -7 -74 -88 -6 -86 -14 -25 -26 -60 -84 -41 -48 -2 -28 -16 -79 -45 -10 -85 -51 -50 -57 -72 -68 -17 -69 -15 -3 -40 -44 -23 0
38 63 67 21 1 22 47 79 72 31 16 37 45 13 89 82 43 75 84 7 5 20 15 44 -29 -40 -3 -54 -53 -9 -41 -61 -71 -81 -76 -42 -36 -12 -60 -35 -56 -80 -90 0
76 13 66 28 50 45 84 16 70 2 47 21 -79 -20 -29 -86 -15 -61 -67 -19 -23 -9 -49 -63 -27 -51 -75 0
20 37 12 10 -57 0
19 88 33 70 23 5 16 27 9 64 49 11 73 86 56 -72 -34 -44 -65 -7 -50 -55 -77 -58 -80 -22 -14 -38 -75 -2 -85 -60 -37 0
1 73 86 19 36 76 47 60 69 59 66 33 42 20 10 56 63 26 7 43 2 23 58 64 51 52 53 82 16 87 9 57 79 77 75 48 49 35 15 8 80 45 30 71 -34 -37 -28 -83 -65 -24 -14 -41 -46 -55 -22 -38 -88 -18 -40 -85 -13 -32 -74 -27 -78 -54 -4 -70 -68 -11 -21 -29 -84 -3 -44 -17 -90 -89 -72 -39 -50 -25 0
84 49 35 42 -85 -50 -37 -74 -73 -29 -31 -10 -43 0
70 50 8 19 -69 -26 -13 -32 -73 -44 0
55 75 16 77 89 34 31 12 58 45 13 88 43 4 24 74 66 62 26 61 73 85 20 25 69 40 51 14 86 57 54 87 70 48 8 52 81 21 59 10 5 35 28 9 -78 -72 -23 -68 -64 -71 -79 -41 -50 -80 -90 -11 -47 -7 -67 -33 -18 -36 -29 -19 -56 -38 -30 -65 -42 -53 -63 -82 -1 -39 -15 0
-46 -45 -35 -47 0
79 58 56 68 61 29 2 5 69 66 24 33 65 78 51 38 87 89 -13 -8 -14 -27 -11 -26 -34 -7 -19 -76 -22 -85 -54 -50 -53 -25 -37 -41 -84 -63 -75 -67 -16 -17 0
79 34 37 28 45 86 47 2 53 64 9 76 67 15 25 10 72 59 -71 -61 -31 -88 -78 -81 -8 -65 -35 -60 -57 -69 -26 -40 -30 -51 0
80 89 40 79 34 3 61 11 74 57 15 10 -22 -72 -42 -8 -67 -30 -64 0
76 67 65 88 73 35 87 45 41 1 40 64 60 34 54 70 24 47 63 74 51 58 31 7 42 81 28 22 5 89 50 39 16 84 19 30 33 53 66 44 18 14 13 52 -36 -12 -37 -75 -25 -32 -68 -80 -72 -38 -78 -4 -57 -82 -29 -71 -79 -17 -85 -55 -20 -62 -56 -23 -9 -77 -69 -48 -2 -86 -6 -83 -27 -49 -3 -11 0
69 43 84 85 50 73 37 52 16 66 26 41 63 53 58 7 3 24 86 32 57 71 67 60 65 35 75 12 -4 -20 -45 -44 -2 -89 -34 -83 -19 -74 -82 -64 -22 -61 -36 -72 0
22 18 59 29 80 65 44 42 73 61 5 68 57 71 90 28 83 89 4 70 16 60 24 84 20 6 79 56 9 75 74 55 47 81 50 78 -2 -36 -10 -27 -88 -40 -41 -45 -30 -85 -58 -31 -13 -82 -86 -11 -33 -37 -54 -23 -63 -48 -46 -17 -69 -62 -26 -49 -67 -8 -66 -39 -25 -87 0
81 1 51 75 28 86 34 14 40 67 23 44 78 18 82 31 83 29 63 33 -25 -74 -3 -65 -27 -37 -45 -7 -19 -80 -16 -73 -21 -61 -88 -2 -32 -11 -89 -62 -69 -71 -9 -13 0
29 58 89 51 61 22 52 3 43 17 56 40 59 44 19 41 34 14 84 35 55 7 80 36 2 63 85 9 47 20 71 67 37 81 69 48 39 18 87 13 42 -5 -46 -82 -62 -24 -8 -31 -57 -12 -28 -27 -65 -38 -90 -6 -79 -54 -68 -30 -26 -33 -32 -75 -15 -83 -88 -16 -74 -21 -73 -76 -11 -23 -45 0
81 31 88 2 18 52 61 89 3 78 -55 -4 -42 -74 -66 -32 -65 -12 0
30 86 85 81 49 56 79 57 84 50 8 35 -3 -83 -88 -87 -90 -13 -45 -16 -60 -55 -11 -15 -80 0
82 64 71 40 25 56 69 87 90 32 15 4 43 73 37 79 19 24 47 74 36 61 29 1 39 72 14 67 11 42 86 10 2 59 46 84 8 49 54 13 -12 -17 -53 -88 -28 -89 -65 -34 -22 -48 -80 -3 -68 -35 -33 -76 -9 -62 -78 -66 -70 -41 -23 -75 -7 -51 -63 -50 -30 -55 -31 -16 0
84 60 51 21 74 90 36 64 82 34 61 48 7 24 15 23 65 6 4 79 88 46 -70 -56 -17 -43 -28 -3 -41 -85 -37 -13 -83 -76 -2 -80 -9 -49 -44 -62 -42 -53 -66 -8 -45 0
51 34 39 90 29 21 16 60 77 58 41 86 24 54 23 82 10 47 4 33 59 50 53 25 49 89 12 63 66 35 61 62 45 14 84 83 75 70 56 27 8 78 32 46 44 52 55 30 -13 -26 -69 -79 -72 -48 -28 -3 -74 -73 -76 -31 -15 -11 -9 -6 -67 -20 -71 -19 -36 -7 -80 -43 -2 -40 -88 -17 -22 -1 -37 -81 -85 -87 -64 -38 -68 -18 -65 -5 -57 0
14 51 33 61 65 26 90 76 62 57 72 89 16 83 -53 -58 -21 -20 -25 -79 -37 -75 -74 -67 -68 -54 -31 0
90 76 18 36 43 79 42 3 41 70 81 -54 -15 -47 0
87 83 56 59 37 71 65 69 27 90 89 61 -16 -23 -48 -51 -50 -39 -3 -22 -29 -75 -45 -70 -24 0
2 44 59 45 3 7 46 6 35 74 78 19 24 31 88 79 34 54 80 14 38 75 15 73 32 39 40 26 1 58 37 81 20 67 50 62 25 68 55 43 -41 -57 -71 -84 -86 -17 -89 -69 -5 -11 -65 -76 -63 -4 -90 -64 -47 -8 -9 -13 -22 -21 -87 -16 -29 -36 -18 -85 -52 -27 -83 -60 -70 -72 -10 -56 0
47 67 18 72 8 10 81 25 70 58 73 7 71 88 83 53 87 63 32 28 79 40 66 85 45 6 61 46 41 21 37 44 68 84 75 34 56 -51 -48 -54 -38 -2 -4 -14 -86 -76 -43 -78 -26 -69 -42 -62 -82 -57 -31 -24 -65 -60 -50 -80 -20 -13 -17 -35 -19 -9 -29 -77 -64 -12 -89 -22 -36 -5 -39 0
90 1 61 27 43 76 70 75 56 8 16 85 64 68 14 37 89 13 73 88 62 39 4 67 35 79 87 41 72 15 49 83 12 50 59 -42 -36 -60 -6 -48 -7 -57 -24 -30 -71 -69 -46 -63 -34 -25 -2 -80 -77 -65 -86 -45 -19 -26 -51 -81 -11 -32 -20 -78 -21 -40 -47 -44 0
34 24 80 49 25 90 77 28 13 61 2 81 27 19 45 59 -52 -64 -42 -89 -26 -6 -11 -22 -35 -21 -69 -55 -31 0
31 84 45 72 86 1 10 51 36 73 64 71 18 52 42 3 80 76 33 46 65 23 55 9 61 40 -41 -11 -63 -49 -29 -60 -75 -22 -13 -67 -88 -19 -82 -47 -50 -32 -58 0
20 84 85 21 41 71 17 33 11 76 46 44 79 51 3 39 31 7 22 36 77 73 82 6 65 12 9 40 34 5 59 27 64 61 66 54 -56 -75 -43 -63 -2 -48 -42 -13 -24 -35 -87 -69 -47 -18 -19 -23 -67 -45 -50 -1 -89 -26 -60 -90 -57 -81 -80 -72 -68 -62 -53 -58 -14 -49 0
26 63 14 72 73 38 31 17 42 82 36 60 23 32 41 10 28 39 40 43 16 45 83 79 22 78 70 3 48 54 27 20 88 64 71 61 21 34 7 35 84 74 68 -29 -55 -13 -80 -66 -2 -69 -57 -11 -87 -52 -77 -75 -24 -53 -46 -25 -5 -30 -81 -49 -12 -62 -19 -18 -86 -50 -8 -6 -44 -1 -9 -85 0
84 46 -7 -53 -22 -31 0
6 25 28 69 47 89 48 39 63 60 82 67 14 15 11 30 58 -18 -65 -21 -29 -88 -31 -50 -80 -85 -84 -44 -54 -9 -26 -19 -51 -59 0
80 14 2 90 62 26 66 60 67 88 53 5 73 63 70 27 79 15 29 31 39 24 25 78 9 10 23 54 34 57 49 56 46 21 86 89 69 19 84 81 48 68 -13 -11 -52 -3 -20 -76 -45 -51 -87 -74 -8 -42 -71 -83 -38 -44 -40 -7 -41 -58 -82 -59 -55 -75 -72 -17 -61 -22 -6 -64 -4 -36 -35 -32 -28 -37 -65 -47 -33 -1 -77 -12 0
18 49 5 27 46 36 54 6 8 13 -86 -63 -7 -74 -23 -10 -79 -19 0
53 80 42 30 33 -36 -60 -20 -8 -72 -81 -1 -78 -24 0
69 7 72 4 -52 -14 -51 -63 0
65 81 29 9 3 58 87 89 52 54 68 56 25 85 32 88 30 63 50 57 69 48 39 84 35 -90 -18 -21 -15 -83 -12 -44 -8 -43 -38 -47 -14 -5 -80 -19 -31 -76 -34 -33 -73 -42 0
76 64 31 57 -33 -42 0
73 65 38 1 76 15 90 49 6 83 74 36 51 5 22 62 33 27 64 77 71 48 59 26 80 45 40 31 79 43 66 28 75 21 55 67 2 24 -25 -89 -18 -53 -9 -85 -37 -13 -57 -58 -72 -35 -82 -69 -3 -19 -30 -87 -68 -70 -11 -86 -54 -7 -20 -34 -8 -50 -23 -16 -52 -81 -17 0
16 7 43 11 10 81 19 26 22 44 83 23 30 -65 -5 -84 -58 -20 -24 -9 -66 -53 -52 -78 -61 0
59 27 15 76 82 14 64 57 78 8 51 25 42 74 86 13 19 67 69 20 45 60 84 90 7 62 66 28 17 54 31 43 47 87 85 89 61 6 10 68 77 37 73 52 -50 -4 -29 -18 -63 -83 -38 -71 -32 -56 -58 -30 -21 -81 -36 -70 -24 -39 -12 -33 -26 -1 -11 -16 -40 -2 -48 -5 -3 -53 -49 -79 -23 -34 -44 -55 -80 -46 0
17 1 46 70 10 31 25 82 66 16 54 2 67 65 85 19 18 59 7 3 32 55 53 78 77 43 47 88 51 52 90 -74 -60 -49 -36 -75 -61 -8 -11 -69 -48 -30 -76 -72 -58 -22 -24 -79 -5 -26 -80 -68 -39 -83 -89 -71 -62 -45 -23 -63 -56 -27 -41 0
31 25 29 18 85 62 78 73 88 77 81 50 17 22 6 80 37 32 12 20 15 75 66 90 76 33 89 39 30 87 43 52 44 27 55 74 2 3 59 40 35 -36 -70 -7 -19 -5 -84 -67 -42 -72 -34 -82 -71 -56 -14 -69 -53 -46 -8 -79 -26 -63 -65 -58 -10 -47 -68 -1 -4 -21 -13 -9 -45 -41 -64 -60 -38 -23 -83 -11 -61 -16 -54 -51 -28 -24 -48 -86 -57 0
16 48 24 61 81 90 77 10 68 80 75 66 70 22 57 56 15 88 52 36 19 60 71 14 83 20 82 78 34 33 8 59 37 73 64 32 29 28 53 43 62 58 -17 -41 -6 -89 -30 -49 -54 -35 -63 -9 -47 -18 -23 -4 -72 -79 -11 -5 -76 -26 -87 -65 -69 -85 -2 -25 -45 -7 -40 -44 -1 -51 -3 -31 -55 -27 -42 -21 -86 0
52 72 8 73 44 4 40 36 22 88 60 46 13 18 28 54 55 81 45 67 33 68 89 9 37 34 10 19 62 83 31 90 30 7 24 16 75 38 1 29 6 14 26 50 -41 -32 -61 -20 -74 -79 -80 -11 -17 -64 -42 -86 -78 -39 -5 -2 -84 -12 -53 -87 -15 -27 -63 -48 -3 -85 -65 -51 0
27 59 -33 -9 -31 0
14 30 44 32 5 55 22 58 36 48 76 7 10 72 47 6 75 84 85 54 64 9 81 26 -78 -23 -41 -59 -82 -70 -31 -50 -4 -66 -69 -65 -87 -24 -39 -33 -28 -42 -62 -40 -61 -35 -60 -67 -63 -73 -37 -90 -71 -74 -34 -15 -17 -77 -38 -25 -79 -8 0
41 13 89 12 81 84 86 26 68 87 7 2 37 34 39 43 25 82 42 35 69 10 5 70 66 45 31 48 24 61 73 90 16 76 30 9 -88 -77 -83 -46 -59 -44 -8 -27 -20 -17 -23 -72 -75 -67 -57 -62 -15 -40 -33 -65 -28 -14 0
15 76 27 65 30 86 36 53 14 10 84 4 3 13 11 25 22 2 45 44 63 12 29 24 88 5 17 71 -87 -19 -23 -31 -52 -57 -20 -55 -28 -54 -56 -34 -68 -70 -78 -42 -33 -64 -73 -7 -47 -6 -62 -21 -59 -38 -16 -79 -66 -43 -32 0
42 1 62 71 88 39 47 75 85 27 29 -20 -17 -13 -43 -61 -40 -36 -46 -32 -44 -2 -82 -7 0
3 59 63 52 19 21 42 90 48 25 43 84 17 56 23 55 51 28 14 76 61 47 74 67 34 29 66 38 7 70 73 82 83 20 40 41 5 27 15 30 71 68 -81 -60 -8 -65 -39 -22 -11 -33 -46 -31 -79 -87 -18 -49 -75 -24 -78 -44 -57 -4 -54 -16 -36 -12 -72 -88 -64 -10 -32 -35 -58 -69 -13 -37 0
13 4 61 65 58 16 86 39 54 24 64 68 29 42 23 41 59 62 30 37 44 27 67 52 81 89 90 83 3 43 17 -60 -57 -8 -84 -47 -34 -33 -12 -9 -45 -75 -40 -35 -7 -11 -74 -5 -22 -69 -20 -63 -77 0
21 49 72 47 34 12 58 14 50 56 -78 -13 -35 -59 -11 -75 -62 -37 -20 -61 -80 0
86 31 60 75 19 1 66 39 83 43 -36 -18 -49 -82 -16 -10 -54 -27 -52 -20 -50 -84 -25 -79 -22 0
37 40 84 36 67 2 65 57 3 63 23 32 64 7 82 4 53 34 83 33 16 5 69 46 35 27 12 8 -60 -72 -85 -47 -80 -58 -51 -39 -44 -86 -88 -11 -20 -55 -68 -26 -87 -78 -74 -25 -45 -43 -6 0
1 53 24 -8 -40 -66 0
71 33 9 30 13 51 86 57 67 78 54 36 70 63 21 29 24 53 90 50 47 16 75 41 15 66 43 85 12 69 34 14 17 83 55 1 26 11 58 40 3 73 79 19 23 52 10 -28 -38 -25 -37 -22 -7 -65 -18 -44 -46 -8 -82 -6 -62 -59 -64 -48 -42 -61 -35 -27 -84 -60 -68 -81 -87 -31 -4 -77 -32 -89 -76 -88 -72 -2 -49 0
38 74 48 85 51 29 24 59 43 23 82 9 50 45 58 57 66 80 -3 -4 -73 -6 -35 -54 -25 -46 -79 -2 -27 -90 -67 -28 -65 -47 -70 0
24 21 66 27 90 89 -73 0
39 87 1 52 44 57 17 12 55 3 49 78 22 82 10 74 15 70 13 33 79 27 63 31 11 89 20 34 36 -8 -19 -40 -56 -37 -75 -60 -21 -28 -81 -80 -88 -59 -6 -72 -43 -68 -85 -29 -26 -71 -32 -73 -66 -42 -9 -47 -64 -23 -53 -90 -2 -14 -54 -18 -35 -46 -76 -69 -16 -48 -45 0
70 22 -26 -53 -2 -46 -63 -76 -5 -18 -35 0
48 56 89 5 81 32 27 52 38 58 65 -10 -88 -37 -75 -43 -18 -28 0
67 50 46 22 37 23 74 13 10 16 41 83 4 -47 -89 -76 -70 -82 -81 -87 -38 -63 -73 -64 -55 -69 -84 -43 -32 0
21 82 64 54 59 56 46 9 66 45 31 19 76 28 61 50 48 29 37 17 90 35 49 41 44 15 22 10 -72 -75 -30 -11 -39 -7 -73 -1 -85 -27 -87 -80 -63 -74 -42 -38 -53 -57 -84 -52 -20 -89 -67 -12 -58 0
9 63 31 80 72 49 27 7 22 82 5 17 78 76 68 3 -29 -52 -70 -83 -10 -73 -20 -88 -43 -75 -79 0
52 -2 -37 0
35 1 17 4 54 48 60 22 84 90 5 69 41 50 58 23 16 79 85 8 13 71 39 33 56 14 25 64 32 70 24 61 20 57 30 52 87 -27 -37 -19 -59 -55 -15 -80 -86 -53 -51 -68 -2 -29 -43 -42 -67 -38 -83 -12 -34 -18 -72 -26 -88 -89 -66 -31 -10 -82 -7 -78 0
8 82 77 80 27 1 42 45 2 41 86 39 -56 -40 -30 -74 -19 -36 -48 -75 -85 -46 -51 -65 -69 0
85 72 2 80 83 21 73 81 46 37 45 79 7 58 3 -69 -8 -56 -41 -76 -60 -54 -34 -64 -61 -71 -86 -26 -25 0
88 16 -62 -12 -83 0
57 11 25 47 51 13 29 30 46 20 33 72 82 69 50 36 60 5 38 21 58 85 83 48 78 74 59 19 62 71 28 -53 -64 -52 -22 -4 -56 -45 -7 -89 -88 -79 -43 -16 -90 -12 -15 -23 -70 -8 -75 -80 -61 -39 -24 -77 -87 -41 -81 -55 -44 -84 -73 -6 0
19 42 30 78 24 53 44 86 59 40 11 48 17 47 29 46 -70 -54 -18 -8 -76 -12 -21 -38 -1 -72 -67 -39 -66 -32 -75 -41 -71 0
76 16 12 82 10 75 23 88 -48 -5 -67 -80 -58 -78 0
3 36 67 87 84 48 16 49 47 -27 -34 -86 -23 -51 -71 -80 -53 -64 -12 -65 -30 0
90 14 45 46 22 65 7 81 -27 0
60 70 24 85 41 15 36 54 63 -49 -30 -46 -14 -28 -90 -67 -1 -39 -62 -20 -79 -82 -40 -31 -51 -12 -77 -16 0
25 35 51 59 -43 -40 -47 -48 -85 -15 -23 -29 -30 -49 0
50 20 59 87 38 56 74 86 41 70 15 60 47 43 42 1 78 11 68 46 48 62 29 24 44 12 63 36 40 51 82 72 5 90 39 80 69 66 -34 -32 -37 -13 -52 -27 -84 -25 -76 -53 -55 -64 -3 -83 -30 -4 -23 -73 -67 -26 -71 -75 -21 -31 -54 -79 -16 -81 -58 -28 -35 -10 -18 -22 -77 -17 -2 -9 -6 -33 -65 -7 -49 -19 -88 -45 -8 -89 0
58 21 12 61 72 84 29 78 88 54 69 11 80 49 -4 -32 -22 -26 -13 -76 -19 -42 -45 0
51 49 26 87 84 20 62 73 35 76 -10 -90 -81 -53 -88 -9 -71 -28 -6 -60 -75 -45 -7 -68 -61 -38 -33 -11 -43 -57 -2 0
86 21 13 82 78 85 67 83 24 66 71 84 8 18 61 28 29 25 32 80 51 5 50 90 40 70 12 -60 -45 -31 -33 -38 -54 -52 -43 -10 -65 -55 -27 -59 -58 -35 -9 -75 -81 -26 -17 -89 -7 0
-83 0
7 69 80 41 51 77 40 2 48 12 9 47 65 83 74 17 20 53 50 67 45 66 6 24 1 44 42 72 75 78 81 58 36 82 26 31 89 -46 -84 -54 -57 -29 -30 -56 -23 -28 -49 -32 -64 -90 -11 -27 -70 -22 -8 -86 -16 -13 -63 -4 -3 -59 -79 -85 -35 -10 -19 -38 -14 -76 -39 -34 -25 -71 -60 -87 -5 -68 -21 -73 -43 -55 -62 -88 -61 -52 0
14 5 30 37 57 49 86 53 1 18 43 68 21 84 74 4 79 76 70 34 20 7 40 51 72 52 75 63 17 15 -61 -45 -42 -90 -48 -28 -65 -26 -31 -69 -25 -3 -64 -24 -50 -55 -78 -54 -73 -82 -47 -2 -38 -58 -66 -62 -29 -33 -10 -8 -88 0
10 70 17 33 23 78 62 16 29 45 43 22 -66 -89 -24 -42 -31 -77 -3 -27 -14 -15 -11 -83 0
28 87 31 69 13 88 24 1 66 12 19 89 81 57 72 -2 -53 -82 -84 -68 -50 -23 -7 -17 -54 -79 -73 -60 -27 -10 -15 -58 -3 0
47 17 8 68 46 54 50 18 35 62 76 11 67 57 13 42 51 38 48 3 64 4 2 59 44 29 65 79 36 63 45 16 85 22 -75 -24 -7 -70 -15 -31 -19 -82 -84 -27 -74 -53 -86 -23 -58 -89 -80 -43 -21 -5 -72 -41 -1 -26 -69 0
63 86 45 61 88 27 12 38 6 39 21 46 84 9 33 64 70 32 25 57 28 50 15 19 2 89 18 69 30 44 40 34 74 85 81 3 -76 -35 -90 -87 -11 -43 -79 -17 -55 -53 -58 -20 -16 -51 -4 -71 -23 -48 -37 -56 -66 -62 -78 -47 -54 -8 -29 -36 -26 -22 -67 -77 -68 -42 -5 -72 -80 -31 -52 0
44 77 23 65 30 20 1 13 3 10 80 63 43 2 11 47 27 54 78 66 60 38 48 67 85 22 87 58 90 -70 -19 -88 -17 -55 -14 -18 -75 -46 -37 -62 -53 -49 -6 -74 -12 -25 -42 -51 -56 -57 -83 -61 -24 -45 -31 -52 -36 -40 -89 -81 -73 -5 -79 -9 -26 -68 -32 0
27 64 45 80 11 15 81 4 77 71 58 36 89 70 75 13 28 39 67 54 25 20 60 62 66 29 14 50 61 47 5 86 33 7 63 51 -69 -65 -59 -44 -82 -87 -19 -12 -46 -35 -90 -52 -74 -26 -6 -2 -72 -55 -83 -3 -18 -85 -78 -73 -40 -16 -30 -53 -79 -10 -21 -88 -57 -9 -76 -22 0
31 63 75 28 18 -62 -12 -39 -90 -32 -74 -35 0
12 67 50 85 43 51 47 59 88 52 35 8 17 42 -24 -49 -73 -89 -10 -29 -6 0
78 44 34 75 55 57 69 37 29 80 73 16 65 11 35 46 74 40 45 2 50 3 -76 -81 -42 -33 -82 -47 -21 -85 -60 -52 -9 -32 -14 -28 -23 -51 0
3 34 58 2 36 19 78 55 53 50 41 48 72 74 -24 -39 -16 -79 -4 -47 -10 -5 -81 -70 -14 -77 -38 0
37 29 88 71 8 16 66 86 72 59 46 -33 -89 -5 -56 0
69 26 50 56 84 71 39 30 68 86 9 85 22 81 18 41 29 73 33 5 89 44 25 31 2 19 61 62 13 37 16 64 51 60 43 4 53 3 23 32 -8 -42 -21 -55 -7 -70 -17 -58 -79 -45 -35 -66 -36 -76 -48 -20 -40 -10 -65 -77 -38 -11 -49 -34 -90 -1 -87 -54 -83 -46 -27 -59 -6 -82 -52 -78 -88 -24 -12 0
32 22 8 -3 -11 -10 -14 -38 0
30 15 51 19 22 33 75 80 34 78 58 85 53 54 69 84 60 40 41 6 48 71 28 31 -56 -73 -76 -21 -1 -45 -3 -10 -46 -72 -11 -25 -49 -2 -87 -36 -77 -27 -9 -44 -79 -57 -8 -65 -37 0
4 76 7 90 75 32 44 88 65 73 29 47 19 82 79 17 -53 -58 -62 -68 -22 -46 -59 -50 -3 -42 -35 -5 -13 -16 -15 -8 -41 -80 0
21 9 1 29 25 34 68 71 41 69 16 33 55 65 77 76 43 3 8 56 12 58 53 87 85 66 79 47 2 67 82 88 63 17 61 44 -37 -7 -84 -50 -86 -49 -28 -70 -46 -24 -80 -11 -6 -60 -31 -59 -51 -13 -57 -14 -89 -32 -83 -35 -23 -45 -75 -72 -90 -30 -40 -38 -10 -48 -36 -81 -4 -78 -18 -15 -27 -73 -64 -54 -62 -42 -26 -19 -5 0
48 77 82 55 5 20 23 60 19 89 16 2 84 85 27 25 54 53 46 10 83 40 29 15 87 86 -33 -63 -4 -6 -71 -28 -59 -69 -37 -72 -58 -14 -35 -79 -67 -30 -90 -51 -38 -50 -42 -73 -31 -44 -66 -12 -75 -39 -11 -49 -64 -52 -88 0
38 16 44 36 24 5 10 63 3 14 12 19 18 37 34 15 77 9 22 58 85 40 54 46 78 23 42 59 82 74 39 55 27 67 56 -65 -4 -84 -88 -26 -25 -11 -13 -33 -73 -57 -31 -29 -17 -83 -75 -87 -51 -52 -66 -71 -76 -30 -68 -61 -70 -69 -50 -2 -32 -6 -49 -60 0
54 18 70 44 24 21 83 2 51 88 10 7 35 34 43 59 11 82 30 86 15 61 19 38 1 52 25 74 28 67 5 20 12 77 17 57 36 84 73 68 32 -27 -90 -66 -56 -72 -58 -89 -62 -85 -3 -8 -26 -31 -81 -13 -80 -55 -22 -40 -29 -49 -16 -47 -75 -41 -46 -42 -39 -76 -48 -78 -14 -4 -23 -69 -79 -6 -50 -60 -33 -65 -71 -87 0
2 90 46 88 45 12 51 47 62 48 56 76 73 64 65 26 -83 -21 -44 -57 -42 -13 -5 -29 -54 -9 -84 -16 -15 -3 -33 -52 -1 -37 0
31 46 1 63 43 64 -18 -51 -82 -25 -44 -27 -57 -26 -19 0
28 80 54 83 22 38 82 65 81 51 7 35 55 6 30 45 40 62 34 58 43 3 42 46 4 19 78 66 16 2 -71 -24 -75 -88 -49 -37 -72 -9 -27 -74 -64 -90 -53 -32 -26 -33 -59 -48 -23 -1 -85 -47 -61 -89 -5 -77 0
9 50 17 89 43 64 45 51 14 73 61 10 88 69 8 44 72 62 63 -49 -47 -5 -27 -81 -15 -82 -7 -42 -54 -26 -1 -21 -34 -38 -65 -40 -23 -70 -74 -80 -77 -85 -20 -31 -56 -75 -39 -53 -33 -11 -22 0
1 21 49 18 60 29 72 90 40 30 34 57 2 73 16 71 45 70 6 24 87 88 13 8 22 37 27 65 50 5 19 69 68 10 55 61 12 17 36 84 46 58 -41 -80 -83 -39 -3 -31 -51 -47 -85 -56 -76 -38 -64 -48 -53 -42 -86 -20 -63 -26 -78 -79 -62 -89 -74 -67 -11 -15 -28 -35 -59 -33 -32 -82 -23 -66 0
4 24 8 32 17 55 45 39 42 77 86 34 85 28 82 43 56 65 80 88 83 37 68 58 90 48 21 57 9 52 25 18 23 59 70 14 5 53 81 84 10 6 26 61 73 79 60 13 74 16 66 -69 -41 -87 -3 -47 -20 -27 -67 -75 -19 -35 -15 -29 -62 -71 -31 -22 -89 -38 -78 -11 -49 -12 -36 -33 -1 -30 -7 -44 -2 0
52 60 53 86 17 47 81 43 76 82 10 69 2 1 30 59 65 78 27 88 75 89 23 25 4 31 63 18 11 70 13 36 14 16 12 84 71 -29 -20 -87 -83 -22 -66 -61 -21 -33 -15 -7 -67 -48 -85 -40 -50 -57 -5 -35 -45 -8 -51 -28 -39 -32 -79 -9 -6 -38 -19 -64 -26 -37 -80 -56 -90 -72 -3 -54 -34 -46 -68 -62 0
68 32 6 70 90 19 75 52 27 69 87 25 -86 -26 -47 -50 -36 -10 -46 -8 -51 -53 0
63 8 64 22 74 50 81 78 73 53 12 68 83 6 7 66 80 55 36 41 43 28 72 86 9 75 77 62 85 87 59 15 35 61 69 27 10 30 5 84 57 -16 -70 -39 -44 -71 -26 -51 -54 -65 -37 -13 -33 -1 -2 -67 -20 -58 -19 -90 -47 -11 -45 -48 -3 -25 -79 -82 -52 -18 -38 -21 -49 -89 -4 -88 -34 -46 -23 -31 -60 -56 -40 -14 -24 -17 -32 -42 -76 0
79 31 51 3 50 70 48 68 39 80 82 26 9 25 22 76 72 16 61 47 23 24 53 19 38 67 27 11 -83 -17 -65 -88 -8 -55 -33 -36 -59 -46 -54 -89 -32 -40 -20 -44 -75 -12 -77 -58 -43 -84 -49 -5 -57 -69 -28 -2 -64 -62 0
71 68 75 44 48 40 82 59 78 10 62 69 20 22 55 24 13 85 15 33 41 67 32 21 27 47 1 81 57 49 42 58 38 17 79 11 -63 -43 -89 -8 -12 -50 -61 -30 -70 -2 -14 -4 -88 -37 -5 -72 -18 -77 -76 -86 -28 -29 -83 -80 -26 -36 -45 -53 -56 0
64 -69 -38 0
14 11 44 30 61 41 54 86 4 -80 -56 -10 -16 -36 0
29 55 20 78 83 1 53 16 13 87 90 64 41 28 59 40 21 27 66 80 14 11 61 15 34 65 60 42 85 -26 -30 -49 -77 -69 -44 -12 -50 -31 -4 -63 -74 -35 -57 -38 -18 -17 -86 -48 -73 -75 -39 -45 -3 -5 -47 -62 -37 -88 -9 -56 -84 -23 -32 -68 -89 -7 -76 -71 -54 -52 -19 0
80 17 32 72 77 -38 -10 -84 -87 0
4 81 52 47 49 35 76 16 21 80 86 43 55 67 83 45 17 64 20 7 82 42 65 -36 -66 -74 -87 -39 -84 -5 -15 -28 -23 -41 -88 -58 -54 -68 -25 -3 -8 -27 0
32 56 4 15 21 -27 -47 -34 -26 -60 -71 -48 -46 0
49 84 16 47 44 48 76 3 27 70 6 39 21 7 -85 -65 -2 -86 -66 -45 -68 -12 -73 -18 -54 -8 -43 -29 -23 -56 -59 -15 -60 -72 -64 -80 -28 -87 -5 -55 -52 0
80 74 28 37 5 12 77 4 8 53 33 16 38 63 25 -56 -2 -65 -82 -17 -57 -87 -75 -68 -18 -61 -49 -83 -36 -70 -31 -19 -26 0
48 8 77 19 80 11 57 37 41 49 61 73 44 25 81 38 67 68 10 1 50 74 6 36 83 86 53 35 84 65 89 7 -63 -75 -21 -82 -13 -71 -78 -16 -30 -58 -76 -42 -14 -28 -47 -46 -40 -17 -32 -59 -54 -26 -52 -15 -31 0
53 62 85 -20 -18 -73 -78 -10 -29 -19 0
69 11 43 52 26 81 58 76 22 9 64 67 72 70 1 90 61 48 10 63 14 85 66 49 24 68 45 27 78 55 54 23 42 8 37 53 33 20 44 77 34 74 89 82 36 -6 -40 -56 -73 -39 -35 -46 -18 -51 -86 -25 -71 -30 -29 -3 -75 -41 -13 -16 -2 -31 -80 -4 -12 -88 -50 -65 -60 -59 -84 -28 -79 -38 -87 -32 -7 -62 -21 -83 -57 -19 -15 0
69 53 43 44 4 82 57 42 63 19 66 81 17 78 79 22 73 83 86 23 18 39 28 54 11 59 64 27 3 13 38 58 74 32 41 61 25 21 -60 -20 -85 -88 -70 -46 -72 -10 -6 -29 -30 -90 -8 -76 -26 -55 -24 -87 -49 -5 -68 -62 -51 -71 -40 -14 -77 -34 -2 -65 -16 -1 -33 -35 -48 -7 -89 -50 -9 -84 -37 0
69 13 54 22 46 80 70 31 34 26 36 88 43 11 66 18 42 85 44 61 67 77 27 71 48 78 79 87 81 65 38 25 57 56 75 -9 -45 -83 -14 -62 -39 -28 -8 -10 -90 -1 -7 -2 -82 -60 0
12 76 52 23 42 90 50 28 81 25 30 1 80 88 31 36 83 -38 -44 -14 -82 -57 -16 -59 -11 -40 -37 -61 -41 -24 -43 0
24 52 34 88 90 85 1 44 62 15 71 66 79 11 35 68 60 42 86 63 9 10 70 74 58 67 50 13 45 80 16 53 3 76 32 -57 -25 -82 -41 -33 -48 -77 -47 -26 -46 -37 -4 -27 -65 -59 -5 -36 -20 -23 -40 -30 -89 -39 -84 -28 -55 -14 -49 -18 -51 -73 -43 -64 -75 -7 -22 -8 -56 -54 -69 0
82 5 4 72 52 65 55 6 45 43 14 23 79 64 83 33 76 30 56 81 35 7 89 57 86 17 63 31 -44 -48 -80 -75 -34 -18 -50 -47 -74 -73 -37 -27 -16 -54 -88 -11 -12 -42 0
66 60 27 68 35 21 24 8 50 53 46 90 51 1 61 25 40 3 47 65 41 14 34 84 70 12 45 28 32 2 67 13 74 44 48 75 57 63 43 54 85 6 31 11 -9 -42 -15 -5 -29 -20 -64 -30 -33 -10 -82 -18 -23 -17 -73 -56 -72 -81 -86 -26 -69 -19 -62 -76 -37 -16 -7 -39 -59 -38 -79 -58 -77 -88 -22 -49 -83 -71 -4 -89 -78 -80 0
85 59 86 28 5 30 36 49 51 29 22 63 61 52 46 62 25 80 10 67 66 89 6 -90 -72 -79 -56 -64 -34 -81 -33 -84 -88 -9 -24 -13 -45 -70 -21 -47 -20 -17 -55 -8 -2 -1 -35 -54 -78 -26 -31 -41 -32 -76 -82 -58 -12 -75 0
86 21 74 6 45 78 39 76 75 64 12 48 46 31 65 61 32 10 50 -22 -16 -82 -67 -88 -73 -84 -81 -90 -72 -2 -14 -59 -19 -3 -83 -17 0
12 23 44 49 82 2 48 76 42 22 57 50 40 68 4 11 88 86 81 38 85 32 10 25 47 53 1 9 90 31 75 62 45 24 17 5 43 -28 -6 -21 -39 -14 -61 -34 -84 -33 -36 -66 -64 -19 -41 -59 -55 -51 -20 -58 -89 -77 -16 -27 -83 -87 -15 -35 -69 -18 -8 -67 -72 -13 -54 -30 -79 -37 -52 -63 0
84 52 82 28 7 65 35 47 67 45 12 16 61 55 23 4 33 86 57 44 48 53 78 32 15 34 63 5 79 87 60 -77 -58 -73 -25 -29 -56 -62 -41 -37 -64 -50 -40 -10 -20 -39 -18 -42 -13 -74 -59 -38 -21 -36 -89 -69 -43 -75 -70 -90 -27 -6 -1 -76 -80 -31 -17 -88 -83 -24 -19 -30 -26 -71 -9 -2 -8 -66 0
48 82 89 17 33 31 71 3 58 77 87 80 56 4 42 19 24 59 35 44 46 25 26 22 43 68 45 69 86 38 57 50 39 70 13 88 49 83 84 32 85 66 1 37 -90 -72 -21 -73 -78 -79 -64 -65 -20 -41 -76 -54 -16 -30 -18 -61 -23 -51 -55 -2 -12 -5 -14 -28 -81 -8 -27 -11 -74 -15 -75 -36 -47 -10 -60 -9 -7 -62 -34 -53 -29 -67 -52 -6 0
34 42 60 52 14 -48 -10 0
20 14 18 69 8 90 62 79 53 29 51 7 15 52 -24 -21 -46 -78 -45 -83 -61 -27 -39 -17 -40 -26 -48 -84 -72 0
69 72 82 66 11 28 13 1 39 54 2 67 78 86 58 64 37 77 19 62 38 -76 -47 -3 -59 -88 -75 -42 -33 -87 -29 -90 -40 -4 -51 -80 -81 -68 0
74 45 38 48 81 22 79 18 26 31 53 36 25 2 16 13 57 10 82 72 86 4 7 83 61 37 23 11 65 3 33 51 17 6 -76 -40 -1 -9 -32 -19 -89 -44 -84 -55 -68 -73 -20 -50 -5 -71 -88 -70 -42 -35 -30 -66 -49 -78 0
19 52 30 20 61 33 65 6 2 39 60 81 18 64 5 74 69 28 78 62 53 50 77 26 46 15 49 57 75 41 22 82 36 90 63 42 4 11 32 12 14 44 -10 -23 -43 -35 -51 -48 -71 -55 -83 -73 -66 -79 -21 -86 -70 -27 -58 -89 -67 -29 -7 -84 -16 -17 -85 -24 -8 -54 -72 -37 -59 -13 -40 -47 -56 -87 -68 -38 -3 0
77 87 88 29 18 42 65 32 90 24 -14 -27 -55 -31 -51 -58 -39 -3 -1 -64 -73 -80 0
73 -40 -30 0
59 48 43 45 37 29 79 56 36 64 2 25 55 39 51 30 20 16 23 1 58 84 74 4 13 50 15 31 73 19 69 52 66 12 24 34 63 78 35 49 80 -18 -28 -6 -54 -11 -47 -14 -27 -75 -10 -46 -83 -89 -65 -38 -41 -61 -71 -7 -26 -86 -70 -33 -68 -72 -3 -60 -44 -76 -5 0
57 76 56 4 51 13 68 39 11 -66 -44 -25 -23 -36 -62 -46 -83 -54 -78 -64 -18 0
27 46 82 76 69 28 17 85 37 21 65 19 26 63 36 59 18 9 83 -40 -90 -2 -53 -60 -42 -45 -67 -29 -71 -51 -74 -11 -81 -72 -24 -16 -44 -6 -7 -32 0
83 19 87 2 24 85 51 36 44 33 90 65 58 6 75 -80 -74 -63 -31 -47 -28 -66 -40 -38 -45 -53 -69 -7 -56 -89 -27 -88 -26 -43 -1 0
10 14 52 44 66 19 59 31 42 39 75 86 82 17 48 46 51 25 37 53 16 27 40 2 11 78 8 73 29 13 33 4 5 60 26 3 32 71 18 36 64 38 65 6 47 1 -81 -56 -90 -7 -67 -9 -50 -35 -49 -79 -84 -88 -21 -30 -23 -89 -77 -83 -76 -80 -58 -61 -87 -57 -63 -72 -55 -43 -74 -70 -45 -41 -28 -85 -15 -68 -22 -54 -34 -12 0
67 -71 -51 -41 -46 -85 -9 0
73 12 62 25 42 90 5 79 81 33 52 57 35 86 50 67 55 34 76 69 26 17 16 56 85 43 8 23 75 31 65 70 41 22 63 61 60 58 21 -38 -40 -19 -44 -18 -72 -37 -82 -27 -83 -13 -87 -89 -84 -45 -24 -15 -46 -80 -1 -6 -71 -74 -9 -2 -36 -11 -68 -64 -4 -66 -47 -77 -3 -88 -48 -32 -10 -59 -54 -14 -20 -7 -78 -29 -51 -28 -39 -30 -53 0
10 36 26 72 41 86 87 65 73 28 24 81 60 -82 -37 -55 -69 -34 -6 -84 -88 -45 -56 -29 -89 -48 -19 0
47 18 9 22 41 75 73 12 86 -50 -78 -16 -8 -31 -35 -79 -28 -1 -74 -55 -20 -57 -7 -17 -21 -23 -52 -49 -25 0
33 61 5 15 49 17 79 69 77 34 37 42 86 25 35 55 63 70 6 84 88 83 76 12 13 57 45 20 60 78 89 46 74 41 -82 -64 -10 -62 -54 -43 -52 -21 -67 -14 -58 -16 -4 -39 -3 -38 -72 -31 -68 -51 -90 -75 -27 -66 -26 -36 -23 -24 -81 -19 -28 -87 -56 -59 -30 -2 0
67 12 41 80 7 40 46 89 38 8 5 72 56 82 86 33 -54 -81 -75 -61 -87 -57 -20 -9 -21 -15 -29 -85 -14 -10 -16 -71 -42 -77 -30 -55 -4 -22 -34 -60 -11 -3 -79 0
90 54 -10 0
71 20 44 9 23 87 85 82 48 16 11 67 69 2 15 27 74 8 65 90 68 31 78 70 -84 -37 -19 -58 -22 -21 -25 -14 -80 -56 -46 -51 -66 -62 -35 -3 -4 -24 -81 -55 -54 -49 -6 -18 -76 -57 -36 0
37 47 33 55 48 78 80 44 -22 -7 -4 -9 -12 -87 -82 0
36 10 33 34 72 82 41 53 89 14 28 80 35 88 31 85 52 57 83 26 32 56 44 21 71 37 11 73 64 29 27 54 84 65 25 76 -45 -1 -23 -19 -38 -50 -17 -62 -55 -3 -66 -13 -86 -30 -74 -6 -59 -39 -70 -60 -12 -81 -8 -49 -51 -69 -77 -90 -87 -42 -58 -43 -63 -24 -47 -67 -46 -68 -2 -4 -9 -79 0
19 78 82 50 1 37 89 62 36 49 6 77 32 72 5 2 15 70 86 57 85 21 66 39 73 59 38 31 9 30 44 28 88 71 41 65 -14 -16 -55 -53 -34 -27 -3 -22 -24 -26 -68 -17 -79 -64 -25 -60 -23 -87 -67 -61 -63 -4 -74 -75 -29 -12 -47 -48 -84 -54 -18 -58 -69 -10 -83 0
66 17 12 61 -35 0
79 63 49 18 10 72 57 68 22 76 30 15 82 83 47 28 89 21 45 36 50 67 70 19 17 60 35 53 32 48 27 -55 -2 -54 -12 -25 -40 -87 -3 -33 -13 -39 -29 -42 -7 -73 -38 -85 -81 -84 -58 -5 -71 -86 -26 -61 -74 -65 -24 -37 -64 -14 -88 -46 0
62 86 73 68 42 81 17 41 21 79 69 61 46 72 70 84 33 67 3 74 14 31 77 55 89 16 58 28 64 85 76 8 -30 -44 -23 -20 -32 -75 -26 -22 -1 -19 -60 -83 -9 -13 -54 -18 -51 -25 -63 -11 -6 -87 -15 -50 -66 -27 -12 -80 -49 -90 -71 -45 -52 -4 -59 -47 -48 -2 -29 -35 -53 -10 -65 -82 -57 0
56 7 13 54 52 15 10 71 60 24 43 63 86 -69 -30 -87 -44 -4 -21 -75 -46 -59 -2 -61 -42 -39 0
75 25 19 86 20 2 79 11 14 6 67 30 4 3 43 84 57 70 69 54 17 66 9 13 78 -10 -29 -22 -23 -34 -53 -8 -40 -7 -31 -63 -24 -42 -21 -44 -15 -77 -88 -64 -36 0
51 24 26 70 52 6 23 34 46 53 73 86 82 19 58 61 22 89 36 11 69 35 48 33 27 41 60 8 57 15 18 10 37 2 12 40 30 62 39 -65 -54 -20 -84 -78 -17 -88 -75 -72 -55 -25 -4 -81 -77 -63 -3 -80 -14 -28 -45 -31 -90 -21 -83 -32 -50 -9 -29 -76 -7 -1 -56 -85 -66 -68 -47 -59 -87 -71 -16 -74 -44 -13 -79 -64 -67 -43 -5 -49 0
84 11 88 64 72 85 53 35 89 -63 -32 -59 -22 -13 -45 -33 0
51 67 87 65 88 56 50 37 61 31 70 81 25 26 89 80 39 16 85 15 69 82 55 77 76 59 73 8 20 3 71 2 78 1 41 -44 -9 -43 -68 -17 -46 -52 -84 -24 -30 -57 -10 -32 -36 -53 -11 -90 -19 -29 -42 -63 -4 -34 -5 -13 -74 -27 -14 -83 -7 -35 -58 -62 -22 -79 -64 -18 -54 -49 -38 -45 0
31 46 22 48 49 66 9 65 4 25 51 50 10 39 53 29 -24 -12 -44 -42 -13 -83 -15 -38 -56 -82 -54 -3 -58 -79 -33 -69 -47 -19 -40 0
13 78 15 7 40 80 72 26 5 6 41 1 76 23 12 20 74 50 10 -43 -36 -75 -46 -51 -57 -49 -2 -27 -68 -54 -44 -31 -90 -77 -56 -24 -67 -53 -71 -3 -25 -70 -11 0
42 79 50 84 40 6 61 7 59 85 70 89 46 47 62 82 11 68 8 25 58 26 13 23 65 21 -33 -87 -2 -90 -45 -69 -60 -22 -43 -80 -64 -77 -34 -81 -31 -16 -67 -48 0
5 80 21 35 71 8 15 75 13 -40 -49 -53 -59 -27 -7 -65 0
20 79 48 35 87 28 27 12 45 49 50 85 71 75 64 36 33 37 1 38 52 68 61 59 80 73 26 -67 -74 -81 -47 -43 -89 -70 -86 -3 -60 -78 -16 -21 -39 -5 -42 -88 -6 -54 -83 -13 -51 -41 -63 -8 -76 -72 -40 -77 0
73 24 13 8 77 17 47 -67 -16 -78 -19 -34 -75 -74 -87 -2 -81 -40 0
70 61 8 62 18 22 26 71 21 -37 -38 -83 -89 -3 -72 -20 -77 -33 -6 -80 -68 -48 0
11 39 18 42 20 50 35 3 68 63 55 76 36 -21 -24 -60 -32 -40 -8 -64 -69 -71 -38 -66 -6 -16 -77 -5 -47 -14 -80 0
-58 -9 -84 0
85 57 29 66 90 46 43 22 28 44 63 41 38 3 74 32 36 7 9 79 15 -34 -70 -24 -72 -87 -82 -67 -4 -53 -49 -2 -42 -39 -40 -20 -26 -14 -60 -80 0
90 13 43 54 83 19 14 57 78 36 11 53 -85 -74 -1 -47 -42 -87 -62 -8 0
83 20 69 23 53 55 32 30 74 42 59 19 48 61 51 36 71 82 -54 -64 -11 -22 -39 -9 -1 -12 -70 -67 -80 -17 -60 -41 -18 -8 -27 -76 -79 -40 -46 -88 -62 -25 0
24 47 53 50 -88 -29 -41 -49 -34 -28 -45 -81 0
76 8 12 88 79 11 58 53 22 21 41 33 48 42 89 31 15 7 62 16 -27 -71 -39 -64 -74 -85 -30 -59 -19 -67 -25 -52 -66 -49 -77 -24 -40 -61 -28 -17 -13 -44 -86 -38 0
7 55 29 64 72 -24 -45 0
59 37 43 84 42 70 63 28 82 4 81 80 10 16 54 83 55 49 85 87 69 8 22 29 44 21 74 32 65 35 78 12 73 27 9 46 30 18 11 38 -45 -17 -71 -48 -15 -61 -50 -60 -53 -24 -62 -19 -52 -26 -88 -51 -25 -64 -57 -47 -86 -36 -23 -33 -72 -66 -13 -3 -76 -90 -7 -77 -68 -2 -6 -1 -14 -58 -31 -67 -79 -34 -5 0
9 54 24 21 77 85 76 68 73 34 2 43 20 57 39 10 30 47 5 6 38 15 83 55 69 86 8 12 72 56 65 16 63 60 49 41 -52 -75 -29 -7 -22 -53 -32 -79 -11 -1 -61 -42 -35 -18 -23 -3 -44 -46 -4 -64 -45 -48 -37 -17 -74 -66 -19 -87 -71 -78 -31 -40 -62 -51 -50 -82 0
90 5 40 82 41 78 6 61 38 3 31 34 2 14 68 15 4 80 20 75 21 87 83 43 63 89 -55 -8 -52 -54 -1 -72 -13 -11 -17 -12 -57 -65 -33 -44 -36 -42 -47 -25 -24 -88 -9 -26 -19 -58 -45 -64 -37 -48 -51 0
43 76 86 16 89 52 54 48 70 5 62 22 46 53 78 60 20 83 79 28 47 -73 -61 -51 -8 -21 -45 -4 -33 -23 -87 -67 -75 -69 -32 -90 -66 -37 -14 -2 -63 0
4 58 85 32 35 86 1 76 56 27 17 24 52 62 89 33 63 31 -80 -5 -48 -54 -40 -77 -49 -82 -70 -69 -44 -18 -12 -6 -39 -46 -72 -79 -55 0
83 52 4 56 -27 -89 -71 -87 -65 -33 -23 -54 -21 -28 -51 0
65 29 63 62 51 40 10 28 80 78 18 17 15 11 54 38 1 68 22 12 77 46 33 -34 -52 -25 -47 -27 -75 -7 -26 -36 -83 -90 -14 -6 0
79 62 12 71 54 85 3 1 73 35 4 78 45 28 52 82 18 10 38 64 21 67 65 84 59 29 60 33 46 41 23 50 -75 -55 -88 -27 -34 -70 -31 -47 -13 -69 -81 -26 -15 -87 -48 -11 -51 -74 -19 -90 -89 -20 -17 -5 -6 -57 -72 -44 -14 -36 -58 -37 -7 -40 0
10 64 82 63 30 49 33 83 55 35 38 22 19 89 -1 -62 -26 -42 -3 -48 -59 -53 -5 -58 -70 -87 0
7 72 24 84 61 60 23 48 16 20 32 51 33 34 82 70 27 2 89 19 77 46 54 80 37 26 36 55 31 86 83 47 71 39 38 57 6 76 59 25 41 8 22 74 -9 -44 -21 -5 -4 -73 -28 -56 -63 -78 -62 -50 -69 -35 -12 -66 -15 -65 -42 -3 -43 -45 -67 -53 -11 -52 -14 -85 -49 -90 -40 -81 -87 -17 -18 -64 -79 -75 -68 -29 -58 -30 -1 -10 0
40 86 83 46 2 55 7 6 44 42 30 1 35 63 82 73 53 28 36 29 50 26 77 43 24 71 87 89 65 12 -19 -67 -21 -16 -49 -32 -25 -20 -85 -64 -22 -41 -14 -8 -58 -37 -13 -31 -66 -79 -76 -5 -11 -54 0
75 73 15 81 34 49 58 -8 -57 -21 -85 -45 -50 -52 -56 -80 -1 0
6 23 47 27 72 10 45 86 41 71 -73 -48 -64 -30 -34 -2 -7 -69 -75 -15 0
52 22 85 24 86 66 76 49 79 44 33 2 82 1 30 73 53 8 63 25 43 58 27 47 11 80 46 7 71 16 87 56 10 45 36 67 38 21 65 77 89 3 35 -54 -41 -31 -59 -61 -9 -68 -34 -29 -50 -78 -88 -57 -5 -69 -37 -81 -60 -14 -55 -13 -4 -39 -26 -48 -6 -75 -18 -90 -17 -42 -15 -12 0
61 48 40 45 36 20 29 89 78 2 66 22 37 44 60 21 56 9 65 41 15 5 -11 -59 -55 -35 -77 -57 -3 -32 -6 -76 -90 -69 -64 -25 -34 -73 -62 -7 -58 -19 -42 -8 -81 -74 -85 -28 -70 -68 -86 -17 -24 -71 -43 -27 -88 -84 0
61 43 40 54 74 70 42 24 78 41 62 84 75 71 5 49 31 14 85 60 69 79 -25 -15 -56 -3 -33 -9 -76 -34 -83 -38 -47 -51 -1 -57 -64 -4 -59 -66 -81 -35 -10 -22 -12 -20 -53 -2 -26 -28 0
64 80 12 21 8 84 23 43 2 28 15 62 55 85 61 72 10 33 14 25 37 16 48 66 54 71 79 46 19 26 30 44 22 58 78 11 18 82 45 3 65 69 38 68 39 87 27 73 52 31 51 -90 -40 -49 -35 -86 -24 -47 -4 -59 -60 -77 -83 -63 -9 -70 -89 -32 -50 -75 -67 -7 -42 -5 -13 -81 -29 -17 -20 -57 -74 -53 -56 -41 -36 -88 -1 -76 0
6 -75 -70 0
46 30 37 52 71 75 41 21 60 6 89 26 49 31 23 20 84 33 64 70 48 86 66 38 57 82 18 42 27 87 15 78 55 58 24 16 81 77 -54 -12 -4 -8 -76 -9 -79 -32 -61 -69 -80 -85 -39 -11 -10 -59 -22 -28 -17 -72 -2 -68 -44 -35 -34 -36 -29 -67 -45 0
24 45 55 48 64 38 26 41 79 47 42 53 14 62 18 -90 -4 -52 -12 -15 -57 -22 -40 -74 -17 -13 -85 -84 -89 -73 -44 -66 -16 -1 0
66 39 75 9 65 57 6 79 71 70 13 37 52 81 72 47 60 67 29 68 50 55 87 45 46 3 41 4 34 32 78 16 84 -31 -90 -73 -14 -69 -58 -82 -27 -17 -2 -28 -49 -64 -56 -76 -23 -36 -86 -63 -18 -61 -77 -43 -19 -88 -89 -51 -62 -40 -24 -59 -44 -74 -5 -26 0
50 58 25 88 35 14 86 22 71 52 80 27 81 60 54 30 55 19 85 46 64 39 56 45 33 15 72 66 67 37 47 -42 -20 -29 -2 -21 -32 -82 -40 -5 -7 -83 -23 -84 -59 -61 -6 -26 -79 -76 -12 -36 -10 -49 -4 -70 -63 -18 -65 -38 -87 -28 -17 -8 -57 -78 0
90 88 33 59 31 60 48 80 11 -81 -37 -52 -47 -23 -14 -46 -24 0
47 63 31 87 72 51 69 12 68 3 38 16 17 19 84 7 9 60 37 66 41 81 73 -33 -79 -1 -85 -50 -34 -22 -54 -78 -88 -15 -23 -20 -43 -40 -36 -48 0
1 4 26 24 29 28 35 63 27 19 81 36 49 83 6 3 58 12 69 9 72 42 5 8 41 30 88 33 89 21 78 20 52 60 39 56 34 -15 -32 -51 -16 -90 -79 -38 -54 -10 -17 -45 -53 -65 -73 -25 -75 -18 -37 -59 -23 -57 -87 -7 -47 -50 -14 -77 -64 0
52 70 36 73 -63 -16 -26 -2 -28 -30 -11 0
80 25 87 18 11 50 16 14 3 68 22 30 62 36 21 72 90 44 59 1 84 15 32 49 89 20 55 64 79 77 5 52 19 81 34 69 70 83 73 45 63 10 -26 -2 -6 -66 -23 -35 -43 -9 -13 -41 -27 -4 -86 -7 -56 -78 -85 -54 -67 -51 -60 -33 -53 -88 -76 -74 -71 -31 -47 -29 -57 -38 -75 0
54 42 80 55 70 13 65 43 8 69 78 22 40 20 41 74 11 19 83 86 63 48 27 52 35 1 32 12 36 6 53 -45 -44 -25 -17 -29 -81 -3 -31 -88 -46 -24 -90 -77 -14 -75 -84 -61 -62 -72 -49 -5 -79 -87 -34 -15 -60 -82 -33 -59 -47 -71 -16 -39 -66 -56 -38 -2 -4 -51 0
71 78 41 8 11 45 66 75 34 7 5 27 84 26 72 90 73 39 74 1 32 38 55 12 88 67 59 25 -52 -14 -18 -31 -61 -76 -64 -44 -43 -53 -33 -6 -79 -13 -89 -83 -63 -36 -77 -57 -21 -50 -49 -10 0
11 54 29 1 37 2 33 76 6 -86 -21 -31 -36 -57 -73 -79 -32 0
7 86 90 22 82 73 81 57 71 23 56 69 58 88 68 14 65 48 16 6 52 72 1 13 59 47 67 85 76 34 -30 -41 -83 -28 -12 -5 -15 -78 -8 -45 -4 -44 -24 -53 -33 -11 -9 -84 -62 -36 -74 -64 -55 -80 -75 0
89 46 1 50 23 54 9 84 48 14 47 8 63 68 90 73 44 37 85 34 67 86 25 7 45 57 52 59 5 3 78 38 74 88 -4 -13 -81 -15 -80 -65 -35 -18 -24 -77 -62 -76 -32 -27 -75 -17 -16 -71 -53 -28 -56 -41 -61 -22 -49 -60 -83 -21 -69 -10 -6 -30 -33 -39 -79 -64 -11 -82 -29 0
66 46 3 75 45 23 58 79 83 87 10 24 14 49 84 52 90 76 82 59 71 40 81 57 22 25 44 60 53 65 37 7 30 -26 -20 -33 -1 -62 -68 -9 -86 -41 -78 -70 -36 -55 -17 -56 -67 -18 -8 -74 -21 -77 -48 -16 -69 -12 -28 -72 -88 -35 -64 -61 -5 -89 -39 -2 -32 -43 0
58 75 47 64 40 57 46 -10 -38 -29 -22 0
37 9 71 47 68 33 4 84 50 88 25 8 -73 -69 -80 -75 -65 -22 -49 -77 -35 -90 -2 -81 -63 0
61 51 23 73 75 5 76 8 68 74 -48 -85 -4 -78 -18 0
12 73 10 26 3 68 27 33 25 79 71 50 48 11 67 78 30 46 39 18 64 80 82 43 86 19 40 32 15 51 55 20 72 34 76 -66 -81 -59 -21 -54 -61 -44 -65 -8 -53 -47 -14 -77 -35 -37 -23 -63 -75 -57 -42 -24 -5 -89 -2 -38 -69 -85 -31 -9 -16 -83 -22 -1 -49 -7 -88 -87 0
43 15 62 50 3 52 14 32 2 33 86 20 81 82 63 53 25 10 51 83 26 -61 -71 -75 -58 -54 -5 -47 -36 -84 -77 -12 -19 -21 -78 -56 -35 -70 -38 -57 0
5 42 40 12 32 21 8 45 58 22 48 57 54 43 79 78 51 82 65 77 46 90 88 20 35 81 60 17 10 85 14 9 24 19 6 13 83 -50 -76 -28 -47 -69 -70 -59 -84 -61 -73 -3 -36 -31 -55 -33 -39 -1 -2 -56 -67 -49 -64 -29 -44 -18 -53 -15 -74 -80 -87 -25 -4 -75 -23 -68 -27 0
2 72 8 38 83 86 82 10 4 11 1 48 53 36 30 20 28 16 15 18 21 37 6 58 -88 -69 -63 -34 -67 -19 -44 -35 -78 -89 -5 -29 -75 -73 -59 -76 -55 -52 -40 -24 -25 0
5 54 3 37 24 26 89 78 -49 -25 -7 -47 -27 -11 -52 -22 -77 -19 0
28 42 88 76 15 41 63 7 86 65 83 18 46 26 31 43 30 72 37 81 13 79 33 32 27 22 2 45 14 12 16 55 23 11 69 70 -85 -53 -21 -40 -61 -5 -82 -9 -34 -24 -87 -29 -71 -67 -39 -68 -80 -6 -73 -44 -3 -47 -54 -4 -36 -59 -49 -17 -38 -75 -58 -60 -66 0
13 1 51 85 47 22 71 7 63 33 44 82 32 48 61 30 42 55 25 31 73 20 70 12 87 53 84 81 77 39 76 41 35 21 57 78 4 75 23 37 24 80 68 69 18 65 6 52 -54 -49 -5 -45 -16 -28 -66 -34 -10 -29 -46 -27 -40 -8 -36 -9 -56 -11 -83 -43 -58 -72 -38 -88 -86 -90 -62 -14 -3 -79 -50 -67 -74 -59 -15 0
53 87 79 89 2 62 66 46 19 32 9 60 63 58 34 14 29 68 28 24 36 30 86 65 16 67 12 21 -15 -56 -70 -52 -38 -5 -54 -85 -74 -8 -13 -23 -61 -49 -40 -25 -33 -57 -47 -80 -78 -50 -83 -43 -81 -76 -37 -17 -1 -11 -51 -35 0
43 55 73 68 89 67 33 53 82 41 32 -90 -3 -62 -84 -1 -17 -40 -25 -78 -74 -39 -7 -57 -79 -42 0
72 15 70 34 41 85 58 56 -6 -19 -1 -5 -87 -29 -43 -42 -47 -13 0
65 62 7 15 36 13 81 89 59 17 30 28 3 46 43 56 22 70 14 27 18 4 39 66 44 72 31 57 -67 -42 -71 -53 -5 -63 -23 -2 -38 -61 -8 -20 -76 -64 -41 -24 -9 -34 -60 -45 -51 -50 -19 0
21 76 84 7 80 74 75 85 54 41 30 31 33 32 52 46 88 90 89 56 53 44 28 11 58 34 17 50 68 19 66 -61 -13 -24 -81 -42 -47 -25 -40 -70 -62 -49 -15 -69 -4 -5 -64 -6 -57 -9 -18 -27 -45 -71 -59 -86 -2 -26 -67 -36 -1 -82 -79 -77 -48 -38 -20 -51 -55 -83 -72 -14 -16 0
18 47 90 32 59 87 74 63 76 53 42 46 68 69 61 81 41 1 7 77 31 13 34 -23 -36 -52 -49 -80 -14 -71 -10 -33 -20 -28 -22 -89 -12 -43 -27 -65 -79 -25 -56 -5 -64 -58 0
85 79 48 9 51 66 11 30 68 52 17 58 61 83 46 87 76 45 42 3 71 7 39 38 19 47 74 10 50 43 37 33 54 60 64 57 78 63 31 28 25 75 27 -56 -34 -26 -24 -70 -44 -41 -22 -20 -16 -72 -6 -13 -49 -80 -36 -8 -35 -69 -40 -82 -90 -2 -65 -21 -67 -84 -59 -18 -55 -53 -1 -14 -73 -86 -81 -4 -88 -15 -77 -5 -29 -32 0
71 86 1 74 9 54 41 50 83 48 5 77 64 -53 -40 -35 -58 -88 -6 -28 -27 -7 -85 0
14 11 34 48 25 28 79 54 10 -52 -74 -82 -44 -13 -41 -21 -38 -61 0
8 38 3 69 76 81 12 49 25 44 47 55 83 62 9 26 23 30 51 15 60 72 85 78 27 29 11 56 46 36 22 65 64 35 -21 -63 -17 -32 -70 -43 -31 -42 -89 -33 -45 -87 -37 -20 -66 -84 -19 -74 -13 -10 -73 -71 -90 -41 -14 -77 -34 -79 -57 -24 -53 -54 -48 -67 -5 -80 -7 -61 -1 0
63 57 29 72 76 27 39 84 25 50 3 6 74 87 71 79 -18 -83 -80 -56 -53 -66 -49 -30 -33 -88 -42 -73 0
48 14 46 34 25 29 85 53 32 13 22 16 86 28 70 51 -24 -43 -78 -76 -47 -90 -89 -52 -2 -80 0
81 53 88 48 47 37 46 21 7 62 40 6 85 66 35 33 76 38 70 1 65 90 17 20 87 60 31 64 67 82 -83 -41 -79 -24 -78 -44 -52 -74 -28 -71 -32 -2 -63 -9 -69 -72 -22 -89 -34 -16 -29 -49 -50 -8 -84 -25 -15 -56 -18 -5 -45 -43 -12 -26 -14 -51 -54 -4 -61 -10 -58 -27 -11 -23 -39 -77 -13 -73 -80 -3 -55 -59 -86 0
13 40 54 46 32 85 66 90 44 70 59 62 56 22 1 64 3 65 43 30 79 83 20 -33 -50 -17 -39 -73 -11 -63 -21 -31 -9 -58 -84 -81 -16 -52 -35 -24 -10 -72 -37 -36 0
45 76 88 65 81 43 37 27 68 47 70 26 16 31 -28 -17 -46 -7 -24 -18 -62 -78 -52 -86 -58 -34 -2 -20 -61 0
15 22 79 49 -84 -43 -54 -73 -25 -34 -82 0
80 73 5 20 26 57 46 52 40 12 32 2 28 58 25 68 76 64 67 44 51 87 65 37 85 89 48 75 82 22 19 35 54 86 79 3 -15 -56 -83 -18 -60 -33 -88 -49 -4 -6 -70 -29 -7 -8 -45 -72 -61 -16 -90 -77 -69 -13 -50 -39 -10 -74 -11 -66 -24 -71 -84 -9 0
11 69 89 78 -33 -31 -1 -62 0
48 72 28 87 13 57 3 18 -4 -60 -43 -10 -76 -88 -26 -8 -50 -77 0
21 20 8 18 72 22 35 77 71 83 40 37 86 43 41 60 28 76 11 62 58 66 75 19 47 49 36 4 1 61 39 53 9 14 33 29 70 38 48 69 88 82 56 67 78 -63 -59 -85 -27 -84 -87 -64 -30 -15 -16 -2 -81 -26 -73 -55 -23 -7 -6 -90 -12 -5 -79 -68 -25 -57 -45 -50 -13 -32 -65 -44 -31 -46 -24 -51 -89 -42 -54 -80 -34 0
26 19 4 28 38 7 80 49 82 44 23 18 86 13 34 39 87 77 2 11 1 42 60 73 63 66 31 56 90 25 55 84 -64 -17 -43 -29 -35 -41 -51 -89 -33 -48 -70 -15 -14 -54 -53 -40 -71 -59 -76 -20 -3 0
31 66 62 46 -24 -7 -50 0
80 13 22 40 7 36 49 56 86 51 6 4 38 89 14 88 69 57 37 48 46 75 59 18 52 78 16 24 2 76 87 15 62 19 74 41 -25 -77 -1 -63 -72 -81 -26 -9 -61 -53 -82 -21 -23 -71 -32 -34 -17 -28 -5 -83 -58 -8 -11 -30 -90 -33 -67 -50 -45 -64 -44 -84 -47 0
70 38 3 7 53 12 78 68 28 65 61 49 31 62 50 82 76 30 11 86 18 25 51 20 -8 -66 -37 -16 -5 -41 -47 -55 -90 -23 -17 -36 -46 -60 -1 -83 0
36 65 50 27 5 62 41 88 19 81 23 67 51 85 70 15 58 32 39 44 45 34 64 66 90 17 73 46 86 7 21 79 43 75 42 -3 -6 -11 -8 -9 -54 -31 -80 -82 -13 -35 -12 -48 -24 -30 -16 -61 -63 -25 -71 -2 -76 -68 -1 -55 -40 -14 -74 -89 -22 -53 -49 -56 -4 -28 -77 -20 -84 -83 -47 -10 0
74 1 78 22 46 39 2 51 72 53 81 36 4 16 49 41 23 90 58 60 48 63 66 67 10 3 87 80 8 5 77 15 11 69 64 86 20 82 25 85 54 29 -30 -38 -12 -65 -79 -14 -26 -89 -7 -13 -17 -19 -62 -75 -76 -37 -21 -88 -45 -44 -33 -43 -57 -59 -32 -9 -71 -56 -55 -24 -83 -70 -35 -84 -34 -31 0
5 6 69 17 25 31 24 52 46 47 60 -8 -71 -21 -59 -61 -30 -76 -38 -57 -14 0
74 28 1 50 18 61 70 21 75 38 34 35 32 22 59 44 48 14 6 26 19 82 41 23 13 78 84 43 5 45 77 29 66 71 -60 -63 -55 -49 -40 -15 -12 -81 -17 -10 -20 -86 -89 -68 -62 -4 -53 -16 -24 -11 -7 -47 -64 -39 -36 -57 -65 -42 -2 -58 -67 -80 -25 -46 -52 -56 -87 -3 0
85 -56 -17 -61 0
58 6 50 76 84 66 15 4 80 81 16 9 17 79 67 32 62 33 45 14 73 52 42 74 7 57 22 69 37 90 21 -43 -2 -30 -88 -1 -85 -20 -86 -83 -78 -5 -61 -40 -27 -51 -23 -59 -3 -77 -28 -56 -72 -63 -10 -71 -75 -11 -47 -82 -13 -24 -18 -64 -68 -46 -55 -35 -38 -8 -49 -39 -36 0
70 19 31 80 75 82 34 72 56 64 35 53 61 22 76 13 57 -74 -40 -84 -65 -60 -44 -48 -11 -28 -17 -27 -15 -45 -46 -32 -69 -23 -37 -67 -26 -6 -4 -43 -29 -50 -41 -18 0
54 71 18 82 5 7 10 60 70 58 90 78 25 66 55 -31 -26 -67 -32 -45 -81 -44 -28 -21 -6 -47 -15 -83 -89 -33 -52 0
60 32 13 31 -90 -38 0
55 86 31 36 44 51 23 72 24 84 58 34 75 25 19 11 54 45 83 35 67 22 8 87 42 66 60 -46 -48 -18 -65 -43 -81 -38 -33 -89 -63 -79 -3 -37 -47 -2 -40 -52 -39 -4 -15 -49 -9 -27 -73 -16 -26 -77 -90 -53 -82 -57 -41 -28 -32 -76 -64 -12 -85 0
22 78 61 72 88 51 8 13 55 23 59 38 62 83 76 90 29 18 89 48 30 37 68 -85 -26 -25 -57 -44 -17 -52 -65 -11 -64 -74 -49 -56 -7 -43 -31 -3 -24 -5 -66 -39 -87 -33 -19 0
18 75 27 6 26 82 37 61 36 64 81 1 44 66 15 29 83 25 88 70 55 7 48 20 -9 -38 -78 -21 -2 -10 -17 -52 -69 -80 -42 -14 -84 -39 -63 -90 -4 -71 -41 -67 -13 -31 -51 -89 0
30 45 24 19 50 56 12 48 47 83 32 11 86 42 1 70 -2 -55 -58 -40 -76 -29 -34 -27 -4 -39 -65 -41 -31 -68 -90 -38 -61 -52 -78 -84 -64 -14 -73 0
81 65 38 7 0
76 81 87 44 43 68 1 73 13 46 39 86 31 78 41 5 64 6 11 82 38 45 90 77 47 10 -57 -72 -18 -49 -67 -61 -84 -48 -32 -74 -59 -35 -9 -58 -30 -2 -66 -79 -20 -55 0
58 9 73 37 61 68 19 6 17 86 1 3 66 -81 -54 -39 -35 -24 -79 -45 -38 -87 -18 -29 0
2 42 65 58 85 79 31 78 63 48 86 47 11 75 39 22 69 24 20 83 33 70 7 59 77 37 52 21 40 1 10 51 15 9 -46 -88 -26 -38 -90 -13 -62 -12 -14 -18 -72 -30 -80 -74 -5 -61 -73 -25 -19 -67 -36 -55 -49 -4 -87 -66 -53 -57 -16 -56 -35 -71 -28 -32 -23 -43 -29 -6 -84 -45 -27 -81 -76 -34 -50 -3 -41 0
7 56 15 6 22 23 30 10 65 12 84 20 75 3 83 14 5 79 18 81 34 -72 -41 -48 -61 -62 -17 -76 -37 -88 -57 -40 -54 -73 -55 -24 -71 -77 -28 -32 -45 -27 -16 0
4 28 90 2 42 65 82 36 43 19 20 8 62 80 53 67 49 73 50 87 57 79 3 34 59 69 84 31 86 51 76 1 -75 -27 -46 -15 -30 -39 -78 -24 -71 -68 -29 -56 -38 -9 -37 -58 -63 -16 -47 -41 -74 -52 -60 -14 -6 -25 -33 -55 -12 -21 -89 -45 -66 -83 -72 -77 0
78 73 88 44 82 53 38 62 34 6 50 10 32 22 21 47 45 57 83 87 36 85 5 61 -54 -74 -51 -58 -63 -86 -15 -56 -66 -77 -65 -20 -33 -71 -81 -27 -30 -52 -25 -3 -42 -70 -1 -16 -90 -28 -12 -2 -13 -48 -26 -68 -76 0
29 67 47 81 10 62 42 22 20 5 34 1 76 12 24 28 46 2 87 63 80 13 65 38 -3 -4 -17 -18 -7 -53 -90 -85 -83 -43 -58 -27 -41 -60 -86 -89 -54 -15 -23 -44 -79 -70 -45 -68 -55 0
87 80 50 70 33 5 22 37 31 27 25 47 7 40 48 60 2 -82 -73 -78 -83 -39 -57 -69 -74 -52 -29 -21 -68 -56 -17 -6 -28 0
41 16 43 85 67 72 37 10 51 80 42 19 34 76 15 -63 -74 -14 -26 -33 -90 -12 -5 -50 -20 -45 -53 -23 -17 -40 -83 -47 -57 -62 -88 -7 0
3 72 6 11 83 66 10 18 36 53 67 26 15 78 1 51 73 13 20 42 60 79 57 62 -44 -49 -30 -50 -52 -8 -46 -45 -5 -34 -28 -89 -87 -16 -81 -48 -17 -39 -55 -68 -77 -14 -22 -9 -82 -70 -7 -86 -64 0
79 24 47 42 8 15 61 75 71 59 36 46 88 77 12 35 50 43 25 70 14 -62 -11 -51 -48 -9 -68 -4 -34 -32 -38 -81 0
42 5 7 1 53 9 80 83 55 88 31 40 21 35 52 57 -79 -68 -37 -20 -38 -13 -26 -28 -71 -36 -12 -32 -24 -58 -30 -82 -6 -2 -78 -86 -18 -25 -72 -59 0
48 1 26 85 42 16 49 84 59 23 65 62 13 43 56 60 33 46 70 51 61 2 7 47 44 77 40 88 83 34 17 28 38 -8 -41 -27 -76 -29 -78 -68 -18 -80 -82 -86 -58 -67 -25 -31 -52 -71 -14 -64 -3 -81 -90 -24 -79 -74 -4 -15 -5 -21 -72 0
48 57 53 62 31 56 33 9 -44 -72 -10 -34 -23 -71 -21 -40 -37 -66 -29 0
79 67 50 39 25 23 77 3 11 43 4 15 69 53 76 31 9 26 84 36 14 85 54 -30 -70 -90 -8 -32 -74 -55 -20 -22 -75 -40 -71 -44 -19 -7 -59 -73 -49 -24 -56 -6 -1 -65 0
66 79 67 9 8 2 39 20 15 19 11 31 44 30 14 73 -53 -26 -34 -75 -47 -6 -59 -64 -49 -61 -18 -63 -23 -28 -40 -50 0
41 51 72 87 19 89 5 8 24 44 38 27 23 70 71 60 30 34 85 82 65 37 29 76 -59 -86 -58 -83 -39 -9 -79 -74 -17 -16 -68 -43 -2 -36 -66 -42 -75 -61 -14 -46 -6 0
30 77 79 54 36 80 27 57 72 23 60 17 75 49 40 90 70 19 81 59 69 5 39 62 37 6 73 42 61 -12 -46 -68 -41 -71 -1 -50 -78 -63 -32 -84 -53 -25 -48 -8 -35 -28 -52 -86 -16 -9 -83 -34 -4 -74 -44 -3 -47 -65 -7 -58 0
79 90 35 34 45 28 56 65 26 17 69 10 3 44 24 51 21 72 20 50 -83 -33 -77 -16 -39 -67 -13 -71 0
85 43 44 1 83 18 16 37 15 20 45 73 64 70 38 84 72 48 31 13 62 28 50 76 24 32 87 -86 -14 -39 -5 -51 -90 -81 -41 -21 -61 -82 -58 -42 -66 -49 -63 -40 -67 -30 -29 -53 -2 -59 -23 -52 -46 -6 -47 0
89 82 20 73 87 65 2 69 29 53 8 9 27 24 74 21 67 22 72 63 25 -58 -90 -47 -13 -49 -19 -60 -23 -36 -81 -17 -12 -10 -4 -51 -68 -55 -7 -5 -71 -80 -64 -35 -83 -43 -34 -46 -41 0
39 6 48 33 16 31 58 87 2 76 70 24 65 54 7 56 81 -25 -66 -28 -68 -32 -61 -21 -88 -83 -30 -10 -15 -90 -17 -8 -5 0
20 2 31 76 40 39 -14 -55 -17 0
55 68 69 35 77 36 83 22 47 34 2 54 10 43 -32 -76 -72 -50 -45 -71 -31 -61 0
35 69 23 52 41 78 5 40 43 29 11 34 79 31 25 89 55 47 64 10 21 87 74 32 65 17 60 82 -28 -63 -67 -80 -61 -53 -73 -16 -90 -2 -13 -88 -37 -50 -75 -66 -54 -14 0
15 10 -56 0
19 76 10 53 62 50 51 85 37 16 7 45 68 17 78 23 3 8 22 43 69 24 60 59 70 88 75 31 13 15 58 -33 -87 -55 -57 -83 -79 -41 -77 -73 -89 -40 -84 -72 -12 -63 -36 -4 -1 -52 -26 -30 -9 0
15 11 70 35 26 14 13 21 67 53 74 72 25 4 60 28 76 24 56 81 90 12 89 5 84 64 -54 -68 -83 -45 -6 -40 -47 -57 -18 -75 -52 -86 -87 -66 -16 -29 -46 -37 -39 -69 -19 -59 -62 -9 -73 -71 -2 -49 -80 -22 0
4 53 22 79 -64 -18 -83 -8 0
35 -61 -23 0
3 24 77 80 9 1 12 19 71 70 57 17 67 23 61 49 37 46 35 30 20 6 32 39 18 4 29 90 -64 -66 -21 -55 -60 -36 -53 -43 -14 -41 -89 -13 -27 -82 -73 -48 -69 -58 -84 -62 -16 -25 -63 -56 -40 -59 -5 -26 -15 -52 -75 -22 -79 -54 -7 -65 -47 -34 -68 -11 -31 -81 -86 -76 -72 0
28 3 20 54 -36 -53 -78 -75 0
6 88 48 77 50 75 72 83 82 15 32 3 76 63 81 14 87 19 90 62 69 22 20 21 45 84 57 25 28 23 47 31 29 43 18 58 1 -17 -4 -85 -16 -12 -86 -89 -8 -9 -80 -74 -66 -53 -46 -71 -11 -36 -60 -13 -64 -5 -79 -61 -39 -70 -2 -7 0
49 26 38 21 18 32 30 51 84 75 55 63 10 40 85 23 35 29 64 90 37 15 80 -71 -39 -22 -5 -33 -4 -53 -20 -56 -57 -77 -42 -6 -31 -72 -62 -50 0
3 8 39 -23 -46 -90 -69 -43 0
45 32 48 20 75 30 11 80 -64 -50 -39 -84 -36 -73 -63 -33 0
60 41 34 11 76 45 65 21 12 74 29 62 47 73 24 16 79 4 58 38 28 52 23 17 56 2 84 25 59 49 14 50 86 53 71 -19 -30 -31 -32 -66 -33 -85 -36 -82 -26 -13 -51 -20 -67 -42 -75 -1 -57 -72 -40 -54 -22 -9 -81 -35 -68 -80 -8 -88 -63 -48 -18 -27 -3 -78 -64 -46 0
5 15 31 19 40 7 60 80 43 25 -26 -32 -6 -63 -64 -39 -41 -10 -11 -83 -75 -2 -82 -69 0
41 5 44 39 87 42 20 63 81 74 26 16 -40 -50 -72 -79 -73 -64 -21 -9 -65 0
20 -43 -55 0
54 38 81 35 42 52 45 37 66 70 13 15 20 61 34 47 63 50 67 7 87 80 8 1 60 71 84 2 64 24 27 19 43 78 68 88 11 9 28 83 39 69 -44 -75 -23 -90 -53 -14 -17 -49 -82 -74 -65 -89 -76 -55 -22 -31 -48 -36 -46 -58 -32 -5 -73 -6 -29 -18 -12 -33 -4 -40 -56 -16 -51 -86 -85 -79 -77 -26 -62 -30 -3 -59 -72 -25 -41 0
49 69 1 76 16 79 7 89 90 86 15 25 29 8 42 46 77 21 9 19 50 4 56 63 -67 -41 -30 -88 -10 -3 -2 -27 -37 -31 -78 -38 -52 -20 -74 -64 -59 -39 -58 -47 -28 -18 -24 -85 -5 0
2 37 25 43 20 35 39 42 34 88 64 44 90 47 74 6 4 84 38 82 53 23 87 3 24 30 72 68 29 32 18 5 56 76 52 7 33 -26 -67 -83 -22 -19 -65 -16 -1 -60 -31 -66 -79 -69 -75 -12 -40 -17 -58 -50 -11 -14 -46 -9 -54 -41 -61 -8 -77 -27 -48 -80 -49 -59 -78 -28 -36 -62 -71 -10 -21 0
10 31 41 37 29 17 26 90 51 59 48 61 5 22 67 -24 -58 -49 -6 -36 -19 -46 -28 -45 -87 -75 -81 -80 -23 -82 -53 -38 -3 -68 -27 -40 -32 -21 0
68 24 53 31 39 46 37 36 79 22 58 71 14 65 2 55 29 51 3 88 7 84 41 57 90 1 50 74 87 83 15 52 -25 -40 -19 -34 -66 -78 -75 -9 -11 -89 -48 -64 -38 -59 -10 -76 -62 -13 -4 -61 -12 -63 -86 -43 -72 -17 -35 -5 -56 -67 -18 -69 -6 -77 0
89 46 19 34 66 42 13 90 17 16 47 70 2 45 23 48 21 1 6 50 37 41 61 74 29 67 18 12 65 57 38 81 25 -31 -39 -10 -15 -75 -63 -64 -27 -52 -73 -26 -54 -7 -83 -5 -30 -86 -78 -72 -56 -11 -44 -28 -55 -32 -49 -80 -59 -24 -9 -69 -4 -3 -85 -36 -71 -60 -76 -53 -79 -84 -43 0
1 31 33 -8 -42 -28 -11 -84 -56 0
58 64 63 25 -4 -26 -8 0
16 59 13 79 10 90 84 31 52 85 88 8 25 86 60 36 7 71 69 81 23 76 32 2 42 33 55 53 12 74 39 11 -78 -48 -34 -77 -70 -67 -73 -9 -29 -37 -20 -56 -41 -40 -43 -5 -6 -49 -18 -21 -30 -44 -28 -19 -80 -75 -47 -61 -82 -26 -50 -62 -51 -87 0
75 51 69 12 28 70 44 41 68 77 4 50 66 5 32 86 67 39 59 14 27 83 61 88 42 56 15 57 76 37 3 46 85 63 55 64 43 74 84 58 26 -87 -48 -1 -6 -71 -54 -29 -53 -30 -31 -9 -11 -23 -62 -49 -78 -73 -80 -17 -40 -8 -19 -24 -13 -45 -47 -65 -10 -34 -38 -33 -79 -60 -16 -20 -7 -82 0
23 41 22 84 56 19 57 77 55 2 12 72 60 62 58 34 39 81 82 78 53 59 37 20 32 21 70 64 -69 -52 -26 -61 -46 -50 -89 -66 -75 -73 -48 -67 -3 -16 -5 -85 -88 -49 -65 -90 -14 -40 -36 0
15 4 -44 -29 -38 -89 0
28 88 21 9 15 61 81 47 71 10 35 73 41 46 58 43 57 63 -84 -72 -69 -75 -55 -80 -16 -1 -51 -42 -32 -50 -89 -70 -7 -24 -62 -85 -25 -36 -6 -38 -26 0
68 46 35 10 59 90 40 70 79 42 27 15 57 72 37 18 81 88 47 25 14 48 33 1 16 7 49 5 75 51 26 13 66 87 31 -52 -28 -22 -78 -45 -23 -8 -61 -4 -73 -69 -12 -29 -44 -80 -17 -85 -82 -43 -64 -56 -54 -9 -55 -38 -24 -20 -83 -2 -76 -74 -30 -41 -3 -71 -21 -32 -39 -62 -36 0
86 64 18 77 26 31 22 88 65 35 4 41 27 21 87 54 -20 -32 -12 -57 -58 -11 -3 -7 -53 -89 -49 -28 -8 -40 -84 -39 -82 -47 0
35 79 25 16 80 69 60 66 44 75 85 82 84 42 67 51 13 20 62 89 5 74 6 24 45 -22 -73 -26 -10 -30 -28 -50 -40 -32 -52 -11 -41 -9 -39 -59 -81 -64 -90 -2 -38 -65 -58 -12 -15 -78 -48 -72 0
31 69 48 73 76 19 21 41 75 33 3 25 53 86 43 65 80 55 54 5 47 72 40 70 67 8 34 45 11 16 27 87 82 18 42 6 1 51 22 90 36 39 38 -58 -29 -77 -83 -71 -79 -63 -32 -10 -26 -49 -52 -35 -20 -57 -78 -61 -62 -17 -30 -46 -4 -14 -66 -44 -64 -60 -13 -81 -12 -24 -15 -88 -37 -50 -7 -9 -28 -85 -56 -59 0
84 68 10 74 85 42 1 4 8 56 75 66 41 22 81 90 -37 -50 -49 -47 -48 -45 -2 -43 -58 -73 -17 -62 -57 -19 -38 -54 -27 -46 -88 -16 -26 -31 -3 0
65 14 11 5 81 1 10 48 66 79 29 75 88 20 36 21 67 47 13 74 60 53 70 52 57 8 2 80 59 22 50 40 4 46 -3 -87 -35 -86 -30 -68 -71 -54 -38 -72 -73 -16 -82 -90 -17 -69 -31 -18 -33 -24 -43 -84 -56 -25 -58 -37 -64 -27 -19 -32 -6 -76 -26 -7 -62 -49 -28 0
62 77 56 41 83 8 72 40 31 9 73 58 34 17 76 39 42 36 52 81 -10 -1 -3 -75 -44 -63 -15 -68 -7 -48 -67 -86 -74 -30 0
63 86 30 16 43 39 89 45 40 23 84 76 42 1 54 34 44 56 61 88 72 5 87 6 17 69 53 58 51 25 57 71 55 -7 -75 -18 -24 -68 -78 -70 -32 -52 -41 -65 -20 -49 -90 -81 -8 -80 -73 -38 -46 -9 -12 -14 -50 -48 -4 -13 -29 -2 -66 -31 -26 -62 -64 -74 -79 -33 -21 -83 -85 -82 -37 -60 -15 0
7 37 15 87 12 45 73 67 -83 -49 -8 -48 0
5 82 62 47 36 25 64 53 34 30 60 21 37 1 85 11 32 52 39 9 70 28 38 24 89 26 -42 -77 -27 -73 -90 -48 -15 -45 -44 -18 -59 -2 -31 -75 0
67 24 83 66 64 74 15 32 51 38 27 87 82 22 13 46 18 21 7 63 58 1 68 41 -65 -90 -69 -16 -49 -85 -53 -26 -70 -5 -11 -56 -33 -10 -40 -84 -52 -19 -54 -62 -44 -48 -2 0
47 46 2 73 17 80 69 66 35 67 78 7 63 18 51 3 -84 -8 -52 -54 -22 -82 -50 -61 -16 -58 -21 -43 -12 -39 -77 -23 -1 -87 -6 -41 -13 -75 -64 -49 0
67 25 37 12 81 33 28 10 2 9 75 23 77 21 32 65 63 87 60 4 79 49 -36 -41 -34 -38 -57 -78 -53 -40 -7 -54 -42 -6 -72 -62 -43 -16 -19 -51 -76 -35 -52 -86 -55 -8 -59 -29 -1 0
84 78 80 15 2 32 66 33 74 67 64 45 8 42 53 4 73 43 44 20 35 60 23 56 1 89 9 34 7 27 38 39 77 90 58 10 -52 -62 -24 -11 -18 -54 -86 -69 -3 -6 -13 -83 -87 -50 -63 -46 -81 -41 -12 -51 -55 -49 -31 -22 -30 -82 -19 -36 -28 -21 -70 -29 -71 -17 -40 0
8 45 26 2 59 9 84 18 63 81 65 89 53 39 44 67 -29 -22 -13 -23 -43 -34 -15 -33 0
3 43 13 59 85 4 58 78 27 84 7 34 26 37 -30 -53 -52 -88 -90 -55 -15 -36 -60 -51 -86 -82 -12 -38 -33 -66 -56 -61 -45 -10 -50 -83 -35 -73 -42 0
69 8 32 22 33 77 34 60 43 46 50 9 28 23 76 11 45 58 41 83 61 42 48 49 4 2 52 16 72 82 54 37 47 5 74 -10 -78 -24 -57 -53 -89 -30 -86 -27 -51 -25 -15 -68 -14 -59 -39 -29 -1 -19 -79 -85 -63 -40 -64 -12 -35 -87 -80 0
38 78 82 3 46 61 16 18 -30 -14 -22 -74 -59 -86 -66 -24 -48 -28 -51 -32 -50 -55 0
46 33 45 3 13 25 39 23 14 42 7 28 81 19 36 89 5 48 10 63 35 66 68 40 76 53 65 8 67 70 44 -38 -71 -1 -27 -29 -90 -11 -16 -88 -51 -86 -52 -57 -61 -22 -32 0
13 22 53 67 -8 -7 -41 -49 -44 0
46 7 2 70 14 59 86 9 25 80 42 81 6 12 79 68 72 71 76 63 1 65 56 23 54 53 13 3 -78 -11 -15 -8 -26 -22 -31 -69 -90 -36 -32 -17 -4 -21 -77 -37 -83 -60 -44 -57 -89 -24 -43 -45 -58 -74 -82 -35 -66 -64 -5 -52 -87 -41 -39 -55 -33 -88 -67 -18 -50 -19 -51 -84 -28 -62 -47 -30 -75 0
25 43 22 36 45 81 52 56 40 -16 -11 -83 -69 -7 -61 -28 -46 -38 0
1 54 36 7 42 41 28 90 61 68 4 56 27 3 20 45 63 58 84 -15 -21 -66 -12 -23 -37 -65 -49 -75 -13 0
87 69 51 68 22 85 90 71 9 24 2 44 55 10 28 3 35 72 47 52 50 88 20 15 17 81 53 80 32 33 56 7 59 75 -36 -61 -43 -8 -84 -77 -54 -14 -12 -1 -42 -11 -66 -25 -6 -65 -70 -73 -16 -23 -79 -78 -76 -62 -27 -18 -82 0
1 69 12 8 36 84 18 4 58 42 28 68 71 6 59 3 67 23 9 38 30 63 14 83 20 61 76 11 53 25 32 64 26 40 81 86 -78 -15 -54 -29 -22 -90 -7 -49 -85 -50 -41 -51 -73 -46 -56 -79 -62 -10 -43 -44 -16 -34 -57 -5 -87 -33 -70 -47 -48 -66 -55 -31 -17 -27 -60 -24 -13 -88 -77 -45 -39 -89 -74 -2 -21 0
55 7 53 48 34 87 5 18 36 46 6 28 35 10 23 68 64 32 24 -82 -26 -11 -78 -25 -65 -21 -76 -33 -16 -84 -70 -40 -66 -54 -22 -20 -72 -79 -9 -41 -61 -73 -12 -29 -59 -43 -30 -44 -8 -71 -47 -86 -31 -80 -45 -15 -39 -75 -51 0
31 63 49 89 71 33 87 41 -13 -8 -16 0
17 78 87 89 64 47 59 27 24 54 51 43 -70 -6 -58 -33 -72 -40 -11 -15 -76 -44 -61 -34 -56 -12 -90 -42 0
83 40 65 52 5 49 2 4 39 54 84 85 66 75 19 64 79 23 72 58 61 82 55 31 77 62 51 12 7 90 1 53 43 68 57 8 47 86 20 13 46 50 27 81 74 36 16 42 33 34 30 26 14 3 59 -89 -73 -44 -69 -78 -29 -87 -28 -10 -9 -71 -63 -48 -45 -22 -17 -41 -35 -70 -21 -24 -38 -6 -56 -15 -80 -88 0
7 67 16 63 4 53 71 65 38 74 54 47 82 28 48 77 40 29 89 46 50 83 41 3 73 36 2 88 27 1 18 87 20 58 17 42 14 -57 -64 -70 -6 -49 -21 -5 -72 -61 -59 -69 -9 -51 -34 -15 -66 -19 -45 -12 -30 -22 -62 -39 -25 -76 -52 -68 -85 -81 -44 -23 -80 -43 -79 -32 -13 -37 -60 -35 -78 -24 -10 -55 0
16 48 84 60 39 66 27 68 85 83 76 37 8 88 77 35 75 17 23 57 28 58 25 81 19 65 3 11 22 61 1 47 63 54 21 87 36 30 73 50 69 74 62 29 34 -40 -26 -12 -52 -42 -33 -49 -78 -43 -31 -13 -38 -46 -56 -90 -4 -14 -9 -2 -6 -41 -82 -7 -72 -24 -89 -59 -15 -44 -45 -79 -64 -18 -70 -55 -67 -80 -32 -20 -71 -10 0
1 11 53 50 76 20 65 55 80 34 52 28 37 64 47 5 82 45 18 40 68 61 30 62 39 74 -56 -71 -24 -78 -43 -6 -67 -85 -60 -48 -83 -23 -35 -84 -63 -26 -70 -13 -90 -7 -59 -66 -89 -29 -2 0
22 70 69 44 78 52 4 16 83 8 73 19 9 59 27 31 76 67 54 68 15 32 90 29 55 79 -17 -13 -12 -42 -14 -23 -49 -34 -45 -38 -85 -58 -57 -51 -82 -89 -1 -41 -80 -75 -37 -26 -77 -18 -7 -66 -11 -20 -21 -46 -74 -62 -2 0
62 88 85 69 53 73 27 -57 -33 -71 -22 -72 -1 -14 -86 -34 -18 -38 -17 0
1 38 70 35 32 49 13 18 10 73 72 15 -23 -5 -80 -42 -33 -45 -37 -51 -41 -64 0
19 29 16 73 20 59 22 34 31 21 -80 -57 -38 -77 -70 -88 -17 0
33 26 85 73 47 71 88 15 65 27 64 30 68 69 46 60 48 16 34 44 80 29 39 55 2 78 22 45 77 18 84 74 7 31 81 87 -35 -41 -37 -28 -14 -70 -38 -76 -54 -13 -51 -19 -61 -23 -57 -52 -63 -83 -36 -3 -24 -6 -86 -58 -12 -56 -49 -66 -75 -10 -11 -17 -90 -5 -79 -53 -82 -4 -42 -32 -40 -1 -43 0
67 22 70 40 32 18 26 3 73 45 16 60 63 10 36 30 78 68 28 50 20 35 51 4 44 31 74 59 65 37 84 69 12 17 14 83 34 86 72 6 56 -33 -81 -43 -27 -58 -75 -80 -61 -79 -42 -8 -49 -47 -7 -64 -82 -62 -9 -89 -53 -90 -54 -21 -5 -66 -71 -88 -29 -77 -87 -1 -85 -48 -41 -76 -24 -23 -19 -25 0
50 69 80 72 59 70 18 2 82 35 56 15 66 90 64 55 62 19 86 51 63 89 42 31 14 20 53 11 28 39 13 60 27 -5 -73 -78 -21 -29 -38 -61 -12 -36 -43 -84 -47 -34 -57 -33 -3 -6 -79 -48 -45 -87 -71 -37 -23 -74 -17 -76 -16 -81 -1 -10 -40 -77 -9 -68 -54 -75 -58 -4 -46 0
79 21 57 4 40 72 47 67 75 -69 -10 -60 -45 -12 -33 -61 -14 -17 -82 -32 -42 0
51 49 68 14 41 66 29 5 35 78 4 87 77 81 7 74 2 36 83 16 24 30 -21 -19 -3 -43 -47 -15 -62 -17 -76 -56 -20 -55 -73 -8 -79 -28 -38 -57 -75 -85 -39 -23 -37 -34 -31 -42 0
80 54 17 11 41 84 79 9 26 75 46 23 45 77 15 43 61 70 5 51 69 3 64 88 76 53 2 59 25 60 87 10 78 62 48 63 66 56 83 -47 -14 -33 -24 -20 -58 -65 -19 -86 -18 -4 -29 -32 -30 -40 -50 -16 -71 -38 -52 -55 -21 -34 -49 -81 -74 -37 -1 -73 -6 -12 -31 -35 -39 -89 -22 -85 0
44 82 21 73 41 47 31 43 -7 -28 -42 -49 -67 -1 -39 -68 0
31 65 15 28 12 80 7 57 68 72 77 30 32 86 25 64 38 89 52 85 -53 -50 -9 -10 -45 -71 -42 -69 -16 -62 -26 -19 -43 -2 -81 -34 -37 -23 -60 -51 -27 0
34 73 72 -52 -22 -65 -46 -17 -84 -55 -79 0
70 69 23 31 55 49 6 8 2 75 35 57 12 68 66 79 13 85 77 43 72 11 86 24 27 81 37 73 83 28 -87 -76 -3 -64 -45 -34 -14 -16 -32 -78 -9 -80 -20 -42 -90 -38 -51 -62 -10 -5 -60 -22 -21 -47 -50 -4 -19 -89 -33 -1 -52 -17 -36 -71 -18 -56 -15 -63 -88 -84 -46 0
71 41 9 85 15 62 11 48 67 83 38 66 16 24 3 60 10 73 1 8 43 81 2 39 5 12 28 35 25 79 17 31 -50 -86 -32 -55 -84 -52 -56 -4 -20 -51 -88 -59 -87 -75 -57 -61 -33 -40 -54 -80 -68 -78 -44 -49 -42 -21 -27 0
54 18 22 20 21 44 78 51 5 81 65 7 6 55 17 25 87 73 48 23 57 8 66 30 40 -79 -24 -70 -10 -42 -77 -14 -56 -3 -19 -58 -90 -33 -1 -9 -35 -43 -63 -47 -41 -16 -69 -71 -39 0
29 59 35 14 45 3 79 49 54 72 67 77 5 11 19 57 60 75 37 21 87 52 58 41 23 25 33 27 10 76 73 65 82 32 9 55 36 64 56 85 44 88 24 90 69 66 42 18 26 -8 -6 -71 -53 -89 -63 -80 -74 -39 -81 -46 -62 -61 -38 -16 -30 -17 -84 -47 -12 -4 -22 -2 -13 -1 -28 -51 -7 -31 -86 -34 -70 -43 -20 0
4 25 18 83 3 65 81 7 21 30 72 57 79 50 54 78 75 39 29 12 68 23 37 47 67 16 -1 -31 -86 -56 -60 -48 -8 -52 -82 -9 -26 -36 -40 -44 -45 -73 -38 -85 -13 -5 -88 -76 -27 -35 -66 -59 -42 -74 -41 -87 -43 -58 -32 -11 -77 -89 -46 -33 -70 -64 -69 -55 -49 -15 -61 -34 0
23 4 39 38 21 88 60 3 72 67 90 6 16 52 7 -41 -69 -25 -87 -36 -59 -53 -18 -2 0
19 47 90 40 24 29 21 68 55 14 -6 -10 -78 -61 -28 -82 -57 -39 -66 -69 -20 -1 0
30 65 22 11 48 82 53 75 38 66 71 69 85 40 68 79 4 32 54 1 34 52 36 26 9 74 87 20 62 25 70 47 49 28 10 73 19 7 13 44 83 -63 -89 -31 -29 -6 -33 -27 -12 -23 -72 -24 -42 -80 -78 -64 -16 -50 -88 -14 -61 -59 -41 -77 -17 -58 -90 -18 -35 -3 -37 -5 -46 -57 -2 0
25 10 51 6 36 71 32 4 70 79 9 63 84 26 60 58 88 89 5 33 15 76 38 31 20 57 69 22 72 18 1 28 16 34 -2 -40 -27 -55 -17 -50 -12 -49 -37 -7 -52 -13 -3 -53 -87 -39 -19 -61 -45 -11 -8 -44 -29 -90 -56 -75 -68 -83 -86 -82 -66 -41 -42 -62 -65 -78 -67 -73 -80 -30 -85 -54 -21 -46 -48 -23 -77 -47 0
42 62 73 51 17 64 -18 -81 -5 -21 0
10 71 20 27 5 48 11 69 54 3 57 25 45 37 26 64 42 -68 -40 -52 -65 -22 -67 -34 -88 -63 -17 -58 -33 -15 -53 -32 0
63 65 15 83 41 34 90 33 37 86 46 11 60 39 4 82 72 -31 -84 -32 -89 -5 -44 -81 -36 -55 -7 -49 0
74 9 59 5 42 77 71 28 -49 -81 -22 -84 0
7 62 73 46 76 65 60 52 14 82 42 20 18 78 45 58 43 72 36 -28 -22 -64 -24 -63 -8 -9 -75 -47 -85 -31 -16 -21 -49 -67 -90 -44 -32 -61 -5 -37 -17 -30 -53 -83 -12 -54 -55 -71 0
28 83 80 69 43 55 57 6 35 9 78 72 27 48 1 44 20 5 62 18 19 22 59 32 23 54 81 -77 -63 -7 -88 -29 -40 -14 -90 -42 -26 -41 -89 -49 -67 -75 -13 -74 -36 -68 -37 -53 -71 -82 -50 -86 -45 -3 -85 -24 -87 -15 -38 -65 -58 -39 -30 -12 -60 -11 -73 -2 0
72 79 77 80 70 87 11 25 36 8 57 43 45 74 17 73 19 2 81 4 61 66 30 90 65 59 9 49 46 1 76 -68 -60 -31 -21 -53 -10 -82 -84 -62 -23 -22 -16 -55 -15 -7 -3 -83 -28 -58 -63 -14 -86 -41 -64 -78 -67 -89 -85 -34 -44 -18 -50 -20 -40 -51 -13 -26 -37 -88 -29 -35 0
5 80 68 17 75 89 76 13 47 8 67 -7 -21 -82 -42 -38 -22 -56 -84 0
84 43 69 10 67 38 79 48 65 34 89 32 2 62 4 49 74 3 36 11 5 52 15 73 -18 -23 -82 -14 -33 -80 -85 -21 -37 -27 -50 -6 -70 -55 -51 -64 -56 -25 -90 -59 -66 -83 -19 -61 -40 -8 0
40 13 28 29 82 87 85 69 25 43 21 45 23 17 49 73 80 83 77 79 41 9 70 72 2 22 65 35 5 59 10 89 76 78 36 64 37 63 84 7 11 88 -38 -19 -51 -3 -42 -53 -67 -55 -81 -20 -18 -16 -34 -48 -26 -12 -30 -46 -57 -33 -66 -15 -14 -86 -75 -4 -47 -61 -1 -74 -58 -71 -54 -62 -32 -24 -68 -60 -39 -52 -6 -50 -90 -56 -27 -44 -31 0
49 13 47 31 39 75 63 46 29 88 26 15 87 66 27 59 37 24 14 18 4 65 33 32 67 84 35 86 17 -12 -68 -80 -90 -6 -41 -3 -50 -8 -9 -30 -73 -64 -61 -45 -54 -69 -60 -56 -7 -76 -77 -85 -48 -78 -42 -2 -21 -53 -72 -23 -20 -62 -55 -19 -1 -51 -5 0
68 41 42 66 -19 -46 -69 -51 -84 0
34 20 64 1 56 58 53 47 54 28 86 16 46 85 65 5 81 17 12 7 24 4 41 69 31 35 3 63 76 30 44 62 27 32 79 90 60 77 40 22 50 55 37 75 84 59 -9 -52 -83 -43 -6 -72 -23 -15 -39 -2 -78 -14 -49 -73 -38 -10 -61 -42 -82 -25 -74 -80 -26 -36 -45 -21 -48 -57 -68 -70 -18 -87 -67 -88 -66 -11 -33 -29 0
63 84 37 -47 -56 -10 -66 -79 -41 0
36 60 80 47 88 27 30 15 29 11 14 73 -1 -26 -46 -65 -58 -5 0
13 17 74 41 4 62 73 63 5 1 30 85 -52 -90 -89 -68 -59 -20 -9 -27 -34 -28 -44 -66 -64 -21 -42 0
8 65 33 66 68 47 90 18 89 41 70 42 22 27 48 12 54 14 28 49 74 13 10 52 80 35 40 21 31 67 88 6 50 78 77 75 87 63 -72 -26 -4 -45 -85 -11 -19 -15 -53 -43 -32 -79 -55 -20 -86 -34 -46 -59 -61 -37 -36 -1 -71 -64 -57 -3 -58 -39 -25 -16 -82 -73 -44 -56 -81 -9 0
83 52 18 11 36 15 89 82 46 54 59 65 47 6 -85 -67 -51 -7 -10 -12 -79 -14 -73 -45 -62 -50 -20 0
47 84 43 22 77 -82 -39 -85 -55 -30 -38 -71 0
39 32 22 90 55 34 51 50 38 76 7 28 61 11 37 12 30 13 49 66 79 23 68 60 3 9 33 47 87 71 85 86 84 88 63 -69 -42 -53 -45 -41 -59 -65 -58 -43 -4 -8 -57 -67 -81 -40 -10 -18 -21 -31 -2 -62 -82 -75 -78 -52 -77 -27 -17 -54 -35 0
11 17 80 49 41 42 77 8 31 48 82 37 12 79 46 29 81 25 14 44 22 50 32 45 19 33 18 64 4 65 83 9 54 21 51 61 89 7 6 85 60 -71 -3 -67 -28 -66 -73 -78 -69 -72 -57 -40 -39 -16 -70 -68 -23 -84 -36 -2 -76 -52 -63 -15 -26 -56 -88 -1 -75 -62 -86 -13 -53 -58 -74 -5 -59 0
23 82 1 90 47 21 10 18 24 39 56 88 8 31 78 68 35 61 54 13 48 22 65 7 -33 -87 -17 -16 -20 -71 -64 -34 -19 -29 -89 -75 -70 -12 -45 -55 -60 -32 -38 0
14 6 86 89 25 8 61 4 77 58 20 59 42 19 21 70 15 81 57 52 47 79 31 1 85 11 41 3 45 50 40 23 -44 -87 -82 -30 -10 -66 -72 -48 -28 -68 -83 -71 -49 -18 -65 -63 -32 -90 -60 -88 -80 -34 -67 -56 -24 -43 -75 0
67 16 5 59 4 2 25 51 35 37 3 20 8 89 43 63 15 -80 -75 -14 -7 -1 -65 -24 -71 -55 -18 -19 -21 -12 -72 -84 -23 -79 -28 -58 -86 -22 -39 0
5 10 52 24 60 68 13 43 6 20 29 14 4 67 9 16 47 17 58 39 56 25 48 40 77 80 50 7 74 33 12 21 89 -62 -15 -38 -84 -57 -27 -71 -75 -76 -65 -90 -81 -73 -19 -35 -70 -45 -63 -1 -66 -61 -87 -11 -82 -79 0
59 37 1 58 13 73 74 11 3 10 65 28 85 63 -83 -76 -62 -56 -27 -36 -69 -34 -43 -7 -53 -71 -45 -9 -49 -80 -50 -24 -82 -78 0
10 32 60 36 6 12 80 90 77 42 51 70 45 55 18 43 40 29 82 50 22 46 33 59 41 19 63 2 39 71 9 28 74 89 14 52 26 15 23 30 -13 -21 -65 -78 -35 -3 -72 -87 -54 -47 -8 -73 -31 -84 -66 -61 -56 -25 -48 -17 -79 -83 -67 -38 -5 -58 -62 -11 -7 -75 0
78 6 88 86 16 70 45 11 87 89 1 49 71 63 80 21 57 20 7 -77 -61 -10 -55 -33 -62 -41 -25 -40 -83 -19 -65 -67 -64 -27 -31 -18 0
55 41 50 39 82 70 57 21 90 47 53 60 85 46 13 88 27 87 36 35 -65 -40 -63 -61 -44 -16 -67 -66 -10 -68 -8 -17 -42 -49 -73 -74 -71 -43 -64 -89 -20 0
73 63 88 5 76 9 48 40 2 18 42 52 38 29 61 16 46 25 86 30 56 -8 -51 -24 -72 -62 -77 -79 -6 -57 -75 -1 -66 -90 -22 -19 -47 -26 -32 -15 -35 -85 -4 -41 -27 -31 0
3 40 20 42 5 4 51 59 73 49 44 83 48 23 36 72 18 64 8 60 78 6 89 30 32 13 61 53 33 54 11 67 87 79 25 24 1 -90 -65 -31 -50 -82 -70 -26 -14 -2 -63 -66 -10 -47 -77 -12 -85 -57 -88 -86 -7 -39 -9 -38 -19 -43 -69 -46 -56 -16 -75 -37 -22 -45 -29 -28 -58 -17 0
79 5 11 -36 -27 -83 -54 -45 -73 0
9 42 50 18 90 52 72 60 13 66 73 28 21 48 32 -8 -14 -15 -41 -39 -83 -80 -88 -16 -84 -43 -34 -59 -49 -71 -35 -76 -5 -86 -20 -25 -51 -62 -4 -7 0
24 80 59 0
44 80 74 19 27 21 24 65 75 13 86 84 45 70 10 54 85 90 64 23 37 25 8 89 22 31 -48 -61 -29 -39 -77 -34 -76 -41 -60 -79 -82 -55 -69 -66 -47 -72 -81 -62 -71 -7 -26 -42 0
26 80 68 14 51 32 73 -85 -10 -38 -13 -89 -23 -6 -35 -30 0
5 13 24 18 44 75 29 32 11 67 88 81 87 12 47 37 20 77 69 9 1 23 45 31 85 73 39 -90 -65 -82 -53 -76 -80 -56 -34 -10 -8 -25 -79 -7 -42 -50 -89 -68 -26 -72 -35 -55 -14 -78 -19 -74 -48 0
45 86 62 83 78 88 73 74 65 53 25 31 41 67 3 50 60 37 15 22 77 10 27 29 11 57 1 26 70 19 18 33 47 49 7 82 42 -58 -81 -30 -21 -46 -6 -34 -85 -23 -43 -64 -84 -87 -69 -63 -68 -28 -71 -89 -12 -38 -80 -13 -48 -20 -61 -4 -32 -55 -24 -66 -5 -40 -8 0
16 74 45 -58 -10 -40 -26 0
66 83 63 73 42 35 25 76 55 60 56 10 -48 -26 -19 -9 -79 -89 -24 -12 -77 -37 -30 -6 -82 -21 -8 -16 -4 -11 0
85 11 90 79 16 71 21 2 30 56 14 46 77 40 8 -43 -75 -58 -9 -25 -5 -42 -35 -63 -69 -64 -41 -78 -32 -1 0
41 20 83 51 59 47 63 48 79 49 43 76 66 70 46 45 86 84 18 32 88 30 65 7 34 67 23 4 60 28 3 9 74 11 81 62 87 77 89 17 36 31 16 -71 -13 -25 -22 -54 -33 -14 -1 -2 -53 -90 -73 -61 -6 -10 -21 -57 -42 -69 -8 -50 -72 -15 -12 -5 -64 -38 -82 -27 -35 -56 -19 -80 -52 -68 -29 -44 -78 -37 -40 -39 -24 0
40 79 44 15 80 75 24 5 9 42 6 20 77 56 81 58 86 43 62 61 37 3 27 14 12 53 70 67 47 29 18 1 64 13 23 90 59 83 36 17 85 68 66 -22 -74 -76 -25 -73 -34 -46 -19 -87 -38 -52 -21 -69 -32 -45 -89 -72 -16 -39 -7 -33 -71 -10 -28 -51 -11 -8 -78 -41 -50 -60 -30 -2 -82 -54 -55 -88 -65 -48 -49 -4 -31 -57 -84 -26 -35 0
52 12 90 66 49 23 56 73 76 3 48 83 72 88 80 34 67 58 -43 -60 -37 -40 -79 -1 -69 -41 -68 -89 -75 -22 -17 -87 -11 0
48 31 67 11 35 79 72 61 6 45 60 55 44 17 37 66 47 62 32 26 90 24 42 50 27 77 86 74 57 69 -59 -16 -1 -88 -49 -54 -51 -75 -34 -19 -89 -58 -39 -18 -28 -20 -41 -14 -53 -52 -29 -78 -73 -81 -40 -30 -63 -87 -64 -7 -9 -36 -38 -23 -70 -3 -12 -76 0
55 62 67 11 69 88 15 12 90 74 79 65 80 20 32 10 8 68 9 63 13 7 36 83 37 45 78 49 44 77 18 87 81 70 40 50 39 61 29 28 -76 -19 -31 -21 -26 -35 -89 -51 -14 -43 -75 -34 -53 -25 -3 -64 -57 -16 -82 -73 -30 -52 -85 -46 -4 -2 -23 -86 -59 -47 -66 -1 -58 -24 -22 0
53 12 22 29 19 15 38 16 43 30 78 84 3 62 5 66 61 17 81 -58 -55 -6 -68 -80 -63 -52 -75 -82 -10 -73 -57 -77 -74 -76 0
67 8 79 21 40 66 53 15 31 51 37 58 1 56 34 -89 -69 -27 -20 -38 -26 -30 -75 -68 -7 -3 -28 -81 -45 -12 -88 -39 -9 -6 -82 -16 -64 -73 -71 0
31 76 90 55 20 78 82 75 17 51 3 62 28 16 70 29 66 30 61 14 88 18 40 74 25 60 84 64 63 53 81 -58 -7 -68 -72 -24 -22 -50 -2 -44 -85 -37 -39 -6 -67 -59 -77 -56 -41 -27 -89 -79 -52 -26 -11 -73 -4 -15 0
84 23 70 16 73 13 65 17 12 74 89 -36 -42 0
77 40 5 73 27 3 29 48 78 33 47 1 44 84 86 14 16 65 50 4 7 46 52 45 10 80 88 6 31 26 56 74 60 64 8 2 59 20 55 24 85 -36 -37 -21 -70 -22 -38 -82 -23 -28 -42 -34 -90 -54 -53 -18 -63 -76 -35 -32 -61 -30 -75 -17 -39 -58 -15 -13 -71 -79 -89 -81 -19 -69 0
65 72 21 48 28 34 71 69 23 4 90 68 51 58 39 2 22 57 83 75 49 46 35 41 11 -12 -14 -64 -10 -81 -32 -89 -84 -79 -44 -50 -25 -9 -7 -36 -66 -62 -29 -56 -47 -8 -33 -26 -76 -52 -86 0
54 17 25 82 40 70 50 77 86 19 41 30 58 16 57 62 20 83 67 48 63 9 73 36 55 12 -88 -51 -28 -74 -81 -13 -14 -35 -31 -89 -68 0
63 7 73 48 17 74 34 64 45 37 21 51 67 90 14 6 10 87 59 27 35 80 57 76 24 -28 -30 -39 -71 -53 -50 -36 -81 -65 -43 -3 -54 -16 -42 -84 -89 -40 -19 -79 -32 -25 -78 -44 -66 -56 -38 -52 -83 -15 -11 -70 -41 -77 -72 -46 -26 -68 -86 -31 0
36 53 43 46 44 29 72 76 66 23 2 38 15 70 6 69 62 56 39 41 22 1 21 13 67 78 5 60 -58 -90 -14 -64 -16 -61 -10 -19 -84 -65 -86 -37 -63 -57 -83 -88 -27 -35 -40 -45 -51 -8 -68 -52 -89 -7 -85 0
80 66 58 67 28 38 30 13 77 84 -9 -47 -34 -78 -73 -45 -18 -4 -16 -75 -10 0
34 73 13 72 15 7 78 17 46 44 53 64 41 74 81 89 38 71 43 29 50 5 70 79 11 14 83 32 52 45 37 57 2 -16 -87 -59 -35 -55 -69 -21 -58 -84 -85 -40 -88 -28 -75 -27 -1 -39 -24 -68 -9 -86 -77 -22 -36 -62 -23 -20 -90 -10 -66 -48 -25 -4 0
61 35 45 5 -34 -31 -33 -7 0
59 30 87 12 78 75 62 44 20 42 11 85 51 65 40 84 70 41 -54 -32 -14 -46 -19 -5 -37 -3 -36 -77 -8 -86 -55 -31 0
22 41 38 12 79 82 8 11 87 39 7 59 46 18 17 74 25 48 85 24 44 63 1 69 54 4 55 66 47 83 53 65 37 -28 -78 -16 -88 -13 -9 -23 -14 -50 -45 -10 -76 -29 -70 -43 -61 -52 -62 -26 -3 -67 -60 -5 -2 -49 -27 -32 -21 -6 -35 -90 -56 -73 -33 -20 -81 -80 -64 -72 0
86 13 77 75 42 54 69 18 29 76 60 4 17 6 16 81 12 85 47 89 26 45 74 59 11 40 50 51 28 80 71 14 39 23 41 2 79 46 36 -33 -84 -7 -56 -64 -44 -34 -27 -3 -72 -21 -32 -53 -35 -24 -82 -52 -61 -70 -9 -83 -22 -87 -58 -5 -30 -73 -68 -88 -48 -67 -78 -1 -25 -55 -57 -20 -63 -43 -65 -90 -38 -49 -19 -66 0
23 10 1 69 81 17 55 6 53 20 13 32 86 11 22 2 75 28 84 30 85 37 39 77 58 45 16 27 31 35 14 51 87 43 42 46 52 -3 -48 -33 -25 -79 -67 -7 -19 -61 -36 -74 -65 -26 -89 -18 -66 -24 -83 -57 -59 -76 -70 -40 -63 -38 -5 -29 -12 -90 -54 -8 -82 -71 -4 -47 -62 -49 -56 -80 -68 -15 -21 -41 -73 -44 -72 0
64 31 44 47 80 54 8 82 90 69 46 -51 -13 -32 -25 -81 -15 -50 -4 -85 -75 -42 -10 -86 -33 -73 -83 -71 -57 -56 -79 -58 -16 0
63 53 38 89 9 58 41 69 30 10 51 34 68 83 26 8 76 66 24 75 14 85 43 90 80 16 88 81 28 44 78 64 25 52 42 35 73 65 59 -33 -6 -32 -36 -77 -1 -45 -87 -5 -11 -27 -57 -79 -19 -4 -40 -3 -67 -49 -86 -70 -17 -62 -20 -22 -55 -71 -7 -47 -15 -84 -37 -2 -12 -72 -60 -46 -39 -18 -54 -61 -21 -74 0
62 45 80 33 19 41 24 82 11 44 89 38 87 69 14 77 35 90 32 70 59 28 78 27 72 83 29 26 47 56 40 68 50 21 20 23 65 76 7 8 73 2 61 6 -88 -81 -67 -53 -17 -12 -48 -60 -71 -66 -39 -74 -46 -10 -1 -75 -25 -79 -54 -5 -42 -37 -36 -3 -49 -52 -51 -57 -18 0
56 51 1 16 73 26 39 20 46 18 4 81 36 87 82 58 83 48 28 45 62 -74 -6 -38 -13 -17 -60 -66 -35 -42 -71 -30 -21 -54 -53 -8 -9 -29 -14 -25 -72 -78 -86 -59 -33 -27 -41 -19 -85 -44 -57 0
89 51 16 23 67 39 30 45 62 56 28 27 20 11 69 7 4 52 36 73 82 35 43 60 57 -72 -26 -68 -8 -85 -48 -3 -34 -61 -13 -58 -12 -44 -84 -81 -55 -25 -50 -87 -59 -14 -21 -6 -66 -2 0
63 79 5 2 44 58 23 52 59 87 45 84 -77 -11 -66 -43 -25 -47 -20 -9 -75 -81 -24 -19 -17 -42 -85 0
20 24 53 14 66 55 44 18 81 50 33 60 49 70 73 12 86 3 15 29 38 45 79 -78 -65 -84 -35 -64 -9 -63 -46 -48 -7 -4 -52 -59 -13 -30 -17 -32 -51 -16 -6 -68 -21 -56 -5 -37 -87 -69 -76 0
38 61 80 36 82 73 31 26 15 -29 -69 -6 -34 -88 -72 -64 -22 -10 -43 -59 0
42 5 71 38 90 75 86 31 87 20 16 6 26 44 89 43 24 23 84 82 52 81 1 21 17 88 66 37 58 47 36 72 -65 -73 -22 -41 -33 -34 -83 -79 -74 -48 -12 -49 -51 -77 -68 -15 -61 -39 -40 -54 -64 -10 -11 -8 -9 -19 -18 -27 -35 -3 -4 -53 -57 -60 -80 -55 -32 -62 -69 -78 -13 -63 -46 0
29 2 1 63 7 74 70 38 78 64 12 43 28 62 82 50 32 33 27 45 53 68 42 15 65 55 88 25 3 21 35 5 57 30 79 66 16 71 31 90 4 87 17 26 40 49 76 22 -39 -84 -47 -20 -54 -69 -89 -51 -56 -80 -13 -67 -61 -10 -48 -72 -19 -11 -77 -37 -34 -44 -85 -59 -41 0
54 34 83 70 52 84 47 82 85 18 6 32 71 13 50 23 14 2 81 44 28 74 11 65 22 79 26 55 78 67 51 38 66 21 -80 -8 -10 -39 -63 -62 -87 -17 -46 -33 -89 -72 -7 -15 -42 -25 -90 -20 -58 -29 -57 -53 -36 -16 -24 -75 -5 -64 -61 -45 -35 -37 -30 -49 -4 -19 -76 -40 -73 0
14 40 62 27 24 30 11 23 2 54 65 67 9 52 34 48 72 76 83 4 31 81 44 53 6 61 18 64 78 86 32 38 10 5 29 70 1 47 56 -85 -88 -19 -87 -50 -77 -84 -74 -71 -58 -82 -80 -73 -59 -69 -13 -8 -35 -28 -22 -36 -7 -46 -41 -63 -16 -43 -37 0
36 43 47 6 39 75 56 15 68 -61 -5 -73 -84 -42 -52 0
78 18 39 89 -66 -79 -27 0
23 72 7 86 18 58 36 54 64 1 76 16 88 63 52 10 44 48 62 82 33 4 85 90 41 19 83 46 55 87 6 2 28 11 74 8 70 79 75 27 89 14 71 67 78 32 -17 -45 -53 -40 -35 -66 -9 -15 -34 -57 -37 -38 -22 -69 -65 -59 -50 -21 -43 -80 -26 -13 -73 -39 -81 -5 -84 -68 -3 -25 -31 -20 -61 -24 -30 -51 -77 0
49 81 71 38 69 48 67 5 70 40 19 22 35 61 43 9 16 56 68 36 31 88 89 29 34 26 57 53 -20 -62 -1 -77 -50 -8 -37 -60 -23 -18 -47 -46 -52 -13 -75 -42 -6 -45 -65 -27 -10 -76 -30 -39 0
37 4 67 44 58 90 14 76 8 49 13 22 32 19 61 86 66 46 73 60 88 84 -63 -34 -29 -1 -54 -20 -48 -23 -65 -77 -74 -70 -6 -79 -27 0
48 81 13 50 11 66 89 61 12 85 69 6 30 87 32 57 60 23 29 1 49 83 59 72 46 38 41 28 53 56 9 35 84 77 18 68 54 34 74 70 52 -26 -42 -4 -7 -79 -36 -25 -63 -10 -17 -45 -88 -27 -5 -39 -47 -73 -31 -86 -8 -22 -14 -21 -44 -71 -55 -2 -24 -76 -37 -20 -75 -16 -19 -62 -78 -82 -40 -51 -64 -80 -3 -90 -58 -15 -33 0
26 66 53 76 57 34 29 87 11 81 30 63 49 5 48 90 24 1 88 37 60 16 36 46 78 61 84 73 13 3 45 58 65 89 4 77 22 80 7 28 9 40 85 69 86 15 31 14 47 -75 -51 -39 -68 -38 -55 -27 -59 -10 -50 -18 -79 -32 -20 -41 -64 -23 -25 -44 -52 -74 -2 -56 -43 -83 -17 -6 -67 -8 -35 -72 -33 -71 -42 0
74 8 5 64 45 90 25 77 14 21 55 -51 -33 -12 -80 -58 -70 -27 -18 -46 -63 0
55 23 3 44 8 76 36 86 87 30 9 32 21 1 31 58 81 33 57 50 79 2 42 19 82 24 74 54 69 28 47 13 90 75 37 -53 -49 -41 -78 -6 -88 -20 -51 -18 -71 -5 -27 -43 -61 -15 -64 -39 -66 -12 -7 -25 -60 -16 -26 -70 -40 -52 -56 -80 -17 -83 -89 -84 -63 0
84 41 43 14 59 27 52 81 40 8 13 23 2 63 80 90 32 22 28 -83 -12 -66 -72 -31 -56 -75 -44 -20 -58 -16 -88 -68 -29 -42 -54 -36 -49 -25 0
17 21 84 89 33 27 39 50 76 14 88 72 83 74 19 61 13 59 47 22 45 -36 -85 -42 -67 -10 -87 -6 -64 -12 -49 -65 -18 -24 -30 -86 -11 -40 -26 -7 -51 -48 -28 -53 -60 -23 -81 -66 0
67 70 71 11 9 24 25 32 89 57 21 69 45 46 34 79 -29 -52 -47 -48 -40 -13 -58 -14 0
10 41 50 46 3 81 30 56 72 69 21 65 6 40 64 36 75 9 88 58 78 83 48 53 45 16 18 14 37 59 31 33 70 47 22 -82 -23 -17 -55 -71 -80 -2 -34 -49 -28 -39 -5 -44 -73 -13 -24 -1 -66 -74 -19 -15 -79 -86 -90 -57 -61 -7 -27 -35 -11 -68 -85 -87 -54 -52 -12 -42 -76 -29 -43 -20 -67 -60 -84 -63 -77 -25 -38 -62 -89 -32 0
18 46 88 63 37 43 62 35 1 6 49 72 12 39 50 83 77 38 40 28 25 -57 -44 -66 -81 -7 -31 -45 -84 -11 -56 -48 -61 -22 -14 -65 -2 -76 -82 -32 -47 -33 0
63 32 49 34 -4 -67 -38 -25 -65 -70 -90 -20 0
10 30 34 13 45 57 39 73 47 90 87 -64 -42 -33 -61 -16 -11 -66 -27 -40 -18 -26 -31 -78 -88 -19 -54 -4 -48 -8 -46 -23 0
7 26 33 59 21 20 60 46 2 83 9 89 35 38 58 81 56 17 16 25 31 85 41 34 45 6 42 67 44 57 80 76 39 37 66 28 -77 -75 -40 -5 -29 -90 -62 -36 -69 -70 -18 -49 -10 -8 -12 -73 -3 -65 -13 -43 -4 -82 -30 -86 -51 -11 -15 -84 -54 -47 -79 -74 -78 -14 -27 -72 -64 -88 -23 -32 -19 -63 -24 -68 -53 -52 -87 -48 -71 -22 0
21 29 80 55 12 20 23 64 5 18 39 14 78 66 90 68 41 2 46 71 31 56 13 58 85 26 63 4 74 59 34 32 89 22 49 24 67 88 82 60 1 25 52 65 7 -86 -76 -50 -53 -19 -70 -3 -17 -30 -54 -61 -43 -16 -35 -36 -45 -87 -81 -48 -77 -6 -83 -44 -33 -37 -15 -75 -47 -38 -62 -69 -9 -84 -28 -51 -40 -57 -11 -72 -79 0
27 14 45 35 80 6 72 87 73 15 34 26 1 12 41 84 49 38 86 65 43 71 40 20 33 36 28 82 47 11 22 16 53 13 23 29 54 -42 -68 -85 -30 -69 -46 -78 -59 -37 -44 -3 -70 -18 -64 -19 -76 -39 -75 -5 -88 -9 -4 -55 -17 -10 -79 -24 -62 -89 -31 -25 0
17 74 66 81 6 80 86 90 -75 -85 -73 -21 -64 -58 -32 -10 0
52 68 49 82 65 2 35 7 38 14 36 26 71 60 61 12 85 58 90 42 76 19 88 72 1 15 -17 -77 -25 -80 -83 -41 -9 -39 -21 -3 -24 -23 -46 -27 -69 -5 -10 -34 -86 -67 -73 -66 -47 -32 -78 0
55 13 39 63 75 37 25 41 85 11 70 7 4 77 58 67 2 51 33 -87 -26 -61 -57 -12 -84 -23 -49 -48 -24 -10 -90 -50 0
40 18 74 85 72 30 22 50 32 81 36 -41 -86 -49 -56 -15 -71 -35 -37 -29 0
16 41 61 71 74 88 4 49 70 69 78 42 80 31 15 73 67 -85 -9 -34 -3 -1 -59 -11 -51 -17 -24 -29 -50 -45 -27 -52 -44 -68 -20 -21 0
25 67 68 8 13 45 -58 -27 -31 -66 -84 -3 -48 -72 0
38 86 8 81 65 56 47 2 25 63 45 6 19 12 17 77 49 44 14 37 13 72 89 24 55 3 79 31 58 15 52 67 62 -70 -85 -22 -68 -69 -64 -30 -50 -9 -7 -74 -23 -11 -32 -4 -33 -16 -34 -87 -83 -51 -39 -80 -82 -35 -18 -10 -59 0
69 22 85 21 2 65 15 90 -3 -78 -17 -70 -32 -26 -87 -58 -19 -55 -77 -7 -40 0
45 56 80 4 86 36 30 50 12 74 11 82 57 71 29 7 66 38 16 34 77 9 73 32 46 65 8 90 54 51 53 10 59 25 78 3 -70 -19 -43 -33 -6 -28 -67 -24 -13 -35 -84 -40 -20 -88 -55 -76 -62 -75 -2 -5 -47 -68 -85 -26 -89 -61 -49 -44 -39 -42 0
52 43 57 59 20 19 49 89 21 55 42 24 69 29 84 63 48 28 64 58 73 61 8 10 30 23 13 65 6 62 2 71 67 26 80 87 75 41 34 47 31 -17 -27 -50 -81 -7 -77 -11 -79 -56 -3 -46 -33 -83 -82 -54 -66 -39 -4 -53 -14 -12 -35 -45 -74 0
82 2 27 8 12 73 78 -37 -58 -70 -63 -54 -9 0
67 9 64 20 65 19 57 44 23 1 12 8 24 87 52 73 37 32 46 39 78 53 69 13 15 85 77 35 71 88 2 29 81 84 62 60 3 82 55 30 80 79 7 43 -14 -66 -48 -25 -27 -86 -38 -16 -76 -28 -54 -61 -49 -90 -41 -58 -68 -31 -63 -56 -6 -89 -5 -26 -72 -22 -51 -59 -75 -40 -45 -21 -47 -4 -10 -18 -70 -17 -83 -33 -11 0
74 22 83 50 42 2 8 53 68 81 14 41 82 71 17 35 89 59 88 58 27 63 11 76 23 45 13 20 80 38 44 10 31 49 69 5 18 66 19 62 26 90 -72 -6 -75 -73 -36 -43 -48 -4 -79 -37 -33 -24 -15 -12 -61 -32 -3 -9 -70 -47 -65 -67 -84 -34 -30 -28 -25 -77 -40 -78 -52 -7 -16 -29 -21 0
72 6 24 71 81 10 88 80 9 86 73 11 22 20 70 69 17 79 37 38 61 41 2 53 26 58 46 51 23 82 48 78 19 64 54 68 13 21 74 29 -76 -43 -40 -33 -12 -57 -59 -89 -31 -85 -44 -90 -36 -60 -27 -50 -8 -39 -5 -4 -16 -47 -30 -83 -34 -56 -77 -67 -65 -14 -35 -55 -52 -75 -84 -87 -3 -25 -1 -63 -18 -45 0
66 56 69 47 75 -44 -35 -55 -65 0
4 42 45 44 16 43 68 27 48 38 5 66 32 26 73 52 7 47 88 75 64 60 29 9 72 18 19 12 25 35 81 89 21 71 76 -74 -49 -8 -51 -36 -17 -41 -63 -50 -56 -10 -65 -86 -14 -6 -61 -70 -78 -34 -37 -67 -55 -20 -80 -3 -59 0
26 61 46 48 23 32 3 18 17 16 86 63 72 53 22 69 31 8 44 42 59 56 9 76 1 35 80 -14 -27 -33 -66 -39 -74 -43 -19 -36 -84 -5 -70 -12 -50 -54 -58 -73 -49 -60 -4 -47 -6 -11 0
80 23 43 65 26 3 87 42 35 82 1 78 12 2 16 85 47 18 61 90 -53 -64 -7 -6 -19 -70 -45 -58 -20 -76 -31 -44 0
7 12 84 66 26 81 20 51 8 56 74 3 2 77 4 22 21 69 32 5 80 79 43 35 87 19 68 54 48 -34 -27 -45 -88 -9 -16 -24 -13 -18 -37 -82 -90 -60 -17 -83 -57 -55 -64 -28 -47 -1 -49 -65 -30 -25 -31 -14 -15 -33 0
52 30 51 35 88 47 83 87 2 9 24 75 65 86 42 74 63 21 6 61 22 10 15 55 71 33 80 -62 -49 -16 -28 -68 -40 -17 -67 -31 -7 -89 -77 -13 -39 -11 -57 -84 -23 -73 -64 -4 -26 -29 -58 -8 -81 -82 -44 -70 -34 -76 -72 0
78 23 15 25 43 53 12 8 37 81 10 40 60 5 -32 -7 -49 -79 -77 -63 -84 -36 -45 -31 -21 -89 -20 -41 -24 -64 -9 -27 -68 -88 -2 -57 0
39 40 35 41 76 80 68 14 50 75 27 60 43 30 1 73 31 46 74 5 63 81 34 24 53 -84 -77 -58 -18 -62 -32 -28 -79 -47 -3 -10 -64 -57 -88 -83 -72 0
39 13 88 57 36 14 90 1 72 -40 -51 -23 -66 -67 -59 -62 -83 -7 -28 -46 -60 0
19 73 31 57 37 58 39 43 85 83 59 79 49 81 55 34 68 77 36 20 18 82 53 17 29 78 21 84 50 23 67 42 24 3 12 65 56 25 33 -14 -89 -6 -75 -86 -70 -15 -69 -10 -51 -88 -32 -64 -9 -60 -52 -54 -87 -27 -45 -61 -71 -22 -80 -90 -41 -72 -63 -47 -62 -76 -13 -40 -74 -11 0
12 22 36 90 85 70 31 -63 -28 -49 -46 -2 -74 0
51 57 39 90 55 68 2 35 48 76 40 87 -79 -31 -86 -89 -11 -20 -77 -38 0
52 72 76 43 51 23 40 11 22 20 44 6 65 38 10 3 46 57 2 67 1 12 7 34 30 87 77 68 82 83 32 45 8 47 81 49 -70 -29 -78 -86 -14 -71 -74 -48 -63 -31 -79 -55 -80 -15 -21 -39 -25 -75 -33 -90 -88 -19 -41 -64 0
14 39 30 10 89 -47 -85 -27 0
66 59 39 23 49 56 70 55 80 53 71 58 38 89 44 35 72 7 45 86 51 -52 -29 -65 -28 -87 -88 -32 -37 -6 -16 -75 -3 -27 -40 -77 -67 -31 -46 -41 -9 -81 -42 -85 -17 -33 -19 -21 -34 -22 -11 0
4 87 34 41 68 46 36 75 70 73 38 65 62 69 49 37 21 -25 -44 -7 -33 -52 -18 -74 -77 -5 -50 -66 -82 -57 -8 -40 -47 -31 -26 -24 -48 -28 -20 0
53 78 64 1 29 46 52 27 19 60 21 71 36 41 24 28 75 22 57 35 84 56 9 50 8 6 74 42 70 73 77 51 90 7 88 37 11 61 82 39 -3 -4 -25 -66 -65 -5 -80 -49 -79 -34 -67 -54 -89 -32 -30 -72 -76 -13 -45 -63 -15 -58 -18 -10 -83 -44 -33 -38 -86 -17 -26 -40 -85 -47 -12 -81 -43 -69 -48 -23 -14 -59 -87 -16 -68 -20 0
87 58 -32 -23 -10 0
33 69 49 45 15 11 7 1 34 74 57 70 66 30 21 79 81 56 75 85 67 24 43 82 78 26 68 52 61 60 28 9 16 3 23 39 29 48 19 25 32 62 50 55 13 12 -4 -41 -64 -54 -65 -17 -6 -47 -42 -80 -59 -35 -88 -87 -89 -84 -51 -27 -58 -38 -83 -44 -14 -8 -86 -76 -36 -22 0
86 17 60 62 50 67 65 2 18 27 37 36 80 66 1 15 51 77 68 52 47 38 7 24 41 21 28 10 -76 -53 -58 -34 -29 -3 -89 -25 -84 -45 -46 -81 -39 -12 -19 -14 -22 -44 -71 -85 -35 -87 -43 -30 -61 -49 -70 -73 -4 -26 -23 -64 -5 0
37 85 58 73 29 70 52 54 64 41 79 71 32 78 57 48 25 19 1 39 20 28 76 83 30 40 82 7 84 59 34 61 13 10 53 60 8 66 86 74 22 33 -67 -16 -17 -31 -15 -77 -2 -45 -46 -75 -90 -62 -5 -21 -14 -81 -69 -51 -87 -42 -89 -56 -9 -43 -49 -18 -44 -65 -27 -35 -23 -11 -47 -12 -63 -50 -88 -38 -55 -4 -26 0
70 19 28 66 87 18 21 57 85 89 32 5 30 2 27 15 20 81 86 68 58 64 14 25 47 48 74 8 63 50 16 12 6 55 42 80 38 90 29 34 77 13 37 7 36 -22 -79 -43 -26 -75 -56 -41 -33 -10 -60 -39 -71 -72 -88 -31 -35 -1 -23 -52 -73 -83 -82 -49 -53 -67 -45 -78 -51 -76 -3 -9 -44 -4 -61 -59 -62 -24 -69 -40 0
