c NeuroCodeBench 2.0 CNF formula with verdict Sat
p cnf 8 41
1 -5 -8 -4 -3 -2 0
2 4 -5 -8 -1 -3 -6 0
5 4 6 3 0
7 6 1 8 4 -3 0
5 -3 -7 -6 0
6 8 3 0
8 -6 -7 -1 -3 -5 0
7 4 6 0
1 3 2 5 6 -4 0
7 8 -6 -5 -2 -1 -3 0
4 -1 -5 -7 0
3 1 -8 0
6 1 5 -2 -7 0
4 7 8 6 0
3 6 0
6 5 8 3 -4 -7 -2 0
5 3 1 4 2 -7 -6 0
3 5 -4 -2 -7 0
5 7 6 2 -1 -8 -4 0
7 8 5 6 0
4 3 -5 -7 -1 0
6 -2 0
6 -1 0
3 1 2 7 -6 -4 0
7 5 4 -1 -8 -3 -2 0
8 1 4 -2 -3 -7 -6 0
4 -5 0
7 2 -3 -4 0
6 3 5 8 -4 -1 -2 0
3 0
4 7 0
1 4 8 -3 -6 -2 0
7 1 5 4 -2 -3 -8 0
8 -6 -2 -5 0
4 2 -6 -1 -5 0
7 1 6 -3 -8 0
5 7 3 -8 0
2 6 7 -4 -5 0
6 8 1 -3 -7 -2 -4 0
6 8 -5 -1 0
6 -5 -2 0
