c NeuroCodeBench 2.0 CNF formula with verdict Sat
p cnf 25 208
25 23 0
24 6 22 17 -13 -20 0
9 2 7 22 4 16 -1 -13 -21 -11 -15 -25 -8 -14 -12 -20 0
-16 -22 0
4 7 6 22 13 25 8 14 19 17 -21 -24 -2 -9 -16 -23 -5 -15 -3 -1 -18 -20 0
20 8 25 6 10 2 24 -7 -13 -9 -19 -1 -18 -17 -5 -11 -12 0
4 10 2 15 -13 -6 -21 -23 0
6 24 16 5 7 18 -1 -4 -8 -25 -13 0
19 -1 -2 -3 0
19 4 25 6 17 22 9 8 20 -5 -21 -1 -7 -15 -14 -18 -11 -10 0
19 2 11 16 10 1 12 5 21 17 18 -25 -20 -8 -24 -3 -14 -13 -7 0
7 10 14 21 22 24 8 17 4 5 6 18 -19 -23 -9 -15 -20 -16 -1 -11 0
20 25 7 12 4 16 3 21 10 22 -9 -14 -17 -6 -2 -23 -5 -8 -15 -11 -1 -24 0
9 24 -8 -4 -20 -15 0
2 8 20 12 9 13 10 24 6 -25 -1 -15 -5 -16 -19 -11 -14 -4 -7 -17 0
1 10 25 24 11 22 -6 -4 -20 -21 -13 -18 -16 -7 0
21 24 22 5 20 1 11 16 -10 -19 -14 -15 -9 -3 0
17 2 6 11 4 -13 -15 -18 -25 0
18 -8 -9 -6 -11 -22 -16 0
9 14 7 8 6 1 11 20 21 -23 -19 -16 -5 -12 -24 -18 -15 -3 -10 -25 -4 -17 0
10 1 17 18 19 -23 -2 -7 -3 -14 -5 -16 -13 0
2 14 10 24 9 21 25 17 12 4 3 -13 -22 -5 -7 -1 -18 -11 -20 -6 -8 0
5 14 17 3 4 -2 -10 -21 -15 0
13 11 4 17 23 1 9 -15 -20 -16 -18 -22 -3 0
20 9 12 25 -1 -21 -5 -18 -22 0
8 2 1 4 21 13 25 -7 -9 -11 -16 -22 -14 -17 -20 -12 -19 -6 -23 0
18 19 14 21 13 17 4 6 16 -9 -7 -3 -5 -12 -8 0
20 10 22 13 17 2 3 7 19 23 1 5 12 8 -16 -18 -9 -4 -15 -21 -11 -6 -24 0
18 24 22 12 11 14 2 1 6 -9 -15 -10 -19 -21 -20 -23 -8 -7 -5 -4 0
3 7 9 20 11 19 14 -6 -15 0
11 6 7 1 22 23 17 21 12 4 -20 -16 -10 -8 -14 -15 -24 -18 -3 -5 -13 0
21 22 4 23 17 13 8 -5 -6 -9 -12 -14 -15 -16 -7 -2 -25 -24 -1 0
18 21 0
16 20 23 21 13 -7 -17 -24 -2 -18 -3 -10 -11 -15 -6 -4 -5 0
3 21 -16 -9 -2 0
19 23 2 -11 -21 -10 -1 -20 0
25 20 22 -19 -24 -13 -9 0
8 22 -1 -15 -13 -7 0
21 19 25 15 24 8 16 22 13 3 -17 -9 -12 -10 -1 -11 -6 -20 -7 -5 -2 -18 -14 -23 0
23 24 1 20 -25 -11 -13 -8 0
14 10 -2 -3 0
25 16 5 3 2 23 17 8 10 -1 -22 -20 -13 -11 -14 -6 -4 -19 -12 -9 0
10 3 18 1 6 17 16 24 -11 -20 -5 -15 -21 0
3 -16 -19 -24 -10 0
5 23 4 10 -2 -25 -12 -24 0
13 22 21 11 3 17 15 2 1 -4 -20 -24 -8 -23 -12 0
6 12 20 15 8 1 25 -5 -3 -2 -17 -10 -24 -23 0
11 6 7 -24 -15 -21 -19 0
8 6 -19 -1 -14 -15 0
5 10 15 3 -11 -14 0
11 21 25 9 15 13 16 -5 -6 -3 -19 -23 -24 -8 -4 -1 0
11 23 19 22 20 18 6 8 -16 -14 -5 -24 -4 -7 0
1 11 17 -5 -24 -21 -18 -25 -9 0
3 13 17 6 19 5 9 7 11 -22 -20 -2 -24 -16 -1 -10 -12 -21 -4 0
2 14 23 11 6 8 -19 -21 -24 -22 -1 -13 -4 0
7 21 19 10 -15 -25 -6 -8 -23 -5 -16 -4 -12 0
24 19 22 20 7 4 1 11 23 25 -10 -17 -14 -2 -6 -9 -16 -13 -15 -21 -5 0
20 23 12 17 14 15 2 21 -3 -13 -5 -18 -9 -16 0
4 20 23 19 9 22 1 15 -13 -18 -6 -5 -16 -21 -8 -11 0
25 6 15 1 18 24 22 5 2 17 -9 -10 -13 -11 -14 -16 -7 -23 0
10 16 -3 -12 -9 -14 0
18 25 8 15 9 -19 -10 -1 -7 -4 -24 -17 -14 -13 -22 0
9 23 -11 -3 -4 -10 0
15 17 8 18 2 13 20 -3 -25 -23 0
24 5 21 25 13 2 8 -20 -7 -11 -4 -12 -16 -14 -19 -18 -1 -3 0
16 9 15 8 22 13 11 17 12 25 5 19 -7 -23 -2 -20 -1 -24 -18 -3 -10 -4 -21 0
9 1 19 5 3 -12 -17 -25 -13 -18 -21 -10 -22 -14 0
19 6 0
17 0
15 18 11 22 21 -24 -3 -19 -7 -20 -12 -6 -10 -9 0
10 1 24 -3 0
6 14 15 22 -8 -3 -24 -9 0
15 10 20 1 17 -25 -3 -21 -24 -23 -2 -14 -5 -13 -8 -11 -19 -22 0
18 21 1 12 24 19 4 15 25 14 -16 -3 -23 -13 -22 -2 -17 -8 -10 -6 0
21 16 19 18 14 7 17 5 1 -3 -23 -10 -25 -22 -9 -11 -24 -4 0
1 17 18 23 16 10 4 9 -21 -24 -15 -20 -12 -7 -3 -11 -14 -13 -5 -25 -19 -6 0
9 20 3 19 -25 -14 -2 -11 -6 -7 0
9 25 11 5 7 24 20 3 14 4 -16 -13 -15 -17 -1 -18 -8 -12 -22 0
11 7 14 21 23 20 10 17 2 8 3 -9 -12 -6 -5 -15 -24 -25 -19 0
8 13 5 12 1 7 18 20 17 -11 -21 -3 -6 -22 -15 -23 -9 -2 -19 -24 -4 -10 -16 0
3 14 22 -19 -18 -20 -13 -25 -5 0
24 5 3 25 16 2 14 17 6 7 18 9 -4 -19 -23 -21 -10 -12 0
7 4 17 23 10 13 1 6 2 -8 -11 -14 -21 -15 -20 -24 -19 0
11 10 15 16 9 1 13 -14 -3 0
23 14 12 19 13 2 11 8 4 -21 -9 -18 -20 -7 -6 -17 -25 0
18 10 -12 -25 -22 0
17 5 13 24 18 11 -12 -19 -15 -23 -14 -1 -21 -6 -10 -7 -25 -4 -2 0
15 13 0
16 -25 -6 0
19 18 9 2 1 12 14 15 25 -5 -24 -10 -13 -6 -22 -20 -7 -8 -21 -3 0
24 1 -10 -25 -3 0
14 8 7 25 24 21 -5 -1 -17 -9 -11 -4 0
23 11 -24 -25 -14 -17 -4 0
8 13 -16 -3 -19 0
23 12 -10 0
2 25 1 24 13 23 14 18 22 15 -12 -10 -4 -8 -7 -20 -11 -19 -16 0
21 16 14 11 1 2 4 25 -18 -22 -13 -3 -20 -19 -17 -6 -7 -15 0
21 10 -11 0
3 18 25 7 23 8 -15 -19 -6 -24 -2 -12 -9 -16 0
25 9 8 23 -24 -18 -21 -15 -19 -2 -16 0
5 22 17 23 20 13 10 6 8 21 7 -2 -12 -14 -1 -25 -9 -11 -4 0
21 8 15 14 -1 -11 -7 -17 -4 -20 -3 0
25 21 19 15 -13 -20 -16 0
5 4 3 10 9 23 -18 -1 -21 -25 0
-13 0
7 13 3 -18 -1 -4 -21 -22 -19 -20 -15 0
8 23 7 16 25 15 12 6 -2 -18 -10 -5 -4 -14 -1 -21 -22 -9 -20 -11 0
4 6 9 19 5 18 8 17 24 15 3 21 13 -25 -16 -1 -23 -11 -7 -10 -20 -12 0
15 17 18 -23 -22 -6 -10 -11 -21 -7 0
20 8 2 11 10 18 14 4 -13 -24 -15 -22 -16 -19 -3 -9 -6 0
8 1 20 -4 0
19 24 20 9 25 5 17 8 10 21 23 6 14 -13 -22 -18 -2 -4 -3 -12 -15 -11 -7 -16 0
3 15 25 22 1 6 11 13 4 14 -21 -9 -12 -20 -19 -10 -24 -23 -16 -17 0
11 17 8 16 22 15 19 24 4 20 -7 -6 -18 -1 -13 -25 -23 -10 -9 -21 -12 -14 0
1 10 20 19 8 7 25 13 24 14 6 -3 -5 -2 -17 -21 -16 -4 -18 -11 0
25 20 22 9 13 7 -11 -16 -8 -24 -3 -10 -15 0
12 13 21 3 23 8 25 4 16 24 19 14 -6 -1 -15 -18 -5 -22 -10 -20 -17 -2 -11 -9 0
10 24 20 6 12 15 18 22 13 4 16 -21 -19 -17 -8 -11 -5 0
2 17 0
7 12 11 4 1 22 23 15 9 5 17 3 20 25 -19 -6 -18 -24 -2 -8 -14 0
16 21 9 5 13 19 3 7 15 1 -11 -8 -2 -18 -17 -14 -10 -25 -12 -24 -4 -22 0
7 9 18 1 17 -19 -4 -10 -21 -8 0
15 5 1 16 24 8 -6 -14 -3 -10 -25 -12 -17 -11 0
16 10 17 8 15 7 11 12 5 6 2 24 4 -23 -13 -14 -25 -18 -21 -3 -20 -22 0
7 16 23 13 4 -10 -17 -15 -18 -14 -2 -24 -12 0
7 15 6 21 -10 -24 0
13 23 16 5 25 4 22 -6 -14 -18 0
17 16 23 22 1 24 -5 -6 -2 -19 -8 -7 -4 -9 -3 -18 0
15 12 -6 -7 0
11 22 25 21 18 20 19 5 8 10 -1 -23 -13 -14 -2 -12 0
14 1 16 21 18 22 13 9 -8 -2 -23 -19 -24 -17 -12 -4 -20 -3 0
3 13 4 22 11 21 24 20 -23 -10 -1 -25 -7 -6 -2 -17 -8 -19 -18 -5 -9 -12 0
-4 -12 0
11 -16 -9 -25 -23 0
16 -24 -19 0
-18 -2 0
20 21 -17 -23 -12 -15 -3 -13 -14 -1 -18 0
7 8 23 13 3 -19 -4 -6 -14 0
12 19 11 20 21 -8 -7 0
22 8 -5 -4 -16 -20 -10 0
17 16 19 23 7 20 25 15 8 24 -10 -12 -18 -1 -5 -2 0
21 13 8 7 22 3 2 9 25 12 24 19 -16 -6 -20 -5 -23 -17 -10 -14 -4 -11 -18 -1 0
11 7 20 -15 -2 -9 -18 -22 -13 -12 0
10 20 2 6 7 23 3 -8 -24 -25 -22 -5 -19 -21 -17 -13 -18 -16 -12 0
10 3 18 2 12 14 22 -23 -17 -21 -4 -20 0
16 15 24 17 4 8 -14 -19 0
23 -8 -7 -5 0
4 25 20 18 1 24 5 8 17 10 13 6 2 9 -16 -12 -7 -22 -15 -19 -11 -21 -14 0
7 18 1 6 9 4 14 3 -23 -24 -16 -13 -22 -20 -11 0
1 24 19 18 13 4 22 15 11 7 8 14 -23 -21 -5 -2 -16 -10 -12 -25 0
5 21 6 3 18 15 22 7 17 11 1 -10 -8 -4 -12 -16 -14 -23 -25 0
14 -21 -11 -16 0
5 6 -19 0
18 -9 -5 -8 -16 -2 0
25 10 7 22 8 4 16 9 1 20 15 14 -18 -24 -2 -12 -19 -6 -5 -23 -21 -17 -11 0
7 20 22 23 4 15 10 18 9 14 21 -19 -16 -24 -8 0
19 6 12 20 24 -16 -3 -23 -11 -1 -13 -15 -18 -22 -8 -2 -7 0
-1 -11 -16 0
20 8 2 7 5 19 25 14 22 21 24 1 16 23 -11 -3 -9 -13 -6 -15 -12 -4 -10 0
9 14 20 5 17 -13 -22 -24 -3 -25 0
15 7 23 1 9 21 -13 -4 -3 -24 -22 -20 -19 -18 -25 0
22 3 12 13 15 -18 -14 -1 -25 -24 -2 -20 -21 0
9 5 3 6 8 10 12 20 17 7 -4 -22 -15 -23 -2 -24 -18 -13 -14 0
10 14 3 21 -25 -13 -5 -1 -6 -8 -9 0
15 21 9 4 23 3 2 1 7 20 -5 -16 -19 -14 -17 -12 -24 -13 -18 -22 -8 -6 0
12 23 21 19 1 5 -20 -10 0
15 17 10 18 13 -19 -22 -12 -9 0
5 7 20 4 15 13 3 11 14 2 16 10 6 -21 -8 -25 -19 -23 -17 0
18 20 10 14 19 9 8 -21 -1 -16 -17 -4 -22 -2 -15 -12 -23 -13 0
25 -18 -12 -10 -3 -14 0
3 25 20 24 13 17 7 1 -18 -5 -8 -15 -16 0
-5 0
5 6 3 -10 -23 -14 -17 -16 0
8 -13 0
11 21 19 25 10 12 24 -18 -1 -20 -8 -14 -13 -3 -17 -7 -4 -9 0
1 5 21 2 12 3 8 22 18 11 7 -17 -9 -10 -25 -14 -4 -19 -20 -23 -15 -16 -13 0
8 23 16 -4 -20 -6 -24 -1 -9 0
25 14 2 9 8 -24 -23 -7 -13 -6 -5 -18 0
18 20 15 25 11 19 1 16 12 14 23 5 -9 -7 -22 -3 -2 -21 -17 -6 -13 -8 -10 -4 0
22 16 -13 -20 -3 -18 -1 -11 -5 -23 -19 -7 -10 0
23 14 20 13 16 -21 -4 -12 -8 -6 -17 -18 0
4 12 9 25 24 5 22 6 2 19 17 -20 -7 -18 -10 -3 -15 -1 -14 -8 -13 0
10 20 13 17 7 18 23 6 -11 -4 -12 -2 -22 -3 -15 -1 -24 -21 -16 0
12 8 10 6 25 -23 -15 -11 0
7 16 25 9 -18 -24 -11 -19 -15 -2 -4 0
19 1 14 -25 -24 -10 0
25 10 1 23 7 -14 -11 -13 -17 -4 0
10 5 18 -8 -23 -17 -14 -13 0
15 8 20 10 1 12 7 4 -13 -23 -11 -14 -22 0
5 24 3 12 0
8 5 13 21 16 10 -15 -24 -11 -20 -25 -18 -12 -17 -19 -22 -1 -7 -14 -6 -3 -9 -4 0
17 18 4 2 13 24 16 20 15 22 8 -1 -21 -11 -5 -25 -12 0
24 18 25 8 1 4 9 2 10 13 -6 -15 -19 -5 -16 -3 -12 -23 0
1 22 3 5 12 7 20 13 9 21 -16 -25 -4 -19 -11 -15 -10 -14 -2 -6 -17 -8 0
13 7 17 2 10 20 -25 -15 -9 -11 -1 -16 -5 -6 -4 -24 0
20 6 1 8 5 21 -10 -11 -18 -15 -4 -13 -7 0
23 5 21 12 18 14 8 11 24 -17 -4 -3 -1 -9 -22 -2 0
11 5 23 13 21 -4 -24 -6 -15 -17 -20 -18 -9 -2 -10 0
11 1 15 5 16 2 25 10 18 22 -21 -9 -6 0
11 16 3 6 25 1 22 13 17 -18 -5 -4 -10 -2 -19 0
3 7 1 15 24 5 23 20 -8 -16 -9 -4 -18 -6 -13 -14 -25 -22 -12 -21 -11 -10 -17 0
3 25 14 5 16 1 13 21 22 -9 -7 -20 -4 -23 -2 0
17 13 -12 0
10 20 23 7 -9 -2 -11 -5 -21 -18 -22 0
22 11 20 14 -12 -19 -13 -25 -15 -18 -4 -6 0
22 3 7 9 1 8 20 2 25 11 -19 -13 -24 -16 -4 -14 -18 -23 0
14 18 1 8 12 25 19 3 7 16 2 6 -17 -5 -24 -9 -23 -21 -22 -4 -20 -11 -15 -13 0
11 25 15 23 -2 0
