c NeuroCodeBench 2.0 CNF formula with verdict Sat
p cnf 66 94
10 47 11 60 58 8 44 9 37 26 3 7 4 61 48 56 51 53 20 -64 -19 -27 -54 -63 -45 -33 -40 -24 -14 -32 -66 -34 -52 -12 -46 -17 -36 -49 -1 -41 -23 0
5 47 29 7 62 64 32 30 51 61 13 8 39 38 3 34 20 35 49 37 59 4 26 18 24 28 -52 -43 -6 -48 -57 -9 -15 -45 -53 -27 -50 -16 -44 -46 -42 -25 -14 -12 -63 -21 0
50 27 54 11 38 65 57 7 9 52 39 4 64 44 63 46 45 34 12 59 -56 -40 -51 -6 -14 -30 -66 0
59 8 26 23 56 18 29 35 6 21 60 4 25 44 17 39 20 10 61 54 50 55 19 3 -33 -36 -28 -53 -22 -42 -15 -49 -7 -64 -27 -37 -58 -52 -2 -62 -16 -46 -47 -11 -31 -40 -12 -24 -57 -51 -9 -45 0
4 11 61 26 50 16 43 46 21 42 52 51 36 38 -17 -8 -62 -14 -22 -13 -44 -40 -39 -23 -27 -12 -53 -48 -15 -6 -9 -55 -54 0
13 58 19 20 39 47 32 8 22 2 35 24 7 38 50 28 42 1 34 64 3 23 4 9 46 -31 -5 -40 -65 -15 -53 -44 -17 -45 -59 -25 -48 -10 -66 -43 -21 -30 -14 -56 -33 -36 -18 0
17 63 55 50 41 62 61 20 42 34 18 16 47 10 39 60 43 7 45 64 9 28 19 27 13 4 49 6 25 -38 -22 -52 -31 -26 -1 -56 -33 -24 -23 -14 -15 -53 -12 -51 -57 -8 -29 -3 -32 -2 -5 -65 -11 -40 -59 -36 -66 -48 0
34 60 44 1 59 25 6 5 53 -20 -42 -10 -31 -40 0
20 1 8 17 9 45 5 18 51 32 61 49 48 30 4 25 38 16 65 3 2 26 6 13 47 58 54 39 15 37 -66 -56 -35 -24 -14 -27 -29 -11 -60 -22 -52 -59 -41 -50 -63 -62 -10 -64 -43 -12 -46 0
16 51 39 34 -57 -1 -62 -5 0
52 2 41 7 65 26 29 16 47 54 19 23 64 22 45 20 14 36 15 34 -50 -61 -9 -63 -24 -31 -44 -51 -33 -27 -62 -25 -17 -13 -49 -46 -43 -3 -10 -60 -38 -42 0
7 28 19 1 52 -56 -10 -15 -50 0
46 14 48 38 55 18 17 4 61 44 63 32 7 62 51 8 -33 -16 -25 -53 -35 -42 -1 -20 -6 -54 -22 -19 -66 -64 -37 -43 -11 -30 -58 -12 -21 0
52 -20 0
10 26 15 43 55 54 41 18 13 65 6 25 45 42 8 56 37 12 51 16 29 40 48 49 2 64 23 21 59 5 -7 -62 -19 -17 -57 -47 -4 -24 -58 -22 -36 -3 -30 -66 -60 -14 -9 -31 -35 -50 -61 -34 -33 -39 -1 -28 -44 0
46 26 36 33 8 3 57 50 48 62 43 51 41 4 5 54 58 61 64 35 10 45 31 21 18 39 13 -55 -42 -59 -7 -49 -44 -16 -60 -56 -19 -14 -30 -38 -65 -9 -28 -11 -17 -27 -37 -12 -15 -23 -22 -47 -32 -20 -52 -6 -66 -2 -29 -1 -53 -25 0
27 38 11 52 44 35 5 32 25 19 60 54 18 16 43 65 34 45 50 56 64 51 -33 -39 -2 -29 -58 -20 -13 -1 -12 -40 -22 -63 -9 -7 -53 -55 -59 -37 -31 -48 -66 -61 -6 -14 -28 -26 0
34 9 58 52 63 -39 -24 0
24 66 8 58 62 -22 -19 -35 -43 0
10 59 17 52 39 3 8 25 18 15 41 28 27 57 11 23 4 14 51 66 42 64 31 34 40 35 38 47 -48 -5 -33 -20 -36 -44 -22 -43 -13 -16 -2 -29 -26 -7 -19 -50 -12 -58 -49 -62 -21 -32 -1 -61 -37 -55 -6 -63 0
47 17 14 26 23 8 38 41 15 46 27 12 58 37 3 -28 -63 -43 -2 -20 -39 -65 -21 -16 -49 -54 -29 -6 -51 -64 -66 -40 -60 -48 -59 0
62 59 54 3 8 13 30 18 28 2 7 37 -63 -32 -46 -29 -15 -42 -20 -31 -61 -36 -52 -41 -5 0
62 12 56 9 47 57 63 51 4 22 46 40 1 33 42 32 -29 -34 -20 -6 -2 -17 -18 -23 -65 -7 -54 -53 -55 -35 -50 -60 -39 -13 -44 -64 -10 -8 -48 0
9 49 20 54 46 27 36 64 7 29 43 35 23 14 57 40 17 41 38 37 65 16 1 45 11 -6 -21 -58 -13 -8 -33 -52 -48 -22 -3 -30 -12 -63 -55 -53 -31 -32 -4 -15 -26 -47 -44 -18 -39 -34 -25 -59 -10 -24 -50 -5 -42 0
45 8 66 5 42 41 26 56 50 64 -19 -6 -21 -49 -51 -57 -55 -32 -65 -2 0
6 41 42 2 18 27 22 9 38 36 29 23 61 66 35 28 34 46 64 8 20 15 65 1 39 56 55 11 17 21 58 5 48 30 3 -45 -25 -12 -16 -47 -24 -37 -40 -60 -31 -10 -33 -49 -53 -32 -7 -13 -54 -62 -50 -26 -19 -14 -51 0
33 47 63 42 -45 -10 -64 0
58 56 49 24 26 17 33 32 45 16 42 6 60 34 9 50 13 63 64 5 66 20 37 47 19 10 39 44 15 12 31 14 7 21 62 30 40 -54 -35 -51 -36 -52 -61 -18 -41 -11 -8 -65 -48 -46 -29 -55 -2 -22 -28 0
36 34 45 28 9 49 13 1 60 14 54 10 61 17 3 65 35 16 8 23 15 42 38 20 -32 -4 -58 -27 -19 -21 -31 -26 -6 -50 -5 -22 -64 -11 -57 -66 -53 -29 -37 -24 0
45 13 7 57 21 38 15 4 58 63 62 2 54 27 30 24 8 46 12 28 37 42 29 17 36 1 6 -40 -49 -43 -34 -64 -47 -48 -23 -9 -41 -10 -65 -39 -53 -61 -5 -18 -3 0
59 45 19 53 37 24 2 20 26 34 54 -15 -40 -49 -13 -21 -10 -23 -39 -33 -16 -1 -63 -55 -66 -18 -46 -9 -25 -28 -4 -62 -30 -44 -17 -31 -35 -48 -42 0
63 15 57 3 12 50 32 43 41 7 9 58 46 2 60 36 54 27 1 55 13 53 18 65 66 39 45 17 -30 -62 -23 -38 -19 -21 -5 -52 -28 -24 -25 -6 -8 -29 -35 -34 -47 -20 -42 -48 -16 -4 -10 -51 -61 -11 -33 -31 -37 -44 -56 -26 -22 -59 -64 -49 -40 0
43 42 58 56 1 39 2 31 64 33 63 13 17 15 10 52 3 9 23 53 4 59 40 27 45 7 62 18 -51 -35 -29 -22 -12 -28 -66 -14 -26 -55 -49 -24 0
52 23 60 48 8 11 65 38 21 29 22 62 7 40 56 26 58 9 49 6 61 27 -28 -2 -3 -5 -10 -59 -19 -36 -64 -14 -66 -1 -63 -53 -55 -13 -46 -35 -33 -17 0
38 44 25 28 45 16 18 56 36 35 4 22 31 42 54 11 -10 -53 -55 -32 -19 -5 -64 -39 -41 -13 -33 -37 -46 0
16 5 23 50 59 -43 -14 -18 -21 0
50 44 0
2 29 14 3 53 19 54 55 56 11 25 66 13 1 17 39 49 35 44 4 24 58 -59 -28 -27 -45 -47 -52 -18 -60 -48 -9 -57 -22 -12 -33 -64 -31 -23 -65 0
10 66 2 58 -36 -62 -6 0
25 4 -63 -24 -31 -26 -23 -9 0
34 23 14 2 10 55 61 40 25 59 60 62 50 49 45 3 63 42 54 31 52 -26 -48 -21 -44 -6 -41 -53 -12 -8 -15 -30 -66 -37 -32 -57 -64 -46 0
39 57 12 15 52 41 33 25 5 62 2 60 20 56 43 9 44 21 51 47 35 37 34 30 26 8 10 32 45 28 -55 -22 -14 -1 -49 -7 -53 -42 -18 -16 -11 -17 -40 -65 -46 -4 -13 -50 -54 -38 -64 -66 -58 -59 -3 0
2 44 17 60 50 58 6 26 29 66 5 62 52 11 43 32 40 12 55 33 47 21 8 -22 -57 -31 -20 -49 -18 -23 -39 -1 -15 -16 -37 -64 -61 -24 -7 -25 -46 -14 -59 -53 0
52 18 46 8 40 41 43 7 20 -19 -65 -50 -30 -13 -25 -57 -44 0
19 64 27 9 25 12 34 55 48 38 32 42 21 -45 -14 -54 -35 -47 -6 -24 -57 -46 -3 -62 -4 -8 -31 -40 -26 -49 -5 -33 0
44 1 38 20 62 19 39 56 5 50 6 28 55 57 66 -21 -15 -36 -26 -37 -17 -46 -31 -51 -32 -53 -23 -64 -48 -12 -8 0
19 32 14 65 1 54 25 35 21 6 3 42 59 50 47 49 16 13 52 43 4 9 22 62 58 51 46 26 -57 -63 -44 -56 -48 -7 -55 -28 -20 -8 -66 -27 -15 -61 -64 -53 -24 -37 -30 -18 -17 -38 -41 -5 -60 -34 -11 -31 -39 -36 -12 -10 -29 0
2 42 15 50 60 33 64 54 20 51 53 40 9 23 24 39 45 49 5 61 -59 -44 -36 -1 -65 -17 -21 -18 -56 -47 -52 -3 -14 -26 -63 -19 -41 -4 -48 0
14 13 6 5 22 34 50 18 17 61 12 3 2 24 40 62 -21 -37 -46 -54 -32 0
51 11 19 35 2 12 23 52 37 60 6 48 57 56 59 4 66 -46 -49 -5 -8 -3 -62 -65 -22 -24 -10 -47 -54 -39 -27 -63 0
21 9 6 23 27 31 35 11 -4 -56 -46 -2 -63 -38 -19 -18 -64 -57 -26 0
33 60 41 64 21 27 4 31 -10 -62 -1 -32 0
16 43 11 31 59 40 -5 -62 -39 -33 -13 -12 -35 -36 -4 -10 -57 -54 -51 -23 0
45 11 39 29 35 27 53 64 42 48 47 52 -41 -37 -16 -26 -50 -57 -12 -34 -30 -2 0
40 17 25 45 58 13 53 51 43 55 35 47 21 5 62 19 6 49 60 22 64 32 38 1 65 46 52 50 48 54 57 28 63 59 -20 -23 -29 -14 -26 -42 -4 -61 -8 -44 -37 -41 -27 -56 -2 -10 -30 -33 -31 -16 -7 -11 -39 -12 -18 -3 -34 -15 -24 0
18 60 49 23 -59 -58 -6 -57 0
9 13 63 29 -36 -55 -5 0
53 55 42 31 27 6 43 39 49 54 34 63 40 21 2 17 7 12 60 11 14 13 8 3 38 59 44 15 28 46 10 65 61 57 35 -30 -37 -50 -52 -29 -4 -24 -19 -25 -45 -51 -36 -47 -64 -41 -62 -1 -48 -23 -33 -22 -16 -5 -18 0
20 1 3 52 14 45 28 11 17 10 65 58 55 26 30 62 47 38 22 61 27 53 24 5 18 64 44 46 57 -34 -12 -40 -7 -21 -66 -25 -9 -50 -33 -63 -49 -43 -32 -36 -60 -15 -42 -23 -37 -48 -39 -4 -6 -31 -29 -54 -16 -51 -13 -19 -2 -59 -56 -35 0
-66 -40 -34 0
26 5 16 65 32 7 23 41 28 -11 -15 -24 -4 -10 -20 -8 -45 -39 -37 -36 -21 -58 -49 -13 -17 -48 -12 -25 -64 0
57 44 50 43 15 13 32 23 42 4 55 36 41 2 33 22 12 14 31 25 30 47 40 1 16 -3 -60 -52 -11 -28 -63 -46 -6 -7 -5 -21 -64 -24 -26 -45 -29 -53 -62 -35 -48 0
60 31 7 37 23 27 54 18 28 12 55 34 29 -39 -61 -50 -22 -21 -15 -2 -47 -33 -49 -64 0
19 31 44 38 18 54 36 63 53 2 28 9 21 11 8 55 15 22 66 7 14 -62 -35 -25 -49 -27 -41 -56 -48 -47 -10 -16 -60 -40 -30 -33 -1 -26 -42 -43 -61 -39 -50 0
-9 0
62 7 5 22 -50 -11 -36 -6 -55 0
49 56 18 21 55 17 13 26 32 30 -8 -54 -63 -59 -10 -15 -48 -62 -24 -28 -65 -11 -64 -1 -29 -50 0
12 11 51 -18 -17 0
55 45 51 60 56 22 54 29 28 35 13 61 26 39 15 25 31 50 27 17 12 65 40 30 21 64 38 37 19 42 53 -3 -24 -33 -23 -44 -14 -66 -46 -20 -4 -62 -49 -5 -59 -6 -36 -8 -32 -41 -1 -11 -16 -43 -34 -58 0
34 16 18 54 47 61 40 22 49 -51 -63 -43 -53 -46 -3 -60 -28 -35 -50 -48 0
23 42 32 26 43 34 56 1 25 24 28 -19 -37 -29 -63 -52 -2 -35 -47 -13 0
40 2 44 5 11 7 13 65 60 56 36 46 12 55 38 43 21 52 41 66 48 51 31 -33 -16 -14 -49 -53 -22 -42 -6 -54 -4 -8 -10 -61 -25 -32 -19 -50 -3 -45 -18 -47 -1 -39 0
31 -23 0
62 27 15 48 37 56 29 1 52 39 57 36 44 22 38 47 58 64 -30 -20 -65 -34 -8 -9 -23 -66 -26 -10 -24 -4 -12 -42 -11 -7 -16 -50 -54 -63 -55 -19 -18 -28 0
31 8 48 23 65 37 58 49 22 -19 -63 -57 0
30 59 9 64 21 17 66 37 11 53 49 50 24 38 7 36 15 14 26 32 52 48 43 57 40 19 -44 -8 -25 -1 -16 -29 -13 -63 -65 -28 -4 -10 -55 -60 -20 -33 -27 -47 -5 -6 -2 -42 -51 -39 -34 -61 -22 0
1 24 53 39 59 12 20 62 15 66 14 27 19 5 -36 -13 -40 -50 -31 -21 -54 -28 -7 -42 -38 -60 -64 -18 -8 -32 0
19 37 32 52 47 66 7 33 42 2 60 51 20 11 54 64 22 27 38 -40 -61 -9 -62 -23 -56 -57 -34 -6 -39 -58 -29 -4 -21 -17 -50 -26 -45 -12 -10 -18 -24 -59 -1 -14 -16 -8 -15 0
39 20 18 14 -22 -29 0
29 24 32 51 14 45 6 56 28 22 4 64 33 53 -63 -10 -59 -8 -41 -55 0
24 39 5 64 58 21 42 17 29 4 16 25 41 34 10 52 59 3 8 60 45 51 23 27 -50 -66 -32 -14 -13 -36 -43 -44 -26 -9 -35 -18 -37 -55 -40 -33 -47 -6 -63 -62 0
50 56 31 24 3 41 10 11 13 25 40 54 61 26 1 29 14 59 45 28 57 15 -47 -35 -63 -23 -51 -34 -52 -39 -65 -66 -30 -55 -20 -53 -21 -44 -43 -4 -27 -37 -17 -46 -49 -8 0
58 49 33 26 34 -15 -50 -59 -60 0
65 12 62 40 37 34 59 48 -20 -61 -7 -32 -25 -53 -17 -58 0
34 43 25 7 5 62 32 46 17 55 41 10 36 -42 -65 -56 -44 -35 -27 0
34 27 6 48 38 66 49 25 33 14 59 26 62 55 39 8 21 18 44 37 9 41 40 5 -45 -30 -54 -56 -51 -4 -20 -35 -50 -13 -22 -7 -29 -46 -58 -63 -64 -2 -42 -28 -32 -11 -60 -31 -17 -24 -15 -16 -36 -43 -47 -1 -19 -53 -61 0
34 17 38 2 16 5 31 66 65 49 46 56 26 28 53 4 44 62 50 59 -7 -39 -54 -22 -42 -60 -55 -1 -14 -63 -10 -37 -43 -6 -35 -61 0
1 15 20 46 -24 -49 -65 -66 -9 0
51 18 27 56 4 36 5 53 40 12 11 57 24 41 49 64 9 22 31 34 65 19 42 17 62 52 45 -25 -29 -21 -59 -23 -3 -46 -44 -43 -66 -26 -54 -60 -1 -58 -50 -39 -10 -47 -16 -15 -32 -8 0
59 7 42 57 13 60 37 26 47 1 31 45 52 -23 -44 -49 -66 -5 -32 0
9 53 56 27 47 10 18 57 25 -32 -55 -42 -12 -2 -7 -65 -66 -29 -28 0
13 17 26 27 60 41 30 56 53 36 29 7 38 39 63 45 -65 -10 -58 -16 -59 -9 -35 -2 -33 -49 -37 -14 0
48 45 61 39 20 52 41 27 53 43 11 21 65 1 3 46 32 50 56 44 25 22 16 15 -49 -63 -10 -28 -5 -47 -9 -2 -24 -62 -57 -6 -58 -14 -64 -26 -55 -60 -66 -31 -51 -19 -38 -34 -40 -37 -29 0
55 35 47 8 42 17 9 57 38 41 34 -62 -31 -64 -6 -66 -14 0
