c NeuroCodeBench 2.0 CNF formula with verdict Sat
p cnf 76 284
44 16 21 62 13 27 -20 -10 -69 -24 -25 -32 -31 0
17 45 70 29 44 57 61 63 72 7 68 37 4 26 36 65 35 49 47 50 40 -62 -22 -23 -12 -34 -71 -19 -31 -27 -76 -16 -28 -41 -33 -46 -67 -66 -42 -54 -8 0
5 66 34 36 40 41 -49 -57 -62 -61 -51 -75 -69 -74 -17 0
13 22 55 12 25 16 53 68 69 35 29 2 74 64 58 76 50 4 23 15 46 8 60 9 30 11 31 20 34 59 33 51 19 -45 -70 -52 -5 -57 -47 -44 -38 -1 -24 -62 -7 -14 -61 -3 -42 -39 -40 -36 -26 -72 -63 -37 -66 -48 -54 -27 -73 -6 -10 -49 -17 -41 -28 -18 -21 0
65 21 7 -40 -60 -45 -12 -16 -64 -1 -33 0
14 43 48 10 4 63 -75 -54 -18 -9 -17 -57 -27 0
18 15 23 2 36 54 19 52 74 21 37 25 61 47 40 51 17 13 59 49 58 46 67 27 76 73 10 5 63 43 53 42 71 33 60 50 38 68 -66 -30 -26 -11 -35 -14 -22 -69 -65 -70 -20 -72 -57 -4 -41 -62 -55 -1 -12 -28 -24 -31 -7 -3 -8 -16 -56 -75 -9 -34 -6 -48 0
49 55 66 57 17 20 31 30 12 13 -3 -51 -63 -14 -22 -61 -72 -59 -75 -44 -53 0
52 30 2 19 67 38 46 54 36 27 8 70 31 35 68 51 41 65 22 18 28 64 11 50 17 60 6 16 23 62 71 20 37 33 29 10 24 -42 -69 -4 -7 -15 -39 -40 -21 -61 -1 -75 -59 -53 -47 -63 -73 -44 -57 -55 -14 -26 -3 -66 -13 -12 -32 -45 -43 -48 -56 -58 -49 -76 -74 -9 -5 0
65 12 70 33 43 52 66 17 39 22 64 48 -8 -7 -47 -9 -44 -18 -16 -13 -21 -73 -34 -46 -53 -38 -69 -6 -41 -62 -63 -74 0
17 7 76 13 66 68 70 54 45 6 2 69 18 5 32 24 37 28 48 15 -49 -42 -43 -4 -51 -22 -20 -72 -41 -75 -34 -65 -11 -16 -57 -62 -35 -50 -27 -74 -64 -33 -60 -30 -61 -9 -26 0
54 14 40 44 51 22 39 68 70 2 36 25 73 6 33 12 32 17 19 13 37 5 4 61 69 35 15 26 58 34 -42 -55 -18 -23 -50 -60 -71 -1 -10 -48 -74 -27 -76 -30 -47 -11 -52 -3 -46 -64 -67 -16 -31 0
68 44 14 35 57 61 5 37 6 63 25 40 47 67 60 46 62 55 2 42 13 20 -7 -66 -43 -50 -27 -76 -65 -32 -3 -9 -23 -28 0
25 43 76 12 19 4 36 71 27 1 62 34 20 48 72 18 61 29 10 63 -51 -53 -67 -42 -65 -33 -40 -47 -15 -75 -50 -32 -56 -60 -38 -66 -23 -46 -17 -54 -52 0
72 4 26 32 76 37 66 53 1 24 27 3 42 -25 -36 -30 -17 -11 -51 -65 -40 -33 -34 -49 -64 -67 -62 -10 -55 -22 -57 -21 0
69 11 35 21 56 42 67 49 5 55 8 44 37 62 60 26 13 29 4 63 54 -25 -41 -23 -75 -27 -53 -50 -46 -68 -47 -58 -70 -40 -72 -57 -24 -31 -30 -18 -2 0
70 29 31 69 12 4 72 28 37 71 58 7 9 62 26 61 30 -42 -73 -18 -52 -50 -34 -53 -17 -32 -15 -1 -47 -56 -45 -23 -27 -5 -35 -63 -40 -6 -8 -46 -60 0
61 39 74 31 13 65 43 33 19 -16 -36 -27 -72 -52 -30 -64 -76 0
26 44 43 31 38 65 64 53 55 60 14 2 67 49 50 46 8 34 70 72 41 47 35 19 54 15 22 -69 -23 -7 -39 -24 -32 -28 -57 -61 -30 -42 -48 -73 -4 -59 -62 -63 -68 -71 -25 -51 -20 -29 -10 -27 -5 -11 -18 -21 -58 -40 -75 -33 -12 -17 -52 -3 -76 0
61 7 18 54 29 49 53 1 70 12 25 42 73 13 76 37 16 48 2 3 57 23 71 50 22 8 66 14 30 65 64 47 -74 -10 -67 -75 -36 -4 -41 -69 -33 -45 -20 -21 -63 -19 -39 -72 -38 -62 -32 -43 -44 -6 -31 -55 -56 -60 -27 -51 -68 -40 -24 -46 -9 -34 -52 -28 -5 -59 -58 -26 0
30 11 32 71 70 63 23 17 25 53 29 4 8 7 57 41 74 54 14 13 72 28 -34 -1 -46 -36 -62 -65 -31 -49 -16 -20 -47 -22 -76 0
39 44 26 10 22 -41 -9 -48 0
70 37 14 29 26 38 16 75 24 35 58 22 72 47 68 62 25 5 23 55 71 60 36 30 52 28 40 39 27 19 20 7 -43 -54 -1 -53 -57 -73 -9 -11 -32 -69 -10 -3 -34 -66 -59 -12 -48 -17 -21 -18 -33 -49 -2 -45 -41 -64 -51 -8 -15 -74 -31 -65 0
74 41 73 38 13 11 44 26 59 58 23 54 32 21 12 39 42 64 3 45 20 53 75 49 9 -67 -61 -51 -6 -19 -63 -27 -5 -66 -40 -29 -43 -24 -8 -71 -55 -25 -18 -14 -60 -76 -68 -30 -47 -31 -4 -28 -72 -57 -37 -56 -70 -33 -46 -1 -48 -17 -65 -34 0
43 9 21 33 8 37 14 62 73 31 23 13 75 51 61 26 7 27 32 42 34 63 3 41 46 60 6 12 18 29 45 -57 -36 -71 -2 -39 -56 -35 -55 -15 -25 -52 -19 -68 -5 -59 -24 -54 -69 -67 -76 -1 -47 0
48 61 21 35 27 31 34 72 59 -10 -57 -7 -71 -70 -65 -3 -40 0
65 13 50 33 74 22 5 44 10 1 37 52 58 21 40 59 23 25 71 6 51 26 32 45 17 3 18 76 55 -20 -61 -27 -16 -11 -48 -14 -19 -56 -39 -30 -70 -66 -29 -64 -46 -31 -60 -28 -68 -42 -7 -57 -53 -43 -4 -73 -15 -2 -63 -9 -49 0
30 28 75 43 36 7 41 61 27 22 19 1 45 54 31 10 37 52 48 12 -14 -34 -20 -13 -74 -49 -65 -44 -2 -58 -63 -35 -66 -25 0
18 40 21 45 -38 -60 0
31 17 64 16 34 -29 -18 -44 -66 -70 -23 0
36 8 61 29 70 18 39 46 67 66 37 22 44 63 71 32 60 72 -59 -11 -3 -50 -74 -48 -31 -17 -43 -20 -40 -23 -33 -30 0
55 51 59 41 6 21 15 70 49 56 -31 -36 -47 -76 -17 -62 -4 -61 -45 0
50 17 51 37 42 2 28 1 26 54 65 11 3 24 74 18 6 73 4 67 71 34 47 62 30 45 33 21 -70 -69 -7 -13 -52 -61 -14 -27 -16 -64 -40 -60 -5 -66 -15 -25 -49 -10 -39 -44 -20 -32 -19 0
14 44 12 38 34 41 25 63 28 46 8 18 70 -58 -72 -32 -74 -1 -43 -42 0
25 66 42 54 46 53 37 69 19 1 30 8 52 72 17 62 68 -7 -31 -29 -9 -47 -26 -3 -14 0
47 7 39 57 70 68 40 5 54 42 64 12 75 60 72 20 2 41 32 -22 -65 -74 -28 -27 -35 -10 -53 -17 -15 -73 -29 0
7 47 40 39 1 28 73 58 56 31 53 20 46 45 2 4 70 48 75 60 72 55 61 54 71 42 5 41 68 43 32 22 9 69 62 33 38 57 -34 -13 -11 -66 -6 -8 -64 -44 -36 -59 -15 -74 -35 -65 -50 -30 -24 -26 -25 -17 -10 -76 -23 -18 -52 -37 -21 -51 -3 -29 -63 -27 -49 -12 -19 0
60 10 37 29 28 21 42 7 59 72 65 13 8 38 46 24 30 34 9 16 53 -68 -39 -15 -48 -49 -25 -32 -61 -52 -27 -44 -47 -54 -3 -56 -50 -1 -64 -45 -17 -74 -5 -62 -23 0
35 50 46 32 60 26 40 69 9 47 67 38 48 42 39 23 3 5 8 2 64 45 24 75 29 41 -74 -59 -58 -15 -62 -28 -73 -31 -57 -43 -20 -53 -6 -56 -25 -44 -12 -55 -11 -61 -33 -70 -16 -66 -65 -36 -37 -18 -30 -63 -76 0
46 26 4 19 24 11 22 17 36 56 65 49 3 44 62 55 10 58 15 5 -48 -76 -61 -1 -6 -60 -63 -25 -43 -66 -20 -18 -27 -53 -40 -72 -68 -51 -38 -52 -13 -73 -67 -23 -39 -75 -50 -45 0
3 58 -27 -38 0
69 46 51 56 61 42 24 29 37 11 49 21 64 57 71 -6 -74 -75 -48 -23 -67 -34 -10 -39 -52 -68 -20 -4 -3 0
8 60 5 24 63 25 30 16 56 34 42 31 71 29 7 59 48 45 61 47 26 64 13 67 44 62 40 36 66 6 12 22 65 19 21 28 55 14 -75 -18 -74 -46 -54 -73 -57 -37 -76 -33 -3 -11 -52 -49 -70 -2 -15 -17 -53 -38 -68 -41 -1 -23 -4 -69 -32 -43 -72 -51 -20 -50 -9 0
66 15 11 75 50 69 54 76 52 29 59 7 65 56 4 1 27 67 26 42 30 36 62 -53 -38 -22 -8 -5 -51 -60 -48 -72 -19 -37 -70 -74 -2 -55 -64 -61 -35 -43 -44 -32 -25 -10 -28 -49 -16 0
22 7 33 1 61 15 47 24 52 11 35 19 27 66 64 30 13 9 32 50 71 6 53 59 55 17 -14 -73 -3 -43 -26 -68 -23 -57 -28 -58 -25 -60 -21 -44 -45 -70 -10 -16 -31 -62 -51 -54 -75 -69 -2 -46 0
67 24 36 6 60 37 27 41 3 47 5 75 42 34 38 25 32 70 53 69 54 -7 -17 -12 -35 -68 -71 -16 -57 -59 -22 -43 -55 -19 -20 -39 -14 -8 -11 -29 -50 -44 -74 0
4 37 38 50 76 58 71 43 73 5 74 34 21 24 72 14 25 33 51 52 39 1 68 26 40 -49 -8 -57 -59 -27 -53 -6 -28 -62 -42 -7 -18 -29 -13 -31 -75 -9 -44 -60 0
69 31 56 2 65 43 19 68 38 9 8 54 45 51 50 30 44 64 -28 -18 -25 -4 -37 -53 -21 -55 -58 -39 -73 -13 -40 -72 -15 -14 -74 -62 0
72 18 4 76 11 59 8 61 49 -22 -32 -19 -38 -46 -25 -42 -47 -70 0
74 -76 -1 0
32 38 23 30 48 -18 -71 0
39 50 24 29 53 6 -43 -75 -28 -12 -34 -67 -15 -49 -7 -68 -35 0
59 71 73 40 3 38 -43 -54 -16 -20 -2 -11 -36 -39 -56 -28 -50 -18 -21 0
25 3 29 40 51 75 52 1 30 32 72 13 66 24 26 18 31 7 55 27 4 46 36 16 38 34 28 8 57 63 76 70 39 67 19 -11 -62 -68 -54 -21 -64 -58 -35 -49 -2 -71 -37 -61 -22 -14 -59 -42 -73 -9 -65 -12 -60 -53 -48 -41 -50 -17 -44 -33 -6 -23 0
46 30 23 61 60 48 31 59 70 33 42 -67 -20 -75 -38 -19 -32 -54 -74 -72 0
70 35 13 73 2 26 -57 -40 -15 -44 0
16 25 7 35 9 19 26 56 61 73 45 2 24 60 59 53 72 36 39 28 74 71 55 18 52 15 64 14 62 57 32 37 10 11 13 1 4 3 -17 -75 -50 -48 -65 -41 -76 -20 -58 -33 -67 -31 -51 -21 -47 -46 -70 -69 -38 -34 -43 -63 -12 -42 -6 -27 -8 -40 -23 -44 -68 -30 -66 -54 -29 -22 0
52 27 74 68 20 7 26 41 59 51 45 64 50 71 -10 -15 -44 -29 -14 -18 -57 -40 -23 -60 -31 -13 -5 -11 -24 0
34 2 5 65 70 58 43 54 55 66 60 27 53 4 20 19 39 30 59 21 22 44 51 6 41 15 25 28 61 37 29 13 24 -36 -14 -16 -23 -48 -56 -52 -42 -38 -12 -69 -10 -9 -35 -26 -57 -45 -40 -8 -75 -7 -68 -17 -74 0
25 8 64 55 36 29 58 49 18 43 63 69 54 42 68 35 32 53 27 57 -74 -45 -59 -51 -44 -62 -61 -2 -10 -17 0
12 60 71 27 34 18 57 -43 -45 -21 -64 -69 -36 -53 -28 -22 -51 -25 -58 -2 -49 0
5 58 63 21 17 3 49 53 33 55 59 60 40 11 70 7 38 64 -12 -76 -27 -32 -9 -44 -36 -4 -67 -61 -73 -29 -39 -1 -2 -54 -22 -65 -6 -48 -52 -43 0
10 49 53 13 45 19 68 16 27 6 28 46 11 35 17 76 59 30 65 60 33 61 42 50 22 41 73 1 64 31 66 -4 -14 -75 -55 -25 -48 -8 -32 -37 -56 -15 -34 -54 -57 -58 -47 -51 -12 -63 -52 -20 -71 -26 -69 -40 -9 -23 -3 -39 -21 -72 -62 -36 -7 -67 -18 -5 0
63 24 69 4 25 19 8 11 57 50 7 16 37 40 21 15 5 72 38 76 -6 -29 -44 -23 -48 -35 -39 -28 -45 -71 -68 -60 -2 -58 -18 -32 -41 -49 -73 0
46 4 13 75 61 19 73 23 54 2 18 28 16 24 41 62 58 50 69 56 3 49 22 42 70 5 67 52 9 -35 -17 -39 -34 -53 -59 -14 -55 -29 -15 -32 -31 -60 -25 -33 -37 -1 -36 -51 -40 -38 -76 -65 -48 -72 -43 -47 -44 -71 -21 -11 -10 -20 -68 -64 -45 -26 -74 -63 -57 -6 -66 -12 0
48 38 33 6 -37 -7 -1 -20 -27 -71 -11 0
52 71 35 7 19 11 47 22 23 50 34 46 74 15 59 38 43 60 33 48 64 73 24 6 -72 -2 -21 -62 -32 -29 -57 -17 -53 -41 -27 -42 -70 -14 -31 -67 -18 -58 -4 -49 -63 -5 -65 -37 -3 -75 -28 -36 -25 -45 0
35 26 54 40 75 76 46 37 57 61 10 32 62 45 36 19 12 9 7 -5 -48 -71 -56 -74 -33 -59 -67 -49 -43 -13 -25 -53 -2 -17 -6 -23 -30 -22 -4 -24 -3 -50 -60 -15 0
22 61 42 1 48 73 37 10 15 45 23 54 17 11 32 75 36 12 40 71 -58 -49 -69 -50 -38 -65 -76 -66 -60 -64 -9 -74 -24 -29 -39 0
21 71 46 22 50 11 48 20 62 49 36 18 12 58 -74 -37 -27 -39 -8 -41 -52 -35 -44 -76 -69 -51 0
32 35 11 9 25 21 19 65 58 14 69 31 72 66 16 70 34 -67 -50 -46 -42 -44 -26 -63 -13 -30 -68 -52 -8 0
37 3 63 46 21 13 55 69 75 73 14 23 36 70 31 48 28 22 68 44 66 12 60 43 26 74 72 -4 -9 -38 -58 -35 -6 -57 -51 -53 -52 -56 -54 -50 -29 -42 -71 -76 -27 -16 -20 -8 -1 -34 -24 -59 -2 0
44 27 40 19 64 29 25 69 48 18 20 61 7 43 -42 -41 -5 -68 -54 -63 -45 -6 -30 -56 -70 -60 -14 -2 -36 -21 -35 -51 -31 0
4 9 13 32 44 69 25 28 65 10 29 67 59 23 53 70 5 43 17 73 -56 -36 -66 -19 -39 -62 -40 -3 -21 -34 -55 -7 -31 -16 -52 -24 -71 -14 -22 -15 -75 -30 -61 -48 -74 0
72 69 51 15 52 7 3 26 13 28 58 60 16 55 48 49 56 47 36 46 -71 -32 -6 -5 -23 -76 -4 -10 -61 -68 -1 -57 -64 -25 -44 -50 -63 -30 -37 -17 -12 -66 -73 -27 -35 -74 -31 0
75 28 53 59 1 12 15 14 29 49 23 45 50 44 69 64 8 3 67 42 70 57 46 33 38 36 27 61 65 22 71 20 -62 -18 -11 -32 -4 -41 -63 -58 -35 -9 -30 -74 -52 -51 -56 -68 -31 -24 -47 -66 -16 -40 -19 -48 -73 -43 -37 -21 -7 -25 -55 0
20 51 24 29 1 11 73 39 34 61 21 6 28 4 2 32 54 57 58 17 55 67 41 69 70 36 22 62 46 -23 -35 -49 -50 -65 -64 -16 -44 -19 -48 -66 -43 -26 -31 -52 -33 -5 -14 -53 -7 -60 -40 -9 -56 -25 -15 -74 -71 -59 -75 0
48 10 -6 -46 -21 0
8 39 68 52 42 62 25 -23 -5 -58 -44 -15 -29 -35 0
45 50 31 71 65 52 8 63 17 29 40 5 34 19 36 49 37 41 27 4 64 76 9 16 60 7 14 48 -53 -24 -68 -57 -46 -11 -61 -58 -38 -73 -70 -62 -13 -2 -3 -42 -10 -18 -6 -44 -47 -22 -23 -66 -20 -67 -1 -15 -55 -39 -21 -51 0
12 60 66 -74 -10 -2 -28 -23 -39 -5 -64 -6 0
46 7 66 55 38 47 33 64 43 42 52 62 -10 -50 -27 -72 -57 -25 -15 -54 -9 -11 0
22 2 56 74 19 73 6 72 30 68 54 -28 -64 -46 -9 -17 0
74 6 43 2 37 15 11 19 53 7 61 54 64 17 58 72 21 40 44 26 31 50 29 32 73 57 28 20 16 56 62 48 52 49 22 67 24 33 60 41 -10 -9 -13 -68 -14 -8 -25 -69 -66 -76 -35 -63 -3 -42 -45 -27 -47 -51 -12 -1 -46 -55 -4 -71 -36 -5 -65 -30 -75 0
14 44 55 9 27 19 32 62 15 75 34 73 39 58 71 60 67 13 18 4 72 17 57 52 40 48 37 41 25 76 2 28 54 38 56 -50 -49 -53 -7 -61 -16 -6 -74 -31 -8 -42 -3 -45 -59 -24 -51 -70 -21 -29 -20 -46 -63 -47 -12 -65 0
64 5 75 54 1 68 46 2 14 6 37 9 57 26 7 20 61 23 45 56 -69 -70 -28 -18 -63 -41 -12 -31 -19 -35 -60 -47 -67 -52 -16 0
43 10 55 9 12 44 73 72 17 1 63 5 75 70 14 34 2 45 67 59 60 4 11 62 16 35 6 50 33 42 24 64 49 74 65 68 32 -54 -61 -66 -51 -18 -7 -15 -71 -20 -36 -41 -58 -3 -21 -25 -38 -22 -53 -57 -27 -37 -29 -13 -56 -69 -47 -31 -28 -19 -48 -46 -52 -30 -39 -8 -26 -76 0
6 67 44 13 65 75 73 37 24 35 7 9 66 3 12 68 71 14 34 40 45 62 10 42 -39 -47 -46 -15 -23 -36 -54 -20 -31 -30 -51 -16 -52 -48 -53 -29 -49 -25 -50 -17 -60 -5 -43 0
73 2 67 61 20 41 29 69 28 66 22 16 7 39 35 17 1 72 8 4 62 46 71 57 37 11 74 27 24 -53 -49 -52 -30 -55 -51 -47 -31 -60 -48 -18 -68 -33 -50 -21 -32 -64 -36 -34 -44 -23 -76 -65 -9 -13 -45 -6 -75 -40 -3 -12 -54 -59 0
36 76 39 12 6 29 63 68 42 50 30 62 47 9 73 70 60 4 18 26 10 37 11 67 69 -45 -5 -51 -15 -8 -27 -31 -16 -72 -23 -22 -2 -40 -7 -25 -35 -43 -33 -41 -58 -66 -44 0
47 22 9 57 48 32 45 2 42 36 46 12 41 60 54 1 61 27 53 7 67 26 35 76 14 72 -71 -11 -68 -43 -19 -3 -70 -51 -66 -59 -6 -15 -64 -69 -44 -65 -13 -17 -4 -5 0
61 73 26 44 71 74 60 72 43 5 2 67 66 11 10 35 14 -39 -70 -36 -54 -31 -58 -38 -42 -22 -13 -29 0
37 17 71 18 23 11 55 24 7 70 33 1 51 22 45 66 29 58 30 61 48 41 26 73 19 4 59 3 42 36 -21 -8 -28 -49 -72 -34 -76 -75 -13 -68 -31 -60 -65 -38 -53 -25 -67 -6 -2 -54 -12 -10 -27 -15 -69 0
39 51 12 68 6 21 74 50 8 55 54 29 23 56 22 17 32 11 3 61 7 31 33 58 2 47 60 -4 -9 -41 -73 -25 -65 -59 -28 -5 -35 -72 -70 -18 -52 -64 -38 -27 -46 -45 -37 -15 -49 -69 -48 -13 -44 -67 -43 -63 -26 -34 -57 -76 -75 -66 -36 -62 -24 -40 -16 0
43 53 36 34 40 69 35 57 46 14 73 7 63 72 49 17 51 60 24 52 41 6 3 31 2 33 58 12 11 47 75 54 18 56 50 39 38 70 23 -68 -71 -4 -19 -20 -13 -62 -37 -45 -21 -59 -67 -29 -1 -9 -10 -48 -64 -65 -66 -30 -26 -15 -42 -5 -44 -22 -25 -74 -28 -76 -32 -61 -55 -16 -27 0
64 20 4 8 71 28 40 66 36 18 21 54 11 25 19 27 57 6 68 14 3 73 46 5 60 52 44 7 17 76 16 50 69 41 -30 -23 -24 -9 -35 -59 -62 -47 -65 -63 -49 -56 -74 -72 -26 -29 -39 -48 -53 -15 -58 -12 -51 -34 -70 -33 -13 -38 -67 -55 -42 0
8 29 66 26 36 44 17 2 51 27 41 64 24 47 25 61 69 71 16 12 19 43 34 60 4 42 75 67 58 -70 -73 -18 -39 -5 -45 -31 -48 -76 -28 -46 -65 -10 -72 -52 -53 -68 -14 -62 -40 -35 -15 -55 -37 -21 -32 0
30 20 72 48 36 26 25 73 39 -34 -27 -37 -69 -3 0
29 5 38 17 51 11 61 44 48 52 27 2 40 50 -32 -72 -68 -13 -70 -35 -33 -36 -54 -60 -47 -10 -12 -23 -45 -67 -75 -9 -1 -56 -59 -63 0
23 39 8 41 4 16 60 70 19 35 37 29 13 61 57 63 6 55 49 18 62 32 -28 -56 -45 -50 -27 -40 -10 -42 -33 -44 -74 -72 -24 -38 -30 -5 -46 -64 -67 -48 -59 -36 -71 -65 -25 -9 -76 -58 -1 -75 -3 -51 -52 -31 -54 -2 -34 -66 0
20 50 18 2 6 5 15 -33 -47 0
25 35 36 60 4 74 5 53 57 55 46 45 50 72 71 64 56 70 54 28 22 51 26 -23 -29 -40 -24 -9 -16 -31 -21 -61 -7 -37 -68 -63 -33 -58 -66 -69 -13 -39 -18 -14 -17 -75 -34 0
1 12 4 3 67 76 32 74 50 60 14 73 11 61 18 10 62 40 15 47 33 42 22 69 13 66 36 27 45 -48 -30 -34 -52 -56 -25 -2 -44 -49 -58 -43 -55 -16 -54 -63 -38 -53 -72 -39 -21 -31 -71 -9 -37 -23 -8 -35 -65 -51 -26 -70 -5 -29 0
38 63 20 24 66 33 49 51 60 56 22 15 32 36 2 55 27 35 11 4 1 17 -42 -5 -64 -71 -37 -34 -47 -61 -44 -39 -18 -12 -65 -54 -75 -45 -16 -50 -52 -7 -58 0
74 46 60 61 53 14 3 37 12 -9 -15 -18 -52 -70 -56 -71 -72 -54 -33 -6 -47 -2 -11 -1 -34 -75 -23 0
17 10 59 53 8 1 68 46 -70 -9 -60 -31 -13 -43 -66 -67 0
52 25 71 45 22 -75 -32 -19 -73 -37 -6 0
15 46 69 16 63 24 71 21 51 33 27 10 61 62 32 23 45 55 66 76 40 14 25 49 37 34 35 39 73 67 60 17 20 41 72 38 29 12 -3 -47 -31 -28 -1 -13 -54 -11 -68 -5 -56 -48 -57 -42 -44 -2 -43 -18 -64 -30 -65 -22 -53 -9 -58 -7 -70 -4 -52 -50 -59 -75 -74 0
59 49 25 69 51 4 36 5 2 3 43 12 33 14 21 18 38 45 26 57 17 55 11 75 67 60 37 24 46 62 39 31 58 47 -20 -44 -63 -74 -65 -76 -10 -8 -29 -34 -28 -6 -19 -32 -13 -54 -42 -70 -22 -72 -52 -68 -48 -61 -40 -9 -73 -71 -66 -53 -35 -27 -41 -16 -64 -50 -30 -23 0
31 45 27 76 9 72 20 73 34 13 32 33 64 41 4 30 29 36 3 16 1 50 28 35 11 39 66 44 -2 -43 -71 -42 -61 -48 -40 -60 -56 -51 -10 -47 -55 -74 -6 -70 -57 -19 -75 -18 -23 -52 -49 -26 -37 -67 -24 0
30 20 32 43 27 58 -53 -36 -10 -2 -7 -75 -14 -44 -56 -62 -31 0
43 74 71 53 35 38 22 32 62 37 16 2 17 76 75 39 4 58 -60 -44 -63 -61 -49 -54 -3 -19 0
31 9 53 12 20 42 54 47 46 7 25 8 36 40 62 27 57 48 61 73 -17 -45 -11 -64 -71 -50 -55 -37 -32 -65 -18 -59 -19 -66 -43 -33 -76 -72 -13 -26 -6 -10 -52 -21 -2 -22 -4 -74 0
59 5 55 76 75 4 20 10 28 68 51 11 69 19 12 54 38 13 17 63 2 71 -9 -50 -70 -33 -16 -37 -74 -72 -60 -32 -48 -7 -30 -23 -73 -8 -67 -3 -41 -58 -21 -47 -62 -31 -61 -26 -27 -6 -15 -43 0
19 21 22 -71 -68 -18 -43 -27 -60 -38 -26 -49 -69 -29 -20 -37 -65 -8 -35 -53 -75 -1 -61 0
48 35 27 42 20 63 68 74 34 41 13 1 45 12 3 19 67 44 73 16 66 21 26 70 51 76 43 -24 -22 -37 -6 -2 -25 -75 -39 -17 -7 -40 -64 -58 -52 -9 -71 -46 -36 -50 -38 -65 -10 -33 0
49 3 28 44 45 76 64 25 55 40 74 7 70 -67 -42 -62 -8 -56 -63 -38 0
29 13 4 14 19 27 25 54 16 55 60 41 7 63 73 74 26 58 18 37 5 68 2 -64 -45 -65 -47 -1 -12 -10 -75 -24 -42 -69 -22 -76 -56 0
39 32 48 71 75 25 69 33 21 40 23 58 70 13 38 18 37 45 3 12 44 15 51 -47 -34 -10 -19 -52 -26 -46 -22 -64 -61 -20 -54 -66 -16 -7 -42 -59 -4 -29 -28 0
45 74 21 5 50 8 76 65 4 40 53 70 59 69 63 61 34 20 39 -32 -41 -9 -2 -51 -33 -23 -55 -30 -60 -67 -11 -42 -19 -28 -6 -58 -38 0
62 58 41 60 23 73 56 13 61 52 -5 -46 -43 -47 -50 -33 -31 -53 -51 0
13 30 75 46 61 19 40 14 44 41 25 23 5 38 63 10 3 70 76 34 65 42 51 -57 -74 -69 -37 -59 -50 -49 -26 -45 -20 -71 -1 -67 -12 -43 -6 -47 -16 -55 0
74 -48 -43 -15 0
70 27 41 47 36 26 53 63 11 73 51 8 71 39 19 75 21 50 13 30 15 69 59 -65 -64 -60 -46 -2 -32 -49 -9 -56 -62 -3 -18 -54 -22 -37 -74 -58 -38 -29 -12 -34 -76 -44 -52 -25 -4 -35 -10 -61 0
67 58 52 7 66 28 16 30 68 39 4 59 11 26 22 6 32 25 15 76 2 47 43 -20 -10 -64 -55 -3 -72 -69 -35 -57 -19 -12 -73 -65 -21 -41 -54 -74 -27 -31 -60 -9 -17 -24 -53 -29 0
59 57 47 64 14 66 20 45 44 75 52 10 2 34 72 60 12 50 55 23 19 27 35 1 -74 -41 -16 -6 -67 -56 -33 -54 -37 -31 -73 -70 -63 -9 -4 -18 -29 -11 -42 -68 -61 -71 0
8 36 11 18 30 12 3 17 40 25 54 39 61 52 -29 -62 -71 -59 -60 -53 -15 -44 -55 0
16 35 5 2 67 13 27 8 70 49 62 71 50 22 59 73 25 66 11 38 6 4 15 29 1 20 68 52 37 23 36 46 55 41 60 65 61 -40 -14 -51 -31 -18 -34 -56 -32 -53 -74 -33 -12 -48 -17 -9 -30 -57 -19 -47 -45 -3 -7 -63 -28 -21 -26 -69 -58 -24 -72 -10 -42 -64 -54 -43 -39 -44 0
63 64 48 27 58 -26 -55 -20 -38 0
13 41 76 58 49 63 21 27 14 72 40 20 31 23 66 42 59 4 61 3 6 -28 -37 -47 -52 -65 -62 -33 -69 -54 -34 -68 -60 -67 -1 -70 -74 -51 -10 -30 -17 -22 -56 -11 -8 -25 -16 -53 -45 -12 -43 -35 -26 0
23 28 42 13 65 29 62 52 48 64 6 63 41 -15 -49 -69 -61 -53 -51 -11 -3 -33 -74 -4 -2 -18 -32 -68 -44 -67 -19 -56 0
29 50 34 51 30 53 16 75 37 57 27 56 24 33 46 -54 -7 -72 -22 -76 -20 -64 -25 -60 -19 0
4 75 30 10 1 61 66 40 28 20 42 16 37 53 -60 -43 -36 -54 -41 -17 -24 -51 -56 0
53 9 48 19 68 73 28 69 5 55 1 37 20 21 6 30 46 64 11 49 36 12 59 44 2 16 15 67 50 8 61 32 39 -70 -24 -57 -76 -40 -56 -29 -63 -51 -26 -17 -71 -34 -25 -60 -33 -58 -38 -4 -31 -22 -74 -54 -35 -47 -13 -52 -42 -66 -18 -7 -3 -27 -72 0
7 6 37 75 31 50 46 10 70 -11 -30 -20 -62 -34 -25 -66 -42 -68 -21 -29 -24 -71 -4 -19 0
39 59 36 45 69 61 29 42 18 8 41 35 6 -28 -40 -43 -16 -74 -67 -53 -71 -73 -14 -11 -5 -70 -54 0
38 63 46 71 47 65 37 9 43 16 67 -25 -50 -48 -31 -33 -7 -15 0
73 36 25 70 3 1 32 14 63 44 7 16 74 19 27 29 18 11 28 67 61 31 2 47 -68 -20 -50 -72 -15 -23 -56 -62 -76 -57 -59 -30 -26 -17 -52 -51 -40 -37 -33 -9 -58 -55 0
25 52 50 34 -70 0
76 24 74 54 39 8 6 -31 -3 -50 -73 -61 -35 0
51 18 25 49 4 71 66 45 16 29 59 55 63 31 15 38 46 13 72 52 61 11 35 76 2 44 69 57 12 28 40 -34 -74 -48 -62 -17 -39 -60 -10 -9 -33 -65 -67 -42 -19 -75 -58 -54 -6 -5 -23 -21 -26 -27 -53 0
23 12 74 63 26 70 65 55 1 16 60 36 56 37 21 30 67 72 52 41 39 4 7 28 53 62 8 69 22 29 50 24 38 2 54 71 66 42 -3 -49 -27 -25 -43 -33 -19 -20 -34 -40 -11 -59 -51 -6 -9 -17 -15 -35 -57 -73 -58 -14 -32 -48 -64 -47 -46 -10 -75 -76 -44 -5 -45 -31 0
48 18 64 13 -42 0
42 63 28 51 35 45 66 60 30 48 15 39 36 26 54 37 56 65 47 53 46 61 18 69 38 76 34 -52 -55 -75 -20 -9 -58 -11 -19 -27 -24 -40 -12 -33 -32 -68 -44 -8 -5 -70 -6 -1 -7 -73 -57 -25 -71 -43 -59 -74 -62 -21 -64 -22 0
70 65 12 26 35 44 72 55 66 62 54 51 1 63 41 61 17 64 -57 -49 -29 -34 -21 -5 -6 -46 -71 -59 -39 -7 -4 -68 -67 -11 -13 -48 -28 -25 -22 -47 -23 -9 -27 0
70 72 15 25 47 44 16 -28 -7 -2 -51 -23 -60 -62 -30 0
10 51 12 17 1 11 44 71 9 56 75 74 55 16 65 76 41 69 4 52 21 -64 -58 -22 -66 -62 -54 -70 -49 -46 -36 -2 -20 -3 -43 -7 -53 -13 -68 -23 -27 -67 -19 -35 -40 -39 -34 -5 -15 -32 -25 -57 -28 -73 0
11 63 20 30 36 5 27 53 31 43 37 57 48 17 62 50 72 12 33 47 -69 -44 -55 -38 -71 -58 -73 -1 -26 -18 -15 -35 -52 -41 -46 -59 -60 -32 -70 -28 -49 -65 -66 -7 -61 0
63 33 70 2 11 4 49 -52 -25 -27 -10 -29 -14 -61 -44 -12 -34 -23 -68 -57 -28 -18 -38 -1 0
29 76 3 34 7 27 54 35 52 63 59 55 33 -32 -1 -71 -73 -2 -51 -56 -41 -9 -58 -74 -14 -48 -67 -28 0
15 22 2 66 -31 -9 -34 -30 0
32 9 47 61 46 18 63 11 72 29 66 4 16 23 31 13 54 49 25 5 52 20 71 73 68 8 17 62 41 57 38 36 15 76 48 70 24 10 -21 -40 -12 -59 -6 -42 -50 -75 -2 -1 -7 -34 -51 -55 -37 -64 -33 -58 -3 -53 -22 -43 -60 -14 -27 0
49 48 44 17 68 -40 -73 -13 0
68 3 69 13 16 14 24 27 18 55 19 31 43 29 70 50 71 33 2 1 59 49 42 9 17 48 23 73 40 52 54 56 25 64 6 34 -41 -37 -15 -38 -72 -57 -44 -22 -30 -47 -32 -39 -35 -45 -8 -65 -51 -20 -10 -53 -36 -75 -12 -46 -5 -7 0
18 39 38 4 44 33 30 57 72 -48 -25 -36 -49 -5 -41 -31 -70 -67 -21 -8 -42 -63 0
56 20 1 18 50 24 26 52 21 59 68 71 29 42 27 72 69 39 40 53 70 30 14 -37 -46 -17 -74 -57 -10 -6 -62 -16 -41 -44 -11 -15 -54 -73 -34 -35 -4 -47 -63 -19 -75 0
43 74 39 70 3 72 31 46 16 5 59 71 13 41 21 68 15 63 2 42 53 73 -17 -18 -48 -75 -33 -6 -23 -62 -4 -10 -57 -36 -55 -67 -12 -30 -49 -11 -28 -34 -50 -7 -69 -20 -45 0
66 71 65 5 33 60 26 23 67 44 -6 -70 -75 -34 -57 -8 -45 -1 -49 -50 -72 -12 -31 -11 -9 0
66 70 35 29 36 72 11 32 69 55 3 13 43 7 22 42 38 75 10 -6 -21 -54 -26 -37 -14 -46 -73 -53 -1 -47 0
52 70 62 26 29 -57 0
59 17 39 14 30 61 31 41 18 13 10 48 1 3 44 -43 -56 -73 -20 -4 -50 -74 -36 -33 -7 -67 -21 -71 0
21 30 24 15 27 39 60 11 34 56 28 66 6 53 40 -19 -32 -54 -10 -42 -5 -50 -16 -7 -72 -65 -67 -64 -71 -51 -70 -25 -1 -33 -59 -48 0
74 43 69 56 32 24 66 27 55 54 12 8 16 57 51 2 68 33 -20 -42 -73 -31 -62 -6 -70 -50 -60 -19 -47 -39 -41 -29 -18 -28 0
42 49 38 15 60 6 20 16 64 2 74 56 27 57 29 24 41 1 -12 -4 -48 -22 -46 -5 -36 -70 -66 -13 -37 -51 -65 -73 -40 0
20 40 66 28 13 42 4 74 8 65 32 60 64 23 76 53 14 10 69 25 7 11 -38 -24 -41 -33 -34 -43 -55 -30 -17 -1 -51 -48 -15 -67 -5 -45 -6 -52 -72 -37 0
54 14 48 28 74 8 25 56 37 10 20 31 27 26 11 55 19 65 47 35 23 1 71 46 73 9 17 -44 -69 -66 -30 -18 -67 -61 -58 -12 -40 -39 -59 -15 -75 -68 -34 -53 -60 -4 -3 -72 -62 -36 -21 -63 -22 -2 -38 -52 -7 -13 -70 -57 -29 -49 -41 0
68 27 69 49 14 6 30 65 55 53 -15 -72 -32 -7 -45 -67 -50 -47 0
36 23 53 35 61 29 27 44 45 4 17 46 13 15 51 25 55 59 32 34 42 56 1 21 63 38 41 18 -20 -2 -57 -11 -48 -33 -19 -14 -75 -9 -10 -6 -24 -74 -37 -22 -66 -62 -30 -58 -31 -49 -52 0
2 44 30 34 43 38 65 55 40 72 39 66 67 56 75 60 8 25 37 13 20 22 7 10 24 5 3 11 69 -74 -4 -23 -6 -32 -49 -45 -52 -1 -48 -21 -19 -68 -16 -36 -31 -64 -51 -27 -63 -62 -54 -73 -26 -58 -35 -17 -15 -28 -46 -53 -70 -50 -76 0
62 59 69 13 47 15 74 64 39 6 2 75 70 30 21 42 57 54 11 61 48 4 60 35 58 -56 -31 -10 -36 -68 -43 -14 -38 -18 -12 -16 -22 -63 -72 -44 -76 -50 -27 -20 0
8 69 65 40 -22 -23 -42 -56 -25 0
51 74 75 44 15 -4 -13 -71 -32 -67 -37 0
44 46 37 21 24 58 18 29 -15 -6 -69 -59 -27 -39 -33 -14 -62 -16 -74 -11 0
20 28 70 6 42 33 44 69 61 57 49 68 7 22 64 -40 -41 -18 -34 -15 -55 -37 -39 -21 -9 -72 -59 -62 -4 -30 0
14 60 30 55 54 41 42 9 48 1 21 62 33 56 29 53 28 -68 -75 -2 -57 -38 -49 -6 -45 -59 -32 -43 -50 -72 -19 -24 -26 -12 -63 -25 -64 -70 -71 -74 0
4 25 2 20 73 35 3 67 12 50 66 62 47 33 55 16 63 43 26 49 59 61 31 10 54 44 48 53 15 32 40 8 1 74 45 9 52 71 7 -58 -11 -64 -18 -6 -42 -75 -76 -22 -34 -14 -41 -57 -36 -5 -38 -65 -72 -19 -39 -60 -51 -56 -37 -13 -70 -28 0
71 75 3 64 58 33 53 36 40 22 21 51 34 60 31 52 61 56 62 16 37 30 39 17 72 6 48 68 5 19 2 24 44 74 73 76 10 -55 -46 -49 -12 -41 -45 -18 -15 -69 -13 -50 -65 -7 -67 -9 -32 -35 -26 -59 -43 -42 -20 -29 -27 -4 -54 -25 -38 -23 -70 -28 -11 -8 -66 -1 -63 -14 0
28 16 13 32 37 60 -68 -31 -8 -9 -40 -39 -23 -30 -33 -65 0
52 58 49 13 56 25 67 62 3 2 20 18 -32 -72 -27 -12 -75 -74 -21 -9 -26 -19 -31 -71 -24 0
5 70 65 1 14 -42 -76 -4 0
29 62 46 58 23 56 64 48 6 50 24 75 53 28 8 37 73 54 15 -41 -4 -7 -16 -74 -12 -49 -2 -52 -5 -33 -26 -3 -70 -55 0
18 76 52 13 12 53 -32 -20 -71 -46 -63 -54 0
53 49 44 19 46 59 30 36 6 18 14 75 -16 -13 -76 -73 0
16 42 18 46 14 23 22 43 1 19 61 37 17 60 4 33 63 32 31 38 57 -41 -69 -40 -74 -20 -15 -12 -25 -75 -71 -47 -48 -58 -45 0
75 29 54 21 52 12 46 72 4 26 28 35 68 36 59 69 19 18 34 73 49 60 38 43 2 41 47 11 20 10 6 64 16 3 65 76 -57 -39 -24 -71 -67 -70 -56 -44 -74 -27 -40 -23 -45 -8 -53 -17 -33 -42 -66 -55 -51 -7 -22 -15 -30 -5 -61 -14 -25 -62 -13 -48 -50 0
42 5 31 4 -58 -61 -36 -69 0
26 36 -23 -38 0
57 29 64 7 67 22 52 61 56 47 17 15 44 76 51 31 39 -74 -66 -69 -30 -48 -63 -9 -42 -14 -68 -70 -5 -8 -41 0
12 56 4 49 6 23 11 63 75 33 59 39 41 61 31 45 27 76 69 48 -52 -60 -38 -9 -24 -51 -43 -67 -35 -36 -30 -29 -15 -1 -66 -3 -18 -20 -13 -26 -17 -14 -50 -54 -64 -46 -28 -62 -53 -21 -5 -65 -68 -74 -55 -10 0
9 30 4 51 3 76 60 70 25 27 20 44 6 49 56 45 23 68 -32 -14 -34 -41 -50 -59 -10 -21 -47 -35 -29 0
50 39 51 4 65 26 55 23 44 61 7 58 25 41 32 14 28 2 1 36 11 -33 -30 -15 -27 -5 -8 -34 -62 -31 -38 -57 -63 -56 -47 -3 -35 -46 -73 -6 -67 -43 -53 -37 -18 -9 -45 -24 -12 -70 0
10 52 57 53 46 2 72 1 7 40 41 50 18 6 30 27 71 22 67 64 11 8 39 34 73 25 33 44 59 14 55 65 5 32 66 69 49 -74 -76 -48 -19 -28 -29 -63 -45 -43 -26 -38 -70 -47 -3 -60 -15 -35 -21 -13 -23 -16 -31 -56 -68 -36 -17 -4 -12 -42 -9 -58 -75 -61 -54 -24 0
51 31 59 20 30 5 18 40 6 41 27 39 12 10 63 25 50 15 21 73 28 74 -58 -67 -44 -33 -62 -45 -52 -23 -11 -64 -14 -75 -4 -13 -16 -72 -32 -1 -36 -7 -35 -9 -71 -2 -57 -60 -68 -42 -38 -26 -8 -29 0
73 51 29 19 30 16 22 -53 -74 -47 0
26 48 63 19 46 38 45 44 41 20 37 8 17 59 69 74 10 12 25 -65 -33 -68 -3 -70 -72 -51 -16 -30 -2 -23 -18 -36 -24 -53 -49 -1 -47 -60 -4 -75 -29 -27 -31 -28 -7 0
47 63 60 15 68 34 58 50 17 41 6 56 10 23 59 31 13 8 4 73 21 32 76 74 36 -38 -37 -25 -51 -72 -55 -67 -16 -69 -65 -3 -53 -62 -43 -52 -11 -57 -64 -44 -39 -24 -40 -27 -29 -70 -22 -1 0
58 20 51 37 75 26 22 43 76 66 50 73 18 42 47 12 28 29 45 46 38 11 41 34 21 -63 -6 -27 -52 -17 -64 -39 -65 -36 -62 -13 -60 -4 -15 -25 -67 -40 -69 -68 -3 -59 -19 -14 -8 -16 -24 -5 -54 -55 -61 -10 -71 0
1 35 15 28 17 14 59 64 73 4 67 11 47 32 19 24 36 25 27 12 -26 -46 -10 -68 -16 -66 -29 -62 -45 -34 -8 -53 -41 -50 -33 -13 -75 -23 -42 -63 -38 -56 -3 -31 0
27 59 32 33 17 15 24 9 38 13 35 7 55 8 58 26 49 56 -34 -4 -70 -20 -48 -53 -54 -61 -42 -45 -3 -29 -5 -60 -30 -47 -63 -66 -28 -25 -10 -71 -12 -72 -36 -41 -40 -52 -44 -65 -43 -69 -14 -74 -2 -73 -46 -39 0
22 -74 0
72 17 32 -41 0
16 8 51 28 1 32 20 24 38 4 7 61 57 3 49 64 43 41 68 48 27 66 11 75 36 65 70 50 18 74 44 15 -13 -39 -63 -29 -34 -54 -47 -21 -5 -56 -73 -59 -25 -40 -31 -72 -22 -19 -42 -67 -6 -14 -62 -17 -58 -60 0
51 49 63 38 74 44 16 40 59 69 72 13 5 19 62 68 52 34 12 66 65 28 2 43 47 48 64 1 3 31 25 14 18 23 56 45 -41 -6 -29 -42 -36 -20 -32 -30 -35 -7 -76 -75 -53 -24 -15 -46 -67 -10 -22 -57 -54 -71 -9 -55 -17 -26 -8 0
18 54 9 32 23 14 55 69 22 44 33 61 43 38 52 37 51 58 66 5 8 74 24 53 15 48 -60 -6 -64 -63 -70 -68 -47 -19 -76 -21 -65 -59 -49 -10 -42 -17 -3 -50 -40 -7 -30 -4 -16 -25 -72 -26 -31 -13 -1 -11 -67 -71 -39 0
25 73 39 74 18 37 30 10 11 67 34 54 7 51 69 2 41 31 71 59 50 46 44 58 65 27 24 -48 -55 -13 -23 -62 -3 -9 -76 -72 -57 -63 -16 -33 -68 -45 -21 -47 -22 -42 -28 -60 -17 -6 0
-53 0
2 45 52 13 61 25 27 24 16 54 11 43 42 57 17 64 29 6 9 66 30 47 -75 -49 -18 -63 -44 -37 -56 -3 -74 -22 -33 -60 -31 -71 -59 -5 -36 -38 -53 -58 -12 -62 -68 -19 -67 0
24 2 59 64 20 13 1 35 26 71 44 72 3 57 39 43 -34 -46 -40 -31 -67 -52 -50 -11 -25 -58 -73 -36 -19 -10 -42 0
14 4 9 56 -51 -63 -62 -64 0
61 12 69 9 1 75 36 76 72 -67 -4 -70 -28 -10 -20 -6 -26 -15 -17 0
27 26 35 5 50 44 51 38 4 71 58 62 12 3 54 40 16 30 32 76 25 67 23 49 11 9 15 61 48 -69 -2 -13 -68 -59 -7 -34 -1 -24 -57 -46 -72 -33 -37 -17 -45 -28 -75 -31 -36 -21 -55 -22 -10 -52 -53 -8 -65 -64 -47 -19 -63 -6 -73 -20 -29 -43 0
26 41 64 4 28 67 52 54 74 50 30 76 18 45 39 61 49 7 -33 -51 -29 -73 -48 -25 -23 -53 -59 -58 -20 -68 -65 -10 -63 -8 -12 -21 -40 -13 -5 -69 -24 -57 -3 -55 -44 -16 -22 -37 -47 0
50 1 21 55 73 63 75 37 66 35 71 48 40 38 7 20 69 52 45 64 18 46 72 -43 -30 -53 -54 -29 -12 -44 -15 -67 -3 -47 -33 -62 -31 -57 0
47 12 6 14 42 74 -52 -76 -71 -73 -26 0
2 55 20 32 49 76 18 25 65 23 48 17 51 46 30 42 34 -35 -71 -68 -64 -66 -27 -75 -8 -26 -60 -44 -53 -3 -73 0
70 74 40 59 12 31 46 51 26 37 38 39 36 71 45 25 57 4 64 29 68 5 67 63 13 3 58 48 16 52 10 50 23 30 76 56 43 -49 -54 -75 -62 -19 -34 -61 -21 -24 -32 -41 -47 -42 -73 -20 -14 -15 -11 -65 -7 -53 -66 -69 -72 -27 -60 -2 -33 -28 -22 -8 -9 0
14 72 29 56 34 67 19 25 68 22 17 5 61 41 47 12 69 15 33 16 45 9 70 46 73 20 54 35 11 58 62 51 2 27 74 21 26 6 32 76 37 49 7 42 44 71 -1 -57 -64 -28 -3 -13 -55 -38 -48 -75 -60 -52 -23 -4 -31 -39 -53 -65 -24 -59 -18 -8 -40 -30 -36 0
11 74 1 45 52 5 8 34 37 32 18 4 46 57 66 68 51 22 44 33 17 30 42 36 47 73 76 58 3 12 6 21 65 -26 -28 -61 -49 -35 -25 -19 -43 -2 -14 -24 -38 -27 -16 -7 -59 -29 -67 -9 -31 -20 -15 -70 -56 -23 -64 -39 -10 -75 -48 -69 -55 -71 -53 0
66 75 -39 -37 0
16 46 49 43 7 6 48 58 41 65 19 69 10 9 47 72 12 76 31 -30 -32 -54 -75 -55 -23 -1 -66 -26 -40 -25 -21 -3 -53 -50 -71 -2 -56 -57 -5 -20 0
53 56 37 7 41 52 3 6 66 58 18 74 73 22 69 25 39 14 38 54 47 44 33 76 23 62 40 30 46 15 57 -36 -49 -34 -67 -51 -68 -12 -9 -48 -26 -20 -17 -63 -43 -1 -42 -28 -29 -10 -5 -61 -13 0
34 62 56 25 15 73 6 66 60 43 68 72 32 57 12 18 45 49 53 35 19 16 64 75 31 33 8 11 -14 -71 -63 -39 -26 -50 -24 -10 -20 -59 -46 -36 -13 -52 -22 -23 -58 -65 -42 -28 -44 -69 -37 -5 -38 0
39 37 47 25 54 26 49 14 59 18 -50 -38 -74 -21 -61 -68 -43 -75 -34 -66 -56 -16 -33 -67 -31 0
60 37 30 51 5 16 54 28 21 13 27 47 73 3 66 8 19 24 64 15 4 62 36 56 10 39 38 7 41 58 33 17 26 63 48 76 -71 -20 -42 -68 -11 -43 -53 -12 -57 -70 -75 -1 -72 -40 -29 -32 -74 -46 -65 -2 -45 -67 -6 -25 0
52 19 26 54 53 20 66 8 55 5 35 14 67 22 12 59 33 29 76 45 31 24 30 68 13 34 39 43 74 72 3 62 25 41 71 4 -49 -11 -9 -61 -56 -1 -58 -46 -50 -7 -37 -27 -40 -57 -70 -64 -63 -47 -75 -65 -73 -44 -48 -10 -23 -38 -51 -15 -28 -21 -17 -32 -69 -60 -16 -6 -18 -36 0
65 57 59 38 11 69 61 29 23 71 50 6 36 7 8 66 67 60 21 73 68 41 70 16 58 5 18 10 33 49 34 -30 -75 -45 -39 -47 -53 -62 -1 -42 -35 -12 -43 -74 -28 -2 -32 -3 -48 -15 -24 -63 -55 -72 -40 -37 0
12 60 75 62 9 63 40 8 56 72 -19 -13 -47 -50 -4 -41 -39 -26 -22 -43 -74 -68 -64 -42 0
53 57 75 4 22 39 15 45 38 32 50 74 68 10 44 27 31 47 51 29 76 25 59 30 69 12 5 52 60 65 21 17 1 34 18 11 -26 -14 -16 -6 -33 -48 -2 -8 -62 -9 -28 -56 -13 -66 -54 -36 -67 -42 -37 -43 -46 -55 -7 -63 -70 -73 -61 -3 -40 0
7 25 51 37 18 41 44 14 66 76 15 59 54 21 -29 -3 -64 -36 -71 -63 -1 -50 -46 -40 -68 0
10 12 38 28 34 60 70 68 45 51 54 -44 -8 -9 -22 -42 -72 -48 -67 0
46 36 58 2 27 29 35 30 13 21 75 11 -73 -8 -45 -17 -39 -33 -37 -12 -61 -53 -4 -65 -32 0
13 15 6 0
67 51 37 70 5 8 26 9 -44 -2 -71 -40 -58 -7 0
1 23 75 70 42 59 18 68 44 24 3 11 58 15 57 10 12 4 60 2 38 9 -39 -49 -27 -61 -22 -69 -50 -47 -6 -53 -7 -51 -63 -72 -31 -5 -66 -65 -29 -48 -37 -19 -55 -28 -67 -13 -8 -25 -20 -54 0
8 24 69 25 59 38 18 44 56 75 48 33 -13 -73 -36 -27 -54 -26 -2 -15 -37 -51 -30 -23 -66 -41 -50 -57 0
72 19 -25 0
49 6 7 31 37 -34 -29 -54 -28 0
56 33 67 74 48 42 71 -43 -25 -72 -21 -40 -35 -37 -31 -61 0
68 24 69 34 51 61 28 1 41 12 57 5 52 33 62 32 36 60 50 2 66 30 39 44 43 71 70 -53 -67 -63 -8 -9 -42 -10 -25 -6 -7 -47 -14 -75 -65 -38 -13 -23 -49 -76 -40 -17 -46 -55 -37 -31 -16 -21 -3 -35 -15 -20 -59 -11 -18 -22 0
46 22 12 51 50 58 44 69 2 4 38 5 60 3 1 65 55 73 6 27 52 47 45 41 56 40 9 36 72 24 29 49 59 -25 -43 -7 -28 -19 -67 -32 -64 -53 -39 -13 -76 -48 -17 -23 -75 -70 -54 -63 -71 -11 -33 -37 -16 -8 -31 -57 -30 -61 -35 -10 -20 0
3 22 1 5 62 54 61 37 33 21 7 29 27 46 52 42 50 6 51 2 65 10 13 66 24 19 70 59 68 31 58 56 57 14 -8 -60 -47 -36 -9 -39 -53 -17 -25 -20 -75 -4 -28 -11 -71 -76 -45 -26 -48 -34 -35 -73 -12 -15 -40 -18 -67 -74 -55 -32 -49 -23 -16 -43 -69 -30 -41 -64 0
1 2 60 20 36 28 -32 -61 -9 -53 -47 -58 -5 -8 0
7 29 25 73 22 39 66 30 26 56 67 40 57 33 2 4 -62 -18 -46 -76 -24 -51 -43 -75 -32 -34 0
60 63 59 50 75 54 51 21 19 37 35 13 61 30 34 26 1 10 39 2 65 72 68 44 38 31 70 46 58 52 64 -32 -57 -73 -27 -56 -47 -71 -45 -7 -4 -33 -40 -41 -15 -18 -28 -29 -67 -3 -14 -48 -62 -55 -20 -69 -43 -16 -76 -22 -36 -49 -25 -8 -17 -74 -9 -42 -24 -6 -5 -12 0
8 65 72 51 36 32 46 15 4 14 58 56 35 44 50 48 75 39 69 -34 -76 -22 -19 -47 -37 -60 -1 -66 -11 -29 -31 -41 -42 0
15 57 72 13 42 46 -44 -32 -34 -20 -26 -19 0
56 19 7 29 13 69 59 30 28 61 3 -14 -10 -72 -58 -24 -33 -39 0
34 70 76 58 71 25 11 52 -28 -46 -26 -42 -74 -17 -39 -6 -31 -23 -66 -33 -4 -20 0
35 46 23 73 36 5 42 43 52 64 4 32 58 18 33 67 72 76 7 40 2 26 56 69 1 47 45 27 57 70 71 24 28 -55 -14 -20 -3 -30 -6 -38 -68 -11 -12 -9 -17 -16 -62 -34 -51 -44 -31 -49 -10 -29 -53 -25 -41 -37 -22 -39 -59 -75 -8 0
55 69 10 38 53 45 25 72 27 32 61 75 28 2 62 54 -44 -9 -7 -11 -18 -64 -43 -59 -17 -57 -34 -56 -29 -31 0
22 -26 -15 -70 -10 -45 0
58 1 16 24 57 70 -26 -72 -74 0
26 3 72 5 24 7 9 58 38 61 68 31 69 39 30 75 34 66 70 13 23 22 51 35 40 25 62 50 12 -53 -21 -47 -4 -59 -41 -14 -36 -63 -17 -20 -73 -6 -33 -76 -45 -29 -46 -56 -60 -28 -10 -49 -48 -57 -18 -27 -11 -71 -64 -55 -44 -1 0
3 10 62 1 41 64 74 37 26 43 55 48 32 31 15 71 72 18 70 73 33 -24 -14 -45 -69 -19 -34 -68 -61 -65 -23 -39 -20 -47 -56 -21 -35 -4 -38 -2 -76 0
70 11 47 48 50 69 20 29 -41 -28 -23 -15 -25 -73 -27 -44 -3 -58 0
56 19 36 11 4 57 24 51 45 52 63 67 59 30 49 22 58 6 66 9 27 40 53 46 -29 -20 -10 -62 -31 -18 -14 -42 -17 -26 -8 -28 -15 -70 -3 -64 -76 -72 -16 0
31 74 51 52 39 46 8 29 64 30 56 70 33 38 49 68 12 6 69 23 22 62 14 58 9 34 25 35 37 55 17 45 53 60 15 73 -63 -32 -40 -4 -19 -66 -50 -10 -26 -75 -7 -13 -65 -16 -18 -67 -5 -61 -1 -21 -71 -3 -48 -27 0
9 67 32 14 75 1 58 47 4 17 23 7 50 65 72 -42 -49 -31 -70 -61 -62 -64 -56 0
52 7 30 76 12 23 69 3 16 56 14 51 57 46 19 13 43 67 5 71 55 18 15 2 10 25 66 33 32 58 -34 -73 -31 -50 -22 -35 -68 -60 -54 -45 -75 -26 -29 -11 -21 -9 -63 -38 -8 -37 -74 -47 -6 -41 -44 -65 -17 -59 -42 -36 -20 -27 -4 -48 -64 -61 -1 -40 0
42 72 34 73 24 16 57 39 30 44 69 63 76 61 32 12 18 64 5 74 28 36 33 22 -38 -60 -13 -45 -27 -11 -48 -9 -75 -49 -51 -26 -66 -37 -14 -65 -7 -47 -15 -70 -71 -23 -46 -50 -17 0
17 63 47 66 74 75 30 2 25 13 57 64 70 54 59 51 69 31 21 23 3 14 76 22 26 48 8 9 37 -62 -36 -65 -44 -28 -7 -38 -18 -12 -39 -49 -19 -5 -58 -35 -61 -43 -29 -16 -45 -53 -24 -33 -6 -73 -72 -10 -32 -56 -68 -55 -50 -15 -52 -71 -34 -11 -1 -4 -27 -60 0
5 -70 -75 0
46 47 22 -56 0
26 16 61 74 43 24 63 -21 -54 -13 -8 0
71 62 33 20 38 64 16 53 26 36 25 7 67 56 35 4 50 32 9 42 57 68 40 59 15 52 14 73 30 72 63 75 -74 -55 -60 -58 -12 -22 -34 -45 -44 -27 -48 -39 -61 -31 -70 -37 -76 -8 -29 -49 -21 -24 -54 -3 -5 0
32 22 12 3 13 5 -63 -25 -46 -72 -8 -54 -55 0
59 17 31 9 40 11 2 52 16 44 -68 -35 -25 -48 -58 -39 -75 -5 -46 -10 -64 -67 -61 0
38 45 25 11 14 42 65 24 26 43 16 41 48 15 66 28 57 67 40 3 12 13 18 56 75 31 53 17 71 72 58 -20 -1 -49 -23 -10 -4 -63 -73 -29 -69 -61 -55 -6 -64 -59 -44 -39 -46 -36 -5 -34 -21 -33 -8 -30 -68 -22 -37 -19 -27 -60 -50 -76 -70 -47 -54 0
12 45 8 13 67 70 54 58 51 64 24 7 39 32 28 41 11 57 29 73 62 48 71 27 36 25 75 9 16 1 -56 -22 -19 -47 -63 -55 -33 -23 -37 -38 -60 -59 -34 -68 -49 -66 -10 -3 -18 -76 -61 -65 -4 -17 -15 -53 -42 -26 0
13 24 58 -8 -19 0
23 26 14 31 35 43 62 58 40 9 7 51 53 19 61 38 74 20 65 59 34 48 12 64 67 4 -24 -27 -63 -3 -49 -41 -73 -17 -13 -46 -60 -10 -72 -68 -44 -71 -56 -55 -32 -50 -28 -57 -42 -54 -18 -69 -11 0
6 25 53 72 51 75 66 22 31 65 40 13 36 41 7 16 74 34 70 62 44 1 17 2 52 27 39 33 26 23 59 32 -48 -69 -49 -64 -73 -67 -60 -37 -21 -30 -19 -35 -12 -29 -43 -45 -14 -24 -55 -46 -71 -28 -63 -9 -58 -10 -76 -18 -61 -5 -11 -47 -38 0
74 61 52 66 59 34 64 53 -27 -40 -41 -13 -15 -47 -39 -28 -1 -49 0
51 59 54 75 1 50 70 73 12 5 15 28 4 23 45 29 46 34 33 24 66 61 -65 -10 -16 -55 -32 -62 -26 -20 -2 -18 -31 -9 -7 -3 -69 -21 -25 -30 -72 -57 0
29 70 75 28 49 24 72 50 -37 -9 -69 -7 -65 -39 0
73 40 14 47 22 56 58 63 59 38 70 36 27 29 69 30 51 16 66 33 45 55 -4 -5 -11 -31 -43 -20 -67 -76 -71 -7 -62 -64 -10 -65 -28 -44 -75 -2 -50 -39 -46 -57 -19 -53 -24 -74 0
32 25 17 27 30 50 48 9 58 31 75 1 11 43 47 65 6 60 64 36 67 66 39 15 62 71 37 20 26 -53 -59 -69 -41 -49 -23 -45 -14 -56 -52 -10 -72 -33 -51 -13 -12 -28 -7 -70 -57 -68 -74 -54 -21 -55 -35 -29 -8 -44 -18 0
69 40 70 24 68 19 65 32 16 3 11 13 37 64 67 12 8 56 15 60 54 1 62 76 59 74 4 25 45 58 14 73 44 20 9 -41 -34 -52 -5 -63 -71 -57 -21 -46 -17 -6 -53 -55 -26 -22 -51 -10 -47 -43 -66 -72 -61 -50 -75 -49 -38 -48 -28 -39 -23 -29 -35 -42 -36 -30 -27 -18 -2 0
35 41 27 37 20 31 24 51 1 40 44 -47 -14 -72 -8 0
5 19 73 23 60 26 10 43 7 -14 -11 -33 0
47 48 71 68 27 25 17 36 16 18 1 26 13 5 58 37 69 6 4 52 66 40 44 29 67 7 41 76 59 11 34 39 74 10 -57 -63 -55 -8 -2 -70 -33 -38 -3 -73 -51 -30 -15 -49 -72 -46 -35 -60 -24 -42 -22 -43 -54 -64 -50 -56 -12 -31 -28 -20 -23 -21 0
71 72 16 20 52 11 56 51 29 45 66 -27 -3 -65 -42 -44 -41 -36 -6 -9 -26 -70 -31 -73 -8 -28 -68 -23 -74 -60 0
7 30 26 4 28 48 25 3 17 36 73 31 64 23 33 18 63 -43 -60 -54 -6 -50 -37 -35 -9 -34 -76 -1 0
70 -27 -21 -11 -14 -48 0
