c NeuroCodeBench 2.0 CNF formula with verdict Sat
p cnf 81 649
59 29 6 11 20 32 65 10 39 4 24 27 8 43 55 14 26 44 21 15 51 33 50 41 19 69 35 45 76 81 53 9 57 22 58 -48 -46 -25 -52 -3 -79 -77 -63 -7 -70 -56 -1 -16 -38 -71 -2 -12 -64 -54 -68 -49 -37 -36 -61 -60 -66 -18 -67 -23 -13 -73 -75 -40 -47 -5 -30 0
81 20 21 51 63 26 74 47 32 30 12 10 64 67 50 6 38 62 37 2 42 33 44 11 34 76 65 70 8 36 -1 -80 -75 -57 -41 -49 -24 -56 -53 -15 -66 -68 -52 -40 -55 -77 -46 -69 -39 -58 -23 -14 -72 -28 -16 -29 -54 -45 0
75 1 52 43 65 64 25 9 73 27 58 12 28 60 41 23 57 33 21 51 15 62 72 17 46 13 18 3 24 78 39 53 50 61 20 19 16 22 29 48 80 -26 -77 -54 -70 -6 -34 -14 -59 -81 -49 -11 -68 -36 -30 -56 -7 -76 -63 -4 -74 -8 -45 -35 -71 -42 -47 -38 -31 -79 -44 -10 -40 -66 -37 -32 -5 -69 -2 0
32 26 66 11 49 55 53 2 1 8 40 36 25 57 60 39 61 81 35 12 70 20 -42 -37 -59 -24 -15 -80 -21 -54 -5 -48 -38 -58 -4 -67 -65 -30 -33 -6 -16 0
55 35 74 51 76 -79 -47 -36 -48 -15 -31 -22 -44 0
5 16 79 31 23 17 27 65 77 -71 -11 -60 -62 -73 -47 -54 -9 -44 -22 -58 -51 -12 -80 0
64 50 27 61 2 57 81 52 33 77 80 4 41 55 35 3 20 73 65 24 78 54 69 63 67 37 40 62 76 11 14 32 25 12 -34 -9 -60 -29 -8 -51 -15 -66 -36 -18 -44 -21 -49 -79 -71 -75 -13 -42 -74 -43 -23 -47 -56 -1 -48 -38 -7 -59 -70 -17 -19 -10 -58 -6 0
81 33 47 62 44 76 18 79 3 24 54 4 2 21 22 5 38 63 25 50 56 27 -70 -16 -78 -39 -30 -66 -6 -17 -12 -20 -51 -69 -7 -34 -9 -67 -8 -74 -43 -57 -68 -15 -10 -53 -14 -28 0
13 41 32 61 74 42 30 78 7 69 50 70 11 53 63 39 -17 -28 -40 -54 -21 -76 -57 -38 -4 -48 -55 -10 -80 -6 0
21 46 0
26 70 19 21 64 -35 -10 -33 -9 -16 -48 -79 -56 -13 0
65 17 44 7 72 27 30 6 8 53 21 37 81 78 70 19 2 5 50 4 -61 -26 -69 -24 -74 -77 -36 -47 -11 -46 -76 -56 -31 -33 -79 -60 -14 -25 -34 -16 -12 -35 -45 0
41 81 48 9 31 44 36 10 61 -53 -19 -14 0
39 32 -67 -21 -23 -71 -75 -59 -58 -34 0
65 58 25 44 72 41 75 18 30 73 3 22 54 59 63 2 31 37 78 42 7 -80 -29 -56 -16 -23 -46 -27 -32 -57 -49 -36 -24 -74 -28 -11 -9 -61 -38 -5 -20 0
78 71 76 66 47 31 73 1 24 11 48 46 12 74 15 36 51 7 50 34 75 42 21 77 18 29 38 54 58 14 19 63 40 2 5 43 6 23 -80 -60 -61 -39 -26 -25 -22 -30 -10 -62 -49 -70 -57 -53 -37 -35 -16 -13 -52 -4 -27 -20 -32 -69 -55 -45 -59 -17 -8 -81 -56 -28 -44 0
7 23 4 1 74 12 42 -10 -68 -21 0
28 60 74 24 16 32 56 42 6 55 59 14 27 65 63 77 44 73 8 20 75 33 -57 -58 -70 -62 -68 -2 -81 -80 -12 -9 -10 -30 -67 -5 -64 -21 -17 -36 0
72 4 73 33 48 35 7 76 8 57 36 42 63 -20 -52 -70 -50 -64 -27 -53 -80 -40 -43 -81 -37 -46 -74 0
38 34 21 73 8 63 16 7 61 75 39 37 2 28 66 5 35 59 4 77 69 46 64 36 12 -62 -27 -74 -65 -40 -68 -60 -25 -51 -81 -30 -54 -32 -11 -78 -45 -18 -55 -42 -56 -29 -44 -24 -58 -17 -26 -15 -31 -43 -67 -33 -9 -80 -23 -14 0
37 68 49 39 77 3 61 5 72 10 80 18 19 24 38 35 59 9 41 78 64 32 16 -69 -47 -12 -13 -62 -75 -26 -74 -51 -50 -60 -29 -25 -33 -46 -71 -79 -42 -65 0
5 72 21 10 74 22 57 71 43 25 27 -4 -54 -73 -62 -40 -6 -69 -11 0
65 69 54 8 20 70 28 3 11 25 55 61 1 32 78 14 23 31 4 5 21 62 74 19 36 51 52 18 34 57 29 63 -16 -75 -49 -48 -50 -39 -53 -24 -58 -68 -40 -30 -72 -41 -15 -33 -13 -60 -76 -67 -12 -45 -64 -77 -47 -59 -46 -7 -80 0
2 14 47 30 7 44 8 20 27 37 67 -39 -65 -31 -17 -5 -62 -35 -58 -6 -28 -50 -33 -15 -56 0
15 22 40 23 78 1 55 34 17 18 72 56 67 39 63 71 11 79 66 29 65 13 30 53 6 59 31 64 28 20 52 47 -36 -32 -54 -45 -19 -50 -60 -33 -48 -4 -21 -24 -74 -77 -37 -16 -81 -69 -44 -2 -43 -3 -12 -57 -10 -26 -46 -58 -62 -9 0
22 26 46 59 76 19 74 1 20 3 66 65 31 28 39 68 78 70 67 21 37 8 71 73 48 72 9 41 2 16 35 27 63 17 32 47 15 7 64 29 81 12 60 18 23 11 25 49 -13 -6 -33 -38 -34 -62 -55 -40 -56 -80 -14 -52 -10 -54 -61 -51 -69 -57 -79 -36 -53 -50 -75 -4 -77 -24 -45 -44 -30 -5 -42 0
46 64 43 2 10 78 11 50 39 41 76 5 77 25 18 15 44 38 65 30 -81 -72 -47 -68 -80 -45 -28 -61 -55 -24 -69 -62 -60 -13 -7 -58 -23 0
69 76 14 66 22 65 80 44 35 49 57 4 79 9 33 32 68 12 3 28 21 45 70 54 67 20 71 61 41 31 11 52 1 2 34 59 24 7 72 46 51 62 50 -53 -40 -78 -23 -13 -47 -19 -26 -64 -81 -36 -15 -48 -39 -63 -73 -29 -18 -58 -37 -6 -77 -56 -17 -38 -42 -43 -55 -75 -5 -60 -25 -74 -10 -16 -8 -30 0
45 58 31 23 36 44 54 2 28 53 49 29 77 51 43 76 75 60 27 7 65 57 17 9 42 -41 -67 -25 -78 -46 -14 -62 -39 -6 -20 -68 -81 -72 -10 0
44 -21 -43 -8 0
29 64 8 27 24 39 52 5 33 73 75 56 9 80 10 81 60 40 20 59 1 2 62 50 34 58 -22 -79 -37 -30 -47 -31 -32 -6 -45 -18 -26 -12 -16 -3 -61 -19 -15 -36 -38 -63 -76 -78 -35 -46 -69 -57 -13 -14 -17 -55 -67 -21 -74 -77 -48 -7 -41 -71 -28 -53 0
76 13 5 31 14 47 39 11 22 53 34 58 46 4 15 68 20 66 45 1 35 -6 -72 -12 -80 -48 -67 -30 -3 -28 -56 -17 -71 -63 -51 -54 -74 -36 -50 -9 -49 -55 0
60 15 27 66 2 9 68 63 38 19 26 11 56 7 21 17 8 32 34 3 57 46 1 16 33 61 70 30 28 41 59 65 64 78 4 6 45 40 55 76 -62 -13 -81 -58 -74 -54 -39 -5 -18 -42 -67 -80 -51 -43 -47 -50 -12 -36 -29 -23 -37 -77 -75 -44 -71 -53 -14 -69 -24 -79 -22 -72 -25 -35 -31 -52 -73 -49 -48 0
45 30 75 3 27 53 42 77 -21 -4 -31 -43 -16 -81 -19 0
38 57 52 73 47 19 71 2 69 42 20 25 8 78 14 21 54 74 36 15 17 41 29 75 56 28 44 77 81 76 63 3 18 16 67 40 32 11 70 53 61 37 34 30 -60 -50 -35 -49 -6 -46 -9 -68 -55 -5 -13 -22 -64 -24 -80 -23 -4 -43 -7 -65 -26 -33 -39 -66 -1 -72 -51 -45 -58 -59 -12 -10 -62 -79 -27 -31 0
13 8 17 29 44 31 33 72 12 -26 -38 -39 -61 0
34 47 70 53 71 62 5 7 61 67 40 16 59 18 15 10 43 42 12 49 9 29 38 23 -80 -74 -56 -1 -77 -57 -66 -51 -58 -69 -11 -14 -13 -73 -45 -55 -65 -24 -28 -60 -3 -27 -78 -37 -30 -44 -76 -4 -35 0
75 66 18 50 28 38 8 69 21 71 36 79 12 45 19 63 -72 -9 -78 -3 -51 -76 -4 -74 -25 -29 -46 -40 -10 -44 -53 -30 -67 -48 0
17 5 37 62 15 33 42 10 30 -53 -52 -27 -70 -8 -9 -22 -11 -4 0
1 72 5 63 79 10 28 38 -35 -14 -40 0
2 76 4 78 53 75 33 51 65 48 34 26 60 67 42 46 47 80 58 24 64 28 55 54 43 16 -15 -45 -68 -71 -61 -27 -22 -35 -59 -77 -32 -38 -5 -19 -6 -56 -20 -10 -69 0
36 4 65 18 51 47 14 58 80 64 3 7 -42 -20 -46 -50 -15 -71 -37 -73 -52 -30 -27 -59 0
74 1 49 42 25 61 66 34 32 68 76 9 77 17 36 51 45 73 48 58 63 19 4 41 44 14 5 54 38 20 39 2 79 -62 -24 -69 -65 -80 -50 -59 -22 -6 -70 -7 -18 -29 -64 -30 -71 -81 -56 -55 -28 -35 -43 -60 -11 -57 -13 -26 -47 -72 -67 -27 -75 0
42 80 17 19 60 -66 -23 -37 -21 -14 0
76 9 55 49 20 56 53 73 59 15 23 58 60 42 77 35 1 47 7 81 12 79 2 17 65 4 -41 -11 -5 -26 -71 -13 -8 -45 -66 -27 -3 -6 -46 -21 -52 -18 -78 -36 -51 -31 -62 -32 -24 -80 -37 -48 -16 0
30 53 15 56 19 39 -22 -10 -74 -60 -38 -45 -9 -28 -40 -80 -27 -1 0
15 81 9 45 21 28 31 79 69 57 12 46 47 10 38 74 52 48 40 23 11 66 65 1 18 55 62 -25 -68 -58 -80 -70 -30 -26 -34 -41 -27 -44 -64 -60 -14 -50 -75 -51 -4 -43 -67 -8 -7 -13 -33 -6 -54 -36 -77 -78 -3 -53 -73 -16 -72 -56 -22 -19 -63 -42 -17 0
47 53 38 16 39 1 59 51 14 45 32 12 42 72 61 46 64 66 33 29 -78 -41 -77 -81 -75 -58 -19 -50 -57 -43 -28 -13 -69 -76 -74 0
27 45 63 3 58 33 41 79 54 23 66 1 7 40 67 16 35 37 2 51 80 12 55 57 81 74 50 38 10 8 47 26 65 59 -4 -9 -61 -44 -6 -31 -30 -68 -17 -49 -32 -71 -36 -52 -43 -25 -53 -78 -64 -77 -76 -62 -22 -20 -28 -60 -75 -70 -48 -18 -5 -15 -24 0
37 69 33 78 70 53 40 13 62 14 64 55 61 -43 -2 -18 -9 -17 -73 -56 -5 -59 -41 -1 0
46 37 72 75 80 67 55 30 33 16 35 81 13 31 45 60 12 38 -41 -69 -52 -17 -57 -34 -18 -26 -64 -6 -65 -23 -47 -62 -2 -42 -54 0
81 35 18 17 6 2 31 64 70 68 73 24 27 79 67 23 69 74 56 72 57 78 -47 -25 -8 -60 -39 -29 -28 -16 -53 -66 -46 -32 -54 -36 -43 -41 -19 -9 -40 -37 -55 -49 -3 -7 -77 0
28 27 56 38 25 5 34 16 63 69 23 24 3 20 41 45 64 12 -14 -81 -17 -6 -4 -39 -67 -42 -43 -79 -78 -75 -80 -36 -10 -44 -26 -52 -72 -60 -22 -48 -58 0
1 54 17 73 79 50 16 46 40 12 63 11 38 39 6 77 67 65 56 74 72 35 36 70 4 75 61 66 13 15 64 2 28 42 43 60 25 53 48 68 -69 -37 -78 -41 -9 -81 -52 -14 -32 -34 -33 -55 -59 -3 -27 -5 -45 -19 -18 -58 -23 -62 -7 -29 -49 -26 -24 -80 -8 -22 -44 -51 -31 -71 -20 -76 0
25 15 58 22 12 47 38 34 51 31 73 42 79 60 77 33 20 56 11 13 71 72 61 19 18 54 62 44 66 4 81 43 52 5 32 59 29 27 -76 -63 -23 -48 -65 -2 -68 -8 -39 -16 -21 -28 -30 -24 -3 -7 -9 -26 -46 -41 -45 -78 -35 -6 -75 -74 -36 -55 -70 -57 -67 -69 -64 -49 -14 -53 -17 -40 -80 -1 0
60 42 27 53 51 6 50 36 7 37 -35 -13 -20 -19 -4 -65 -68 -31 0
78 13 9 2 20 53 55 41 80 75 -30 -81 -38 -62 -60 -47 -48 -73 0
42 2 51 20 55 66 15 43 23 71 79 13 63 68 72 29 53 4 40 46 1 49 78 -39 -3 -75 -37 -69 -57 -47 -48 -50 -56 -14 -25 -64 -44 -76 -28 -36 -32 -12 -33 -5 -67 -41 -27 -52 -16 -45 -19 -17 -81 -58 -60 -9 -26 -21 -11 -65 -59 -73 0
69 11 7 45 77 42 15 38 28 71 34 -47 -27 -35 -36 -76 -31 -78 -23 -59 -14 -26 -67 -62 -81 -50 -63 -60 0
67 21 31 77 63 76 46 22 81 68 70 72 15 75 44 59 16 39 60 78 12 38 32 3 50 62 11 27 -4 -66 -61 -47 -54 -29 -43 -19 -73 -24 -36 -74 -79 -18 -51 -55 -8 -5 -40 -25 -65 -30 -14 0
29 26 44 69 58 4 52 -46 -33 -71 -13 -53 -45 -40 0
70 45 39 61 50 29 52 -43 -22 -37 -42 -21 -32 -7 -66 -47 0
45 65 10 66 9 73 63 42 34 23 51 25 43 3 31 52 68 70 44 2 61 20 76 12 7 39 14 80 4 64 69 38 19 81 49 54 46 -55 -59 -40 -62 -79 -1 -32 -58 -13 -21 -24 -74 -60 -6 -71 -50 -8 -72 -26 -18 -37 -29 -75 -36 -78 -16 -17 -5 -27 -41 -28 -30 -56 -77 -57 -67 -48 -15 -22 -53 0
48 74 52 19 67 72 80 17 73 21 46 57 51 35 18 47 70 24 78 13 66 2 8 64 58 25 5 3 11 -45 -75 -76 -71 -38 -53 -42 -81 -26 -30 -15 -4 -36 -1 -40 -9 -69 -50 -79 -41 -39 -33 -27 -32 -59 -60 -55 -44 -65 -22 -6 -37 -28 -12 -31 0
41 71 24 29 21 40 4 61 31 45 22 38 16 63 35 14 44 76 52 46 78 15 7 8 23 62 6 19 36 33 74 64 67 70 2 53 42 77 39 37 51 69 59 -32 -11 -81 -55 -43 -79 -50 -10 -3 -58 -80 -18 -60 -34 -57 -9 -17 -13 -27 -56 -1 -5 -75 -47 -25 -49 -65 -30 -72 -48 -26 -68 -73 -12 -66 -20 0
39 68 13 60 10 38 24 78 55 58 53 57 67 4 70 46 45 6 20 5 52 74 35 11 27 71 30 75 -19 -51 -66 -1 -2 -72 -36 -17 -22 -79 -80 -63 -73 -37 -76 -25 -41 -50 -69 -28 -44 -65 -62 -81 -9 -56 -59 0
40 74 58 28 7 80 34 69 38 4 27 11 17 1 73 25 61 24 46 37 9 21 68 47 26 57 56 65 71 52 60 49 18 59 62 51 66 36 64 48 -29 -79 -19 -41 -14 -3 -6 -31 -72 -77 -22 -53 -16 -50 -30 -5 -20 -67 -35 -43 -76 -81 -13 -78 -70 -32 -75 -2 -12 -33 -42 -8 -54 -10 -55 -44 -23 -45 0
54 63 44 41 6 45 10 43 9 79 77 38 65 11 5 24 18 40 29 19 -33 -62 -34 -51 -28 -71 -60 -48 -2 -73 -68 -35 -25 -22 -76 -23 -78 -66 -16 0
68 49 64 65 72 37 39 29 51 30 34 16 24 77 58 56 38 78 18 33 53 71 79 7 46 45 50 41 36 74 15 81 60 20 25 -8 -48 -28 -80 -4 -59 -44 -9 -26 -21 -11 -62 -6 -40 -3 -1 -47 -66 -75 -22 -43 -27 -42 -31 -2 -32 0
59 66 42 28 44 4 48 22 18 2 24 36 17 -41 -16 -6 -12 -19 -58 -29 -45 -3 -10 -54 -32 -26 -53 -40 -7 -81 -33 0
81 69 29 19 68 33 20 45 25 43 73 27 63 11 42 -66 -4 -70 -78 -74 -49 -58 -32 -41 -18 -17 -53 -31 -46 -16 0
33 53 78 70 8 66 69 62 64 17 79 9 72 16 20 76 34 25 44 68 22 36 45 48 58 28 43 55 81 4 65 56 80 -54 -1 -51 -26 -11 -71 -5 -39 -15 -23 -52 -47 -74 -57 -38 -10 -12 -73 -19 -14 -27 -7 -40 -32 -35 -75 0
29 75 65 70 40 71 7 3 13 52 34 49 10 67 35 76 77 -73 -26 -15 -38 -2 -55 -8 -42 -58 -61 -59 -81 -53 -4 -12 -9 -37 -17 0
41 18 29 3 51 13 78 46 66 42 21 8 63 64 47 14 11 77 -23 -43 -54 -26 -57 -72 -71 -59 -62 -2 -68 -45 -55 -35 -69 -44 -5 -76 -24 -80 -40 -25 -4 -58 0
32 12 36 -40 -26 -70 -33 -52 0
24 25 60 22 40 -37 -46 0
31 81 46 32 50 79 72 38 67 5 34 23 4 57 77 11 78 63 12 69 9 73 56 15 22 74 71 65 60 8 13 36 1 47 24 45 49 40 55 80 -33 -53 -51 -25 -26 -48 -39 -59 -7 -66 -64 -44 -28 -76 -20 -68 -41 -58 -21 -16 -30 -29 -61 -62 -2 -52 -17 -3 -35 -27 -19 -54 -42 0
16 56 49 6 69 67 8 47 45 33 44 79 41 18 20 2 72 64 70 58 46 9 81 1 65 50 73 26 74 5 15 62 34 38 7 21 32 4 -10 -40 -71 -31 -12 -19 -11 -25 -76 -39 -29 -17 -53 -57 -59 -36 -55 -43 -23 -35 -61 -52 -13 -30 -22 -3 -24 -51 -48 -60 -77 -75 -80 -14 -78 -37 -54 -27 0
5 26 43 50 53 42 3 -63 -62 -30 -78 -33 -56 -39 -52 -67 -25 -70 -9 -80 -8 -36 -79 -31 0
49 11 27 45 53 22 76 74 12 65 34 7 37 56 35 30 64 41 9 62 5 59 8 67 39 1 63 47 2 66 79 13 73 10 -26 -19 -14 -50 -44 -71 -28 -58 -15 -6 -24 -81 -80 -25 -55 -61 -72 -42 -75 -78 -20 -23 -18 -69 -32 -21 -52 -16 -77 -43 -38 -40 -36 -17 -70 -46 0
3 6 47 74 10 24 51 28 7 -37 -45 -65 -72 -5 -68 -21 -30 -55 -1 -71 -16 -4 0
8 19 40 80 2 31 72 -35 -66 -56 -51 -5 -17 -48 -53 -21 -65 0
30 -36 -7 0
-1 0
10 39 76 62 79 17 50 25 8 59 60 65 70 2 80 77 11 48 -4 -43 -6 -26 -45 -12 -37 -57 -20 -1 -24 -55 -61 -13 -38 -46 -81 -52 0
52 78 15 62 56 5 30 53 37 8 36 60 68 32 14 49 67 11 39 42 28 6 72 17 -70 -79 -13 -47 -51 -2 -1 -31 -80 -69 -29 -16 -44 -22 -81 -55 -24 -57 -75 -61 -3 -64 -10 -65 0
69 32 61 67 30 25 -14 -50 -21 -6 -68 -31 -34 -26 -15 -37 -40 0
15 22 41 29 67 14 55 50 46 61 39 66 33 40 30 56 38 60 73 53 34 52 28 13 68 21 26 17 44 1 45 74 78 12 -24 -64 -32 -65 -77 -37 -19 -43 -58 -70 -36 -76 -7 -59 -27 -6 -2 -9 -47 -8 -11 -18 -42 -71 -20 -54 -3 -81 -16 0
11 1 66 44 28 38 77 73 19 30 14 53 12 6 18 81 22 17 26 -23 -74 -49 -25 -21 -56 -9 -31 -40 -79 -78 -37 -36 -32 -48 -60 -3 -69 -45 -70 -50 -24 -64 -61 -10 0
42 35 75 30 33 1 81 36 29 74 49 56 5 76 60 55 73 32 10 78 23 44 4 24 40 -18 -61 -19 -6 -68 -8 -2 -14 -31 -62 -9 -54 -39 -22 -57 -59 -41 -52 -12 -26 -45 0
57 31 73 50 24 38 53 11 47 39 72 80 63 8 22 71 16 -35 -33 -1 -9 -44 -14 -59 -58 -21 -66 -64 -60 -54 -49 -25 -76 -29 -68 -28 -45 -52 -23 -32 -74 -69 -65 -26 -7 -77 -4 -41 -19 -18 -43 -75 0
41 72 39 22 60 74 17 16 7 56 61 40 31 52 77 37 38 55 28 54 12 4 -53 -30 -79 -73 -11 -33 -26 -62 -1 -21 -5 -32 -78 -42 -76 -2 -20 -43 -70 -45 0
63 39 71 1 26 13 27 19 40 42 3 20 54 33 43 18 79 36 12 4 -31 -60 -68 -53 -6 -11 -72 -24 -48 -22 -56 -62 -57 -21 -17 -44 -7 -81 -9 -74 -47 0
60 56 21 48 69 71 46 1 47 65 -57 -33 -76 -79 -38 -49 -22 -53 -75 -32 -12 -52 -24 -18 -70 -62 0
36 61 22 63 5 64 18 39 66 59 26 55 35 -68 -71 -52 -67 -23 -40 -50 -57 -75 -4 -65 -29 0
52 59 77 76 4 36 -78 -40 -42 -65 -10 -56 -49 0
4 22 26 49 66 81 -9 -34 -71 -23 -17 -14 -31 -69 -32 -77 -18 -40 -30 -79 0
42 66 32 1 7 48 63 23 81 52 44 45 38 76 30 13 55 -51 -19 -59 -15 -53 -78 -22 -61 -67 -75 -39 -9 -16 -57 -65 -41 -8 -40 -11 -20 -14 -69 -6 -2 -60 -35 -4 -17 0
57 48 27 76 40 70 4 63 41 51 61 6 42 33 9 10 78 13 11 5 19 3 72 49 -30 -12 -25 -38 -2 -74 -36 -23 -54 -64 -52 -39 -1 -24 -60 -26 -66 -22 -56 -28 -17 -62 0
65 51 64 75 76 7 73 12 74 35 42 5 48 11 62 77 68 20 29 63 53 16 34 14 1 49 8 78 70 52 72 17 21 46 37 71 67 55 50 9 -79 -59 -15 -3 -66 -13 -69 -61 -6 -28 -39 -31 -54 -47 -36 -26 -25 -2 -30 -57 -19 -43 -81 -56 -24 -27 -22 -23 -45 -44 -60 -41 -40 -32 -38 -80 0
48 39 52 46 62 79 65 81 64 23 21 -16 -37 -4 -22 -35 -36 -44 -10 -13 -71 0
72 41 56 68 16 34 70 20 69 60 57 3 76 36 5 9 4 7 15 24 55 52 38 -26 -14 -54 -49 -8 -19 -27 -23 -53 -21 -18 -50 -33 -32 -71 -25 -1 -10 -31 0
8 59 32 41 65 68 30 42 66 13 43 55 64 47 10 49 48 80 2 26 52 -40 -35 -27 -69 -23 -60 -21 -81 -1 -50 -51 -7 -5 -18 -76 -54 -15 -45 -53 -61 -63 -22 -4 -14 -46 0
44 34 11 16 42 64 77 73 70 3 22 80 58 5 61 60 38 28 66 17 1 76 13 27 40 52 75 9 8 45 71 29 30 2 59 63 50 21 79 35 36 -49 -53 -31 -55 -4 -74 -81 -46 -78 -10 -18 -67 -43 -6 -12 -7 -23 -25 -56 -20 -65 -32 0
1 54 39 55 47 49 28 20 78 76 59 79 81 72 51 2 15 33 41 56 12 67 75 45 46 18 61 22 25 6 69 50 27 19 71 24 3 13 64 -62 -5 -38 -9 -53 -66 -43 -42 -80 -40 -26 -37 -16 -77 -58 -17 -32 -57 -29 -14 -11 -30 -73 -70 -35 -60 -48 -4 -63 -10 -44 -68 -7 -8 -65 0
41 39 46 55 64 2 44 7 32 -45 -72 -12 -73 -30 -49 -54 -51 -6 -25 -81 -22 -5 -61 -36 0
12 2 63 74 50 64 37 56 42 15 44 51 13 39 45 33 4 79 7 3 36 6 11 25 31 27 14 43 30 59 16 66 72 49 68 1 26 80 18 35 8 65 48 9 60 76 81 46 -52 -29 -10 -62 -20 -19 -32 -21 -77 -38 -75 -17 -55 -69 -73 -71 -57 -53 -22 -67 -5 -34 -78 -70 -24 -28 -23 -41 -58 0
77 76 28 12 53 43 2 71 49 58 44 30 41 -10 -61 -9 -54 -23 -57 -22 -65 -63 -36 -67 -70 -24 -17 0
52 40 26 37 39 29 19 57 1 48 47 32 76 53 59 34 67 3 5 44 24 69 20 31 55 66 71 68 70 12 56 74 17 58 25 38 21 33 28 72 43 35 14 75 65 -18 -79 -6 -64 -13 -50 -9 -16 -46 -51 -77 -62 -61 -15 -23 -30 -54 -42 -45 -2 -81 -78 -49 -8 -10 -7 -11 -36 -60 -63 -22 -80 -41 -4 0
81 6 -76 -50 -27 -48 -3 -59 -35 -66 -77 -69 -80 0
72 17 42 45 49 18 66 15 77 24 29 58 34 51 23 20 48 79 41 14 54 9 50 7 32 52 4 10 37 25 -21 -64 -6 -53 -73 -62 -76 -75 -57 -22 -70 -38 -59 -5 -67 -40 -1 -68 -3 -19 -81 -11 -44 -35 -36 -65 -69 -26 -78 -27 -39 0
35 25 16 53 30 77 32 79 40 14 3 7 57 29 41 50 21 74 -8 -13 -60 -1 -69 -26 -61 -42 -15 -55 -67 -39 -27 -52 -49 -46 -12 -11 -72 -5 0
65 74 75 62 30 25 60 72 27 40 17 -20 -14 -67 -5 0
2 48 67 74 55 80 39 -34 -19 -33 -47 -69 -15 -35 -60 -66 -27 0
18 81 21 32 54 22 59 80 7 43 66 52 1 63 2 17 12 55 23 26 37 -34 -71 -15 -62 -16 -48 -53 -64 -75 -24 -72 -69 -44 -57 -73 -46 0
62 12 76 53 45 61 43 18 46 7 80 31 78 -34 -79 -57 -35 -54 -67 -3 -75 -19 -24 -36 -8 0
77 20 37 48 24 15 12 64 1 11 61 42 55 30 32 17 39 67 26 29 52 34 4 8 50 -57 -65 -66 -72 -6 -25 -70 -5 -46 -22 -40 -2 -41 -73 -62 -7 -36 -76 -38 -43 -45 -79 -69 -21 -35 0
42 62 11 25 29 17 57 41 51 18 67 16 26 80 58 43 46 55 54 59 9 52 48 28 21 34 79 30 77 50 72 75 71 3 63 12 4 39 38 8 7 23 61 73 68 37 65 -27 -56 -13 -1 -33 -31 -76 -74 -22 -6 -14 -45 -66 -64 -2 -24 -44 -69 -53 -20 -60 -49 -10 -40 -32 -19 -78 -47 -15 -70 -35 -36 -81 0
79 57 16 64 52 6 27 69 21 19 60 73 46 70 72 66 81 35 42 33 14 34 17 32 1 24 -48 -71 -39 -54 -80 -9 -41 -37 -47 -58 -51 -68 -7 -31 -25 -28 -49 -4 -30 -36 -62 -40 -22 -56 -75 -63 -11 -67 -18 -65 -12 -45 -74 -2 0
5 38 48 53 42 14 26 4 57 20 17 30 1 19 22 52 18 8 21 49 43 50 67 72 70 64 13 54 47 60 7 12 28 32 -10 -6 -81 -62 -58 -76 -29 -31 -73 -2 -9 -24 -74 -39 -75 -59 -3 -35 -71 -16 -65 -46 -63 -11 -66 -27 -41 -78 -55 -25 -51 -23 -61 -36 -33 -15 0
10 18 34 51 56 40 30 46 27 75 73 55 11 12 68 63 48 42 59 74 1 22 35 23 9 66 7 17 -2 -65 -54 -79 -58 -28 -43 -78 -71 -4 -53 -69 -72 -20 -8 -39 -47 -3 -57 -21 -31 -44 -49 -19 -62 -61 -26 -5 -38 -52 -67 0
69 21 42 52 13 3 54 20 18 5 68 70 27 29 48 26 41 15 64 38 11 43 37 51 79 32 47 6 -35 -24 -31 -2 -75 -4 -50 -36 -72 -23 -76 -74 -71 -58 -33 -16 -40 -19 -46 -61 -56 -66 -30 -78 -59 -55 -62 -44 -63 -7 -49 -25 -8 -34 -73 -65 0
61 17 65 46 75 70 -15 -37 0
14 4 12 55 25 64 17 29 57 60 24 66 74 36 56 7 46 41 43 63 50 34 47 79 18 13 61 73 76 15 9 51 49 30 62 77 32 -31 -54 -1 -19 -59 -6 -38 -70 -5 -26 -71 -75 -23 -8 -3 -52 -39 -37 -11 -53 -33 -78 -67 -10 -42 -40 -45 -22 -44 -21 -16 -48 -20 -65 -35 -58 -80 -27 -81 -2 0
46 64 6 19 9 48 55 3 29 22 61 58 36 40 32 56 63 1 79 50 60 -70 -24 -14 -4 -52 -42 -62 -5 -77 -10 -72 -51 -53 -78 -80 -23 -21 -28 0
68 73 53 -72 -22 -34 -10 -29 -79 0
81 57 7 24 73 54 66 80 14 13 71 10 37 35 4 79 47 5 29 52 74 49 16 69 42 27 20 -75 -58 -65 -18 -30 -28 -46 -31 -38 -21 -59 -1 -56 -78 -68 -39 -64 -62 -70 -2 -17 -3 -67 -15 -44 -50 -34 -19 -9 -45 -61 -40 -11 -36 -32 0
8 44 45 2 19 52 13 38 56 7 37 30 31 61 71 26 69 25 29 76 58 3 1 70 68 21 51 -15 -18 -27 -80 -40 -64 -17 -77 -75 -14 -12 -47 -62 -22 -20 -50 -24 -49 -39 -72 -73 -59 -32 -33 -42 -57 -54 -46 -63 -9 -11 -79 -60 0
13 43 38 11 73 18 23 4 64 24 54 47 42 25 14 63 55 71 12 8 41 65 48 58 67 3 26 36 49 -68 -69 -27 -56 -37 -62 -20 -30 -39 -75 -32 -22 -76 -81 -78 -31 -34 -2 -40 -77 -53 -51 -10 -28 -9 -61 -21 -70 -46 -16 -52 -35 -1 -60 -74 -33 -45 -7 -29 0
75 72 25 17 74 64 77 48 34 14 60 3 31 54 62 41 42 12 79 40 9 52 76 10 37 63 39 78 8 27 20 32 -81 -11 -5 -46 -45 -22 -47 -15 -30 -70 -56 -51 -4 -67 -61 -18 -71 -6 -2 -26 -36 -69 -24 -50 -38 0
8 74 77 60 39 31 59 41 10 65 51 53 18 4 52 33 13 73 66 63 44 80 69 3 67 78 32 37 54 -38 -21 -72 -49 -19 -28 -57 -75 -81 -56 -16 -40 -27 -34 -43 -76 -5 -12 -35 -68 -58 -42 -70 -26 -47 -15 -20 -11 -45 -36 -62 -61 -23 -64 -30 -9 -48 -29 -7 -55 0
58 60 7 5 44 49 34 10 21 20 14 27 48 66 3 18 69 9 47 6 40 16 81 56 4 32 -53 -23 -71 -73 -17 -61 -77 -78 -76 -74 -2 -42 -46 -37 -39 -52 -67 -50 -70 -12 -15 -38 -72 -45 -8 -41 -22 -25 0
59 37 69 28 53 7 46 47 62 36 38 27 44 70 35 58 21 54 2 49 40 20 16 32 18 66 23 74 68 9 52 3 61 71 -73 -57 -34 -64 -50 -11 -78 -17 -48 -19 -80 -60 -39 -5 -25 -77 -26 -30 -63 -65 -67 -31 -12 -42 -8 -41 0
53 72 12 -60 -68 0
43 22 4 78 12 65 38 13 51 64 70 18 79 16 26 9 6 31 48 40 20 35 62 42 77 -73 -15 -72 -55 -7 -69 -67 -56 -33 -29 -2 -19 -71 -50 -60 -36 -21 -58 0
63 61 81 -27 -41 0
54 70 69 71 62 12 63 24 45 32 20 17 -60 -65 -1 -5 -6 -68 -48 -58 -79 -23 -75 -47 0
52 25 36 21 76 30 34 44 -48 -35 -12 -20 -23 -58 -6 -31 -2 -79 -54 -46 -71 0
1 27 70 39 43 18 26 5 47 65 77 78 24 37 76 63 21 60 25 40 16 55 69 11 14 49 8 48 35 56 30 -4 -23 -75 -6 -68 -17 -12 -54 -36 -71 -10 -42 -53 -64 -38 -41 -50 -61 -52 -57 -62 -31 -7 -72 -3 -20 -73 -79 -22 -45 -66 -28 -46 -44 -81 -58 -2 0
65 15 49 7 2 29 31 38 13 14 36 43 19 50 18 75 22 55 48 44 56 71 28 67 1 57 8 16 58 -9 -52 -10 -4 -59 -11 -74 -45 -12 -60 -73 -72 -30 -39 -46 -32 -23 -69 -62 -79 -66 -6 -3 -47 -68 -51 -70 -54 -64 -35 -76 0
20 15 18 54 45 21 44 35 76 8 46 41 2 52 48 51 11 67 56 6 36 43 10 38 62 24 40 59 26 16 13 81 58 22 23 -1 -39 -5 -71 -4 -61 -65 -74 -7 -37 -25 -14 -33 -3 -31 -60 -34 -70 -68 -49 -55 -42 -72 -27 -80 -73 -53 -29 -66 -50 -9 -63 -77 -75 0
36 70 6 71 11 62 26 72 5 14 3 64 32 1 52 15 51 67 81 27 35 54 -57 -49 -40 -42 -68 -56 -44 -77 -73 -61 -79 -25 -66 -8 -43 -17 -53 -74 0
12 30 25 66 67 22 10 18 62 61 45 60 28 65 64 55 32 36 75 71 9 73 20 7 52 43 54 44 77 72 24 39 47 37 -33 -48 -76 -6 -19 -5 -8 -42 -68 -56 -70 -16 -11 -81 -58 -46 -15 -59 -34 -13 -26 -53 -63 -1 -40 -74 -31 -21 -23 0
52 57 67 20 4 12 19 50 55 61 68 54 22 77 62 26 17 74 43 79 56 21 44 37 -73 -38 -70 -32 -16 -72 -65 -59 -31 -66 -71 -11 -23 -81 -35 -78 -48 -2 -10 -80 -36 -1 -39 -41 -30 -69 -53 -18 -33 0
41 63 50 59 40 4 31 38 43 25 6 3 39 16 44 17 18 81 8 21 80 51 62 5 57 45 60 74 69 65 70 26 32 10 71 -30 -56 -27 -35 -15 -24 -33 -47 -12 -53 -64 -7 -1 -54 -67 -52 -49 -61 -11 -42 -72 -36 -14 -29 -9 -22 -66 -75 -73 -34 0
49 29 51 27 25 54 81 66 74 21 3 59 72 76 6 79 46 15 18 75 34 70 35 14 37 64 31 58 28 23 -1 -40 -68 -16 -57 -42 -36 -77 -22 -63 -73 -69 -47 -55 -4 -48 -78 -41 -12 -20 -5 -26 -80 -62 -65 -45 -61 -7 -67 -32 -9 -10 -33 -24 -56 -8 -30 -39 -52 -38 -50 -44 0
10 27 22 42 16 45 7 46 59 60 80 25 52 20 81 77 50 56 63 53 74 23 58 26 31 65 8 73 38 51 43 47 24 30 9 34 12 1 78 -35 -5 -66 -69 -71 -79 -4 -3 -32 -40 -41 -13 -75 -44 -76 -67 -33 -6 -48 -61 -14 -54 -15 -21 -11 -49 -39 -62 -29 -64 -72 -17 -18 -68 -2 -36 -70 0
78 70 32 73 22 29 46 69 36 42 20 3 53 44 51 28 54 15 19 27 7 77 49 80 81 9 72 16 -45 -65 -34 -21 -26 -4 -55 -18 -39 -8 -38 -11 -62 -66 -76 -25 -30 -43 -68 -24 -50 -74 -13 -23 -71 -37 -58 -31 0
24 77 47 25 61 81 62 15 52 53 9 40 -35 -64 -79 -4 -39 0
71 26 60 8 33 5 42 52 12 55 54 41 61 27 44 66 10 9 11 -62 -39 -4 -56 -63 -68 -25 -80 -67 -30 -45 -17 -6 -14 -73 -75 -72 -78 -32 -57 -23 0
23 25 1 71 63 31 2 44 35 51 66 22 73 59 68 57 64 50 61 26 43 12 56 30 19 21 27 54 -48 -58 -18 -69 -13 -74 -32 -45 -15 -76 -79 -67 -9 -81 -62 -75 -72 -78 -7 -29 -5 -28 -55 -16 -46 -39 -6 -14 -10 -65 -36 -41 -80 -47 0
67 64 46 36 62 8 72 4 81 34 44 5 52 45 21 23 -48 -66 -31 -47 -37 -63 -73 -6 -15 -39 -41 -1 -33 -32 -11 -69 -55 -7 -29 -9 -74 -59 -22 -57 -13 0
22 51 65 58 39 20 3 1 50 35 44 52 32 71 -47 -4 -34 -18 -13 -62 -70 -31 -68 -21 -57 -36 -16 -53 -43 -55 -17 -15 -37 0
6 34 60 35 5 8 -25 -3 -47 0
60 76 55 42 18 49 68 7 10 41 74 53 61 30 -79 -35 -4 -52 -6 -28 -80 -5 -25 -44 -65 -34 0
55 12 24 76 51 27 77 28 13 58 40 3 72 66 63 46 73 11 61 32 59 68 43 44 33 57 30 -8 -49 -16 -41 -4 -34 -15 -69 -7 -64 -5 -10 -21 -6 -71 -36 -26 -80 -47 -45 -60 -81 -48 -54 -31 -37 -65 -1 -35 -17 -20 0
45 27 9 59 66 60 31 22 21 1 34 68 47 19 -29 -62 -79 -75 -57 -48 -53 -16 0
5 75 47 34 25 31 19 53 60 18 13 3 12 39 66 49 26 37 70 9 30 63 58 1 78 74 -81 -17 -44 -41 -80 -29 -36 -77 -21 -20 -40 -48 -10 -67 -46 -73 -56 -7 -52 -22 -2 -32 0
60 17 56 67 23 21 35 61 77 36 33 39 71 -29 -47 -12 -5 -64 -48 -70 -74 -37 -24 -11 -63 -41 -13 -55 -38 -73 -79 -58 -42 -3 -46 0
12 78 6 31 55 46 81 63 21 43 71 64 34 5 67 9 14 11 44 28 50 79 61 23 59 13 10 41 16 3 36 53 45 33 70 32 26 56 -75 -77 -47 -57 -15 -27 -60 -30 -40 -65 -24 -42 -66 -73 -58 -51 -18 -54 -39 -29 -37 -20 -68 -80 -17 -52 -2 -7 -19 -62 -35 -48 -76 -72 0
71 26 59 68 67 73 6 18 25 77 54 19 7 39 61 66 43 34 -55 -32 -23 -60 -12 -22 -29 -36 -9 -16 -33 -75 -49 -79 -53 0
36 69 80 67 51 48 25 41 55 44 70 68 7 56 59 60 13 1 75 16 17 -2 -20 -35 -64 -26 -73 -6 -45 -79 -37 -78 -57 -5 -62 -14 -3 -53 -19 -52 -9 -46 -81 -54 -4 -29 -49 -58 -22 -33 -12 0
55 4 14 16 59 24 73 49 76 51 8 80 58 7 43 61 2 22 60 57 35 19 42 63 52 13 37 67 27 50 77 9 41 48 64 28 65 23 -20 -81 -69 -75 -11 -17 -5 -44 -46 -66 -29 -39 -34 -70 -40 -30 -10 -6 -1 -56 -71 -47 -54 -72 -68 -38 -31 -79 -62 -12 -26 -33 -45 -78 -3 -18 -53 0
26 72 8 41 33 19 80 76 81 51 39 21 9 11 20 45 16 59 71 24 68 77 23 36 18 73 13 38 63 17 2 70 -28 -56 -62 -60 -61 -75 -44 -1 -27 -15 -34 -29 -67 -52 -7 -30 -14 -4 -43 -57 -66 -25 -69 -32 -37 -31 -79 -35 -55 -58 0
54 77 45 46 51 48 80 71 73 65 16 78 -37 -4 -9 -44 -6 -31 -49 -15 -2 -59 -22 0
27 78 13 53 -20 -41 -43 -39 -74 -3 -19 -2 -76 0
4 71 10 79 81 60 53 15 72 13 41 62 61 46 16 63 39 50 51 26 80 48 6 29 31 76 55 78 38 40 7 23 52 69 54 -1 -43 -36 -57 -32 -45 -22 -19 -74 -44 -34 -47 -33 -27 -18 -77 -30 -64 -2 -65 -9 -28 -59 -20 -21 -66 -5 -58 -12 -14 -67 -70 -75 -8 -56 0
48 64 3 18 60 72 76 30 61 37 34 77 -65 -50 -68 -19 -21 -56 -38 -29 -67 -40 -4 0
2 18 30 43 76 37 52 73 74 7 34 39 -10 -63 -31 -15 -16 -59 -66 -80 -55 -61 -79 0
17 66 67 54 8 4 25 3 28 72 49 6 70 39 71 55 68 74 78 12 -34 -80 -20 -40 -5 -65 -24 -46 -77 -29 -1 -33 -37 -62 -41 -58 -43 -14 -61 0
13 37 65 59 49 63 64 4 24 42 12 40 70 46 48 1 39 27 34 33 47 17 44 26 23 22 50 52 76 9 31 56 45 55 19 71 79 57 38 -32 -5 -43 -6 -77 -29 -10 -80 -75 -21 -68 -53 -15 -8 -81 -11 -35 -3 -66 -41 -30 -78 -7 -72 -61 -69 -16 -25 -28 -58 -36 -2 -14 -74 -73 -20 -51 -67 -60 -62 -18 0
13 47 29 71 65 12 50 46 -66 -72 -42 -14 -32 0
60 13 32 29 3 54 37 80 39 33 81 1 31 43 44 70 73 20 47 26 49 -23 -66 -15 -16 -76 -52 -56 -8 -48 -6 -75 -78 -41 0
4 12 81 73 17 76 14 71 34 41 52 57 62 9 72 37 36 70 29 47 3 19 31 -27 -77 -61 -25 -21 -7 -53 -30 -46 -23 -35 -50 -68 -64 -8 -78 -80 0
64 11 25 0
3 60 12 75 47 42 69 72 61 11 56 52 4 45 65 59 57 30 51 2 8 46 66 -32 -39 -81 -18 -74 -77 -26 -40 -78 -10 -76 -48 -68 -21 -70 -64 -71 -15 -31 -27 -7 -79 -22 -80 -44 -49 -19 -43 -63 -38 -17 -25 0
18 56 45 20 -28 -13 -15 -71 -73 0
13 81 78 79 21 36 66 26 61 19 25 75 27 38 28 20 40 69 71 24 45 17 59 -16 -30 -64 -37 -6 -72 -43 -29 -44 -49 -42 -11 -48 -62 -1 -53 -33 -57 -5 -51 -39 -55 -35 -76 -31 -73 -46 -80 0
53 37 61 41 52 -21 -19 -14 -66 -2 -9 -42 -74 0
27 57 33 40 72 22 -38 -68 -34 -78 -5 -76 -64 -79 -2 -46 0
23 63 76 -28 -55 -30 0
14 31 18 43 16 29 81 11 13 1 30 55 70 34 54 42 56 8 69 50 58 63 33 32 40 72 51 23 15 73 25 27 9 38 20 45 7 74 17 -4 -52 -77 -76 -48 -79 -10 -47 -41 -62 -67 -80 -75 -65 -57 -78 -5 -26 -22 -39 -2 -6 -3 -64 0
76 20 80 25 58 44 22 36 13 1 61 2 4 26 28 30 43 66 34 16 8 33 51 50 14 67 79 65 62 38 41 55 7 70 -63 -69 -3 -45 -40 -78 -10 -72 -68 -27 -56 -5 -73 -32 -9 -17 -21 -12 -35 -42 -37 0
53 50 46 70 51 37 49 56 66 35 71 22 63 81 23 69 77 80 58 78 9 39 57 45 20 73 10 25 42 18 13 27 2 59 29 67 36 7 72 68 15 31 3 60 -74 -8 -65 -16 -44 -41 -62 -48 -24 -75 -6 -34 -76 -1 -32 -17 -79 -30 -21 -64 -28 -54 -55 -12 -14 -38 -52 -5 -33 -4 0
61 50 44 25 70 59 76 73 62 32 7 17 8 68 -29 -47 -42 -55 -14 -71 -35 -48 -27 -41 -11 -40 -80 -33 -5 -51 -9 -46 0
38 20 7 10 -37 -70 -33 -71 -57 -5 0
43 12 42 75 66 25 61 57 32 26 74 78 63 73 27 29 37 53 28 51 79 80 52 8 58 38 -17 -13 -6 -30 -16 -2 -54 -50 -69 -70 -9 -11 -65 -72 -14 -41 -64 -46 -67 -81 -18 -34 -36 -10 -5 -49 -39 -71 -15 -48 -3 -45 -47 0
55 3 61 44 36 37 77 71 28 20 53 40 69 6 70 26 48 78 23 27 18 72 7 22 -17 -1 -35 -76 -81 -14 -73 -57 -50 -32 -80 -45 -2 -65 -58 -29 -41 -10 -42 -34 -25 -11 -62 -39 -52 -63 -24 -8 -54 -30 0
5 4 21 60 51 15 67 12 2 3 33 19 62 6 58 48 61 8 47 68 52 30 27 80 45 70 20 32 16 50 10 36 -53 -64 -49 -41 -34 -54 -25 -14 -29 -65 -1 -72 -18 -44 -37 -22 -57 -76 -17 -35 -26 -75 -56 -73 -55 -28 -31 -66 -79 -11 -7 -74 -39 -59 -78 -38 -77 -71 -40 -43 -69 0
47 40 39 71 3 6 30 74 49 17 79 72 9 24 45 1 -61 -14 -19 -60 -33 -36 -8 -4 -10 -21 -77 -67 -26 -37 -59 -63 -29 -78 -44 -73 -68 -52 -69 -28 -56 -18 -48 -7 -50 -31 0
62 37 25 29 68 35 50 -58 -4 0
3 6 14 -8 -64 -15 0
37 5 45 59 66 26 8 6 55 30 63 33 81 40 13 2 76 1 54 43 3 38 -70 -58 -31 -68 -67 -65 -16 -61 -11 -41 -10 -78 -72 -42 -14 -51 -50 -44 -56 0
56 28 33 62 69 -39 -51 -30 0
60 74 7 19 70 81 20 30 22 6 80 45 -3 -44 -13 -65 -43 -33 -36 -27 -11 -57 -10 -67 0
34 40 11 8 38 62 9 64 78 74 72 12 4 1 2 23 33 49 6 32 -25 -42 -60 -79 -63 -7 -48 -47 -16 -65 -44 -80 -46 -68 -61 -39 -3 -77 -17 0
47 42 30 22 31 9 57 27 56 61 53 77 78 80 66 51 55 67 26 58 -19 -50 -60 -48 -3 -7 -62 -75 -6 -18 -52 -8 -20 -11 -46 -29 -24 -70 -49 -1 -32 0
54 65 21 6 63 1 10 48 26 64 11 25 75 58 47 73 20 62 77 7 59 19 68 60 -9 -71 -15 -29 -35 -50 -24 -44 -56 -23 -37 -4 -34 -41 -33 -69 -40 -45 0
24 18 27 44 57 50 74 3 29 77 67 28 47 53 60 34 54 51 -2 -13 -5 -42 -68 -40 -25 -38 -55 -66 -45 -58 -19 -56 -64 0
49 68 74 41 50 59 69 30 -35 -38 -7 -22 -46 -20 -5 -28 -29 -6 -75 -55 0
72 15 60 71 50 4 5 74 21 73 51 2 -14 -41 -36 -61 -57 -1 -79 -19 -12 -58 -53 0
19 11 38 1 73 62 13 56 12 72 79 31 69 4 3 2 49 74 26 5 18 54 58 77 61 39 30 47 45 55 36 57 40 20 64 -51 -25 -9 -17 -70 -29 -78 -44 -27 -28 -59 -16 -21 -46 -67 -43 -81 -35 -65 -23 -48 -34 -53 -60 -32 0
3 20 81 54 58 40 25 1 50 35 70 18 29 7 4 78 42 26 47 5 77 33 11 12 -56 -45 -59 -60 -73 -31 -10 -36 -69 -16 -51 -32 -43 -15 -21 -49 -44 -13 -28 -74 -52 -63 -23 -71 -65 -8 -72 -53 -37 -75 -62 -80 -67 0
15 8 54 56 2 55 49 66 26 14 79 24 72 51 36 20 13 34 76 58 69 31 41 10 33 59 43 46 40 -80 -11 -53 -5 -63 -42 -74 -12 -6 -81 -45 -18 -21 -68 -61 -9 -38 -77 -48 -52 -65 -1 -17 -22 -29 -50 -25 -47 -27 0
65 47 60 9 64 74 62 14 39 21 6 29 22 70 37 31 15 32 55 7 80 12 25 81 44 2 53 5 45 71 -50 -23 -33 -28 -49 -10 -41 -13 -69 -75 -34 -40 -17 -16 -1 -63 -54 -46 -19 -18 -38 -52 -79 -78 -66 0
59 28 43 36 58 3 44 40 17 47 46 29 12 20 -78 -8 -61 -39 -7 -54 -14 -62 -70 -75 -24 -51 -2 -22 -34 -26 -33 -80 -42 -74 -79 0
66 30 44 79 48 7 50 16 31 19 25 59 40 2 18 -11 -52 -28 -69 -24 -46 -65 -45 -47 -23 -73 -56 0
81 2 73 25 64 38 46 72 3 62 31 34 16 75 39 5 80 -55 -47 -30 -63 -41 -76 -21 -23 -8 -69 -18 -36 -27 -7 0
20 8 73 80 61 6 68 27 51 76 42 74 23 14 66 52 49 13 33 18 7 17 77 43 35 39 53 36 16 54 10 1 48 37 56 15 -71 -63 -3 -12 -75 -57 -72 -65 -38 -28 -25 -4 -70 -46 -19 -34 -26 -40 -30 -44 -5 -45 -81 -29 -21 -58 -11 -59 0
42 33 21 50 2 26 51 54 55 20 60 61 44 1 30 81 37 59 43 15 12 18 40 57 39 3 36 17 24 9 63 8 -78 -23 -34 -48 -5 -65 -13 -7 -58 -22 -80 -73 -69 -19 -72 -68 -67 -14 -53 -70 -49 -10 -35 -62 0
78 23 22 30 66 21 51 25 45 10 24 38 20 39 2 80 61 6 67 26 74 46 33 76 15 56 -1 -36 -62 -5 -11 -29 -57 -40 -41 -71 -55 -7 -77 -28 -75 -65 -63 -19 -37 -68 -16 -79 0
24 7 4 3 35 28 78 51 74 29 14 38 66 62 65 57 79 16 63 17 68 34 52 13 43 71 75 49 20 37 67 1 9 -47 -46 -19 -5 -27 -23 -8 -12 -70 -11 -30 -59 -64 -54 -10 -53 -18 -6 -50 -15 -60 -36 -80 -55 -61 0
38 61 3 78 40 54 29 59 22 73 14 65 79 64 -17 -10 -31 -37 -39 -51 -62 -6 -69 0
74 42 64 58 49 38 53 56 71 50 57 12 5 51 48 14 65 26 15 47 3 39 7 19 77 30 59 8 73 43 61 24 13 1 46 76 60 35 2 68 -29 -55 -31 -10 -40 -44 -22 -17 -23 -66 -33 -52 -54 -18 -4 -9 -36 -28 -72 -21 -63 -32 -11 -70 -69 -79 -6 -81 -62 -80 -34 -37 -45 -75 -41 -27 -78 0
18 73 80 41 72 40 44 76 69 26 -50 -19 -23 -9 -67 -62 -34 -39 -48 0
13 16 81 19 63 79 10 3 66 80 11 25 54 70 53 59 52 69 67 8 26 21 40 62 65 23 55 46 75 57 50 34 37 28 1 73 33 36 -24 -56 -42 -7 -2 -58 -41 -6 -30 -29 -47 -61 -14 -5 -77 -22 -49 -35 -32 -18 -31 -74 -4 -9 -44 -43 -72 -38 -68 -12 -64 -60 -78 -48 -51 -15 -45 -39 -76 -20 -17 0
43 59 5 34 49 47 41 21 3 52 44 73 53 63 20 9 17 -57 -1 -51 -18 -37 -15 -10 -4 -78 -62 -14 -71 -30 -40 -61 -38 -23 -69 -81 0
29 19 34 13 28 9 6 -33 -3 0
4 47 8 11 60 -2 -75 -46 -71 -42 -63 -40 0
32 34 65 39 29 16 69 18 8 64 62 3 -30 -73 -40 -79 -77 -13 -78 -81 0
28 43 63 74 25 50 73 42 27 11 55 40 70 65 9 -19 -13 -81 -41 -37 -61 -30 -3 0
17 68 71 38 74 49 43 27 30 22 78 60 1 2 47 59 65 -21 -72 -58 -76 -40 -25 -44 -42 -37 -36 -73 -10 -45 -6 0
54 10 -20 -4 -17 -1 -64 0
67 50 53 19 56 16 70 15 12 62 5 51 74 1 4 43 64 79 36 81 22 38 14 44 72 8 77 2 35 34 48 21 60 13 61 28 9 42 29 46 75 -25 -26 -65 -76 -37 -57 -27 -73 -54 -58 -69 -10 -17 -78 -66 -41 -47 -71 -39 -31 -49 -3 -68 -63 -33 -59 -7 -32 -52 0
59 46 20 48 61 69 36 23 31 16 6 18 32 65 25 13 81 74 34 71 2 27 17 37 1 68 4 76 9 51 14 -70 -77 -72 -58 -40 -63 -28 -79 -35 -39 -5 -50 -64 -47 -49 -30 -43 -60 -52 -19 -66 -26 -53 -42 -57 -54 -41 -33 -24 -67 -44 -62 -11 -22 -80 -55 0
41 8 74 79 23 39 13 1 46 69 -7 -28 -70 -42 -30 -4 -20 -18 -35 -36 -33 0
41 1 79 68 43 30 56 67 32 15 77 78 40 63 76 37 36 10 34 11 53 33 7 8 59 65 16 25 61 14 71 55 20 81 50 23 48 28 60 -49 -66 -26 -52 -6 -64 -74 -24 -38 -58 -44 -9 -19 -5 -22 -3 -54 -39 -47 -62 -17 -27 -4 -2 -73 -70 -13 -80 -29 -42 -35 -46 -31 -72 -21 -57 -45 -18 -12 0
62 4 11 16 33 32 46 15 67 37 54 55 7 10 71 31 61 72 79 34 45 75 51 50 18 -48 -24 -35 -58 -14 -49 -25 -36 -21 -9 -81 -23 -53 -19 -2 -30 -70 -74 -42 -43 0
9 19 51 74 39 5 20 17 45 76 10 24 38 14 49 64 50 -3 -6 -44 -47 0
69 23 43 46 66 12 14 73 21 11 81 75 45 61 40 49 67 13 63 8 17 71 56 79 18 50 37 80 6 53 41 64 20 5 7 72 55 4 29 62 60 35 -33 -52 -24 -1 -15 -59 -57 -78 -39 -19 -16 -51 -31 -42 -74 -3 -47 -25 -77 -44 -38 -48 -54 -68 -2 -32 -76 -10 -26 -36 -70 -65 -27 0
41 14 12 34 29 76 47 81 48 59 77 73 6 78 40 74 55 31 1 46 37 19 68 45 -79 -10 -21 -35 -3 -67 -42 -56 -28 -63 -4 -54 -16 -32 -49 -20 -69 -38 -72 -36 0
68 64 24 45 26 13 33 31 42 20 36 61 78 27 63 17 47 1 -16 -55 -18 -19 -12 -34 -70 -4 -2 -58 -38 -66 -32 -73 -79 -43 -57 -65 -37 -72 -60 -44 0
47 52 71 24 50 16 45 53 66 49 9 4 37 6 30 55 2 51 60 56 11 3 39 18 73 48 81 33 75 17 -36 -59 -42 -15 -74 -61 -78 -13 -79 -44 -67 -72 -8 -63 -22 -28 -64 -54 -10 -32 -12 -26 -65 -68 -43 -25 -57 -29 -70 -20 -38 -69 -31 -77 -19 -35 -62 -7 -58 -23 -41 -80 0
35 2 20 66 4 -80 -15 -74 -8 -48 -43 -33 -45 -58 -62 -5 -23 -40 -34 0
52 66 -78 -8 0
24 54 23 8 53 2 12 74 39 41 38 77 49 22 13 63 72 -70 -56 -42 -67 -5 -43 -10 -69 -65 -27 -48 -76 -7 -68 0
18 29 77 66 40 35 34 41 46 62 72 5 7 58 44 28 32 37 70 22 36 51 74 27 19 57 60 31 -73 -26 -33 -69 -8 -67 -20 -45 -25 -6 -43 -4 -47 -53 -30 -49 -75 -71 -13 -2 -24 -42 -48 -50 -12 0
3 32 15 40 20 47 38 -30 -53 -79 -58 -41 -13 -61 0
66 -48 -23 0
52 19 59 16 20 80 50 -58 -5 -76 0
53 79 28 63 77 43 39 60 4 -31 -50 -70 -10 -5 -34 -7 -45 -22 -12 -71 -30 -6 -32 -44 0
20 77 12 57 50 69 33 74 44 23 73 80 66 61 26 -52 -10 -22 -78 -46 -54 -48 -18 -11 -36 -25 -21 -39 -70 0
60 12 78 29 36 47 62 11 52 -5 -21 -8 -42 -59 -9 -77 -7 -76 0
35 40 58 67 8 23 39 70 17 6 27 48 77 19 78 54 45 59 25 76 2 79 57 36 29 9 20 60 74 5 22 32 63 62 41 51 56 3 64 34 44 26 43 1 68 -53 -12 -14 -80 -18 -7 -52 -75 -38 -4 -72 -15 -69 -10 -13 -55 -16 -21 -65 -37 -50 -46 -61 -28 -31 -33 -47 -66 -71 -11 -30 0
68 11 10 73 12 20 5 31 40 18 47 64 29 22 9 -23 -16 -57 -74 -79 -63 -54 -65 -50 -52 -19 -60 -76 -34 -13 -1 -70 -14 -28 0
71 22 26 25 8 79 64 12 72 36 44 47 15 67 34 81 77 46 39 57 42 65 48 59 73 30 21 37 58 66 63 29 51 18 17 52 -49 -76 -60 -7 -5 -1 -50 -38 -6 -11 -10 -70 -35 -2 -55 -16 -28 -62 -68 -40 -19 -80 -14 -4 -41 -23 -78 -27 -31 -69 -13 -33 -32 -54 -20 -3 -9 -56 0
20 8 10 15 22 27 42 4 58 37 24 12 81 36 54 63 68 49 64 25 -61 -6 -75 -77 -34 -66 -11 -46 -16 -78 -7 -40 -79 -33 -67 -50 -39 0
35 81 17 61 5 65 41 8 57 21 53 74 13 44 27 73 28 2 36 66 68 71 11 20 7 62 56 49 10 -30 -80 -1 -14 -3 -19 -25 -77 -58 -38 -59 -45 -40 -33 -12 -32 -15 -54 -79 -46 -78 -64 -16 -26 -55 -72 -60 -70 -76 -34 -9 -18 -37 0
50 41 20 55 40 71 47 34 72 15 33 56 81 -79 -7 -11 -62 -38 -19 -30 -43 -21 -66 -17 -27 -8 0
72 45 3 29 10 33 21 36 78 8 80 59 27 13 1 70 38 77 76 31 26 23 54 12 48 -71 -47 -60 -57 -16 -9 -67 -55 -28 -64 -56 -35 -51 -14 -46 -39 -42 -61 -6 -20 -53 -43 -19 -66 -4 -73 -75 -49 -74 -40 -44 -32 -18 -63 -17 -34 -81 0
22 79 69 63 5 27 59 33 18 2 62 43 70 60 52 19 72 14 26 55 21 11 71 81 3 28 -29 -25 -53 -58 -13 -34 -12 -51 -41 -80 -10 -47 -36 -64 -38 -65 -39 -67 -76 -56 -66 -75 -16 -31 0
53 38 59 6 55 28 20 48 24 62 77 -8 -5 -52 -13 -69 -57 -22 -16 -66 0
20 77 53 56 41 43 21 71 80 14 26 73 57 31 63 6 65 49 8 19 60 7 22 46 38 59 3 66 -28 -33 -76 -32 -58 -34 -67 -55 -27 -13 -11 -68 -10 -40 -64 -69 -2 -81 -30 -78 -42 -48 -54 -70 -29 -50 0
58 51 23 41 47 67 75 28 4 27 7 78 66 45 65 53 16 54 9 19 60 39 38 34 49 81 76 11 12 -70 -6 -61 -18 -59 -2 -63 -77 -5 -40 -13 -69 -25 -57 -10 -62 -35 -15 -29 -55 -14 -72 -71 -33 -8 -48 -64 -1 -68 -17 -22 -79 -3 -74 -52 -36 -32 -43 -56 0
3 27 62 68 34 20 46 79 51 17 55 14 10 72 78 48 1 21 73 49 -61 -80 -7 -64 -41 -38 -52 -8 -13 -65 -42 -69 -63 -67 -33 -58 0
10 55 70 30 7 75 33 11 42 56 31 5 62 79 13 43 38 -39 -69 -54 -1 -47 -14 -61 -71 -6 -78 -65 -19 0
67 21 24 -13 -35 0
59 79 48 8 57 9 81 -37 -43 -61 -40 -21 -19 -70 -74 -75 -32 -6 -33 -16 -11 0
68 16 55 30 77 73 10 19 76 22 -29 -28 -40 -47 -13 -32 -52 -61 -5 -41 -53 0
54 77 66 3 32 53 60 25 71 20 30 67 2 61 13 72 59 52 12 64 15 19 47 62 49 45 65 44 80 7 70 21 26 -55 -50 -38 -6 -75 -35 -18 -42 -37 -56 -57 -4 -81 -27 -1 -76 -14 -31 -5 -79 -22 -58 -28 -73 -46 -68 -39 -8 -24 -23 -40 -9 -11 -17 -43 -48 -41 -78 -51 0
67 78 56 5 11 32 8 10 -52 -47 -66 -73 -75 -77 0
57 22 1 44 55 79 39 13 43 31 72 68 51 58 28 52 53 20 60 40 36 76 29 17 42 63 6 11 10 26 25 19 56 30 78 2 65 -81 -27 -32 -18 -45 -67 -33 -59 -9 -23 -8 -15 -38 -62 -48 -64 -47 -61 -3 -34 -69 -49 -50 -21 -80 -16 -75 -4 -41 -54 -7 -46 -14 -24 -71 -12 -70 -35 -5 -73 -66 0
50 73 74 65 79 68 13 27 33 26 60 30 53 -29 -57 -81 -3 -63 0
72 12 31 37 10 33 49 22 66 81 41 58 26 35 67 64 34 43 24 30 69 6 15 4 38 3 61 73 1 42 29 13 78 55 21 68 25 71 51 -65 -7 -76 -44 -32 -62 -2 -28 -54 -79 -45 -27 -48 -39 -36 -19 -20 -40 -77 -17 -63 -5 -80 -57 -56 -59 0
37 77 43 62 63 13 54 69 79 24 9 56 38 26 8 53 16 -51 -23 -17 -55 -4 -3 -71 -68 -47 -76 -50 -35 -25 -40 -32 0
3 66 58 65 23 80 44 35 71 64 15 63 20 22 31 57 30 19 51 76 34 59 70 1 38 -74 -47 -46 -78 -41 -33 -79 -52 -9 -11 -12 -4 -61 -32 -29 -48 0
25 41 24 32 53 58 75 39 65 49 78 40 21 14 63 -29 -80 -77 -30 -74 -64 -57 -73 -1 -55 -76 0
15 72 47 39 64 34 78 77 14 3 63 11 21 20 -49 -73 -61 -35 -58 -16 -51 -80 -79 0
41 26 76 42 15 75 47 62 9 61 25 81 39 2 56 37 54 77 72 4 3 57 38 79 11 68 60 24 17 -22 -51 -33 -64 -66 -69 -19 -27 -50 -58 -28 -32 -43 -21 -5 -30 -18 -7 -29 -59 -34 -52 -49 -1 -65 -67 -55 -20 -53 -44 -14 -13 -12 0
68 39 11 2 42 31 25 44 50 54 18 37 41 28 78 23 73 47 7 35 46 58 3 79 1 6 60 20 14 75 27 30 57 26 4 67 29 59 74 72 21 -77 -40 -45 -33 -61 -34 -12 -36 -10 -16 -38 -19 -32 -63 -70 -62 -80 -64 -76 -56 -52 -9 -8 -51 -22 -5 -48 -17 -65 -55 -53 -43 -71 0
11 50 59 41 76 13 18 63 6 34 62 55 81 66 3 39 52 1 7 33 -38 -73 -26 -46 -9 -78 -22 -58 -75 -27 -64 -68 -47 -61 -2 -56 -14 -32 -43 -70 -60 -23 -35 -44 -51 -45 -16 -5 -15 0
46 52 54 43 25 72 30 67 34 79 44 45 41 57 49 18 69 76 7 80 68 26 29 40 66 36 42 63 78 74 10 28 -64 -1 -62 -23 -53 -13 -61 -38 -60 -21 -8 -4 -22 -3 -9 -14 -12 -27 -5 -56 -71 -33 -6 -48 -39 -17 -59 -51 0
56 39 80 10 55 77 52 27 34 -8 -32 -25 -79 -3 -16 -9 -51 -69 -49 -50 -28 0
50 55 35 76 1 61 9 32 58 23 43 2 4 30 56 -34 -11 -18 -70 -67 -57 -36 -20 -33 -3 -15 -5 -38 -27 -54 -78 -14 -8 -71 -79 0
17 69 13 55 79 65 48 61 1 38 35 46 64 42 3 16 40 21 19 34 8 80 66 75 74 27 32 63 76 18 24 70 36 11 58 56 43 10 14 59 9 -25 -22 -72 -78 -67 -71 -52 -4 -39 -73 -50 -26 -5 -30 -57 -33 -28 -20 -41 -49 -6 -15 -45 -7 -12 -54 -51 -37 -60 -23 -47 -77 -29 0
39 6 60 57 75 68 35 73 18 13 37 38 10 15 17 59 11 -16 -56 -30 -36 -7 -52 -63 -43 -1 -34 -78 -71 -29 -8 -48 -20 -31 -28 -64 -19 -24 -80 0
51 76 3 21 2 78 73 67 1 28 12 77 59 62 10 31 74 71 34 53 68 24 13 23 58 61 4 45 5 43 38 16 79 20 72 36 75 35 54 15 50 81 -6 -22 -57 -41 -48 -32 -70 -80 -33 -42 -26 -29 -30 -63 -44 -52 -49 -11 -65 -7 -64 -40 -55 -18 -46 -56 -69 -60 -8 -9 -17 -37 0
43 39 38 52 46 29 62 49 33 69 75 -50 -25 -66 -40 -30 -67 -81 -77 -37 -74 0
44 14 30 79 56 11 74 41 80 38 7 1 9 43 28 21 52 40 72 25 12 34 19 31 54 32 46 18 50 23 63 36 62 15 68 61 42 64 70 3 49 35 -13 -81 -4 -78 -76 -60 -65 -6 -57 -20 -73 -47 -27 -5 -53 -59 -22 -51 -45 -16 -55 -39 -48 -10 -69 -26 -29 -77 -2 -24 -75 -71 -8 -67 -33 -66 0
46 2 55 67 42 49 52 73 65 28 8 63 3 69 -47 -26 -64 -11 -38 -5 -9 -17 -16 -30 -48 -45 -62 -54 -40 0
66 59 52 79 65 22 10 55 77 53 58 12 9 37 21 44 26 13 70 18 5 76 -30 -72 -75 -8 -62 -35 -42 -15 -36 -63 -34 -2 -4 -46 -6 -31 -25 0
13 38 60 44 1 25 14 28 49 80 79 81 32 17 29 8 67 35 21 37 11 -57 -52 -74 -20 -22 -31 -10 -65 -16 -56 -58 -47 -9 -77 0
66 53 59 11 55 68 73 8 28 26 12 48 67 56 2 43 54 77 63 44 31 78 41 72 1 79 -27 -17 -50 -20 -42 -10 -57 -60 -7 -46 -23 -81 -24 -32 -49 -64 -62 -40 -71 -47 -30 -52 -18 -37 -15 -35 -6 -74 -3 -29 0
9 40 81 26 69 18 59 -32 -29 -27 -62 -61 -77 -19 -67 -76 -58 -36 -66 -55 -25 -70 -43 -4 -49 -6 -46 -3 -11 -7 0
5 36 20 80 38 27 8 7 34 81 23 29 1 55 12 42 14 45 31 2 39 10 17 67 28 15 53 24 56 77 52 74 65 19 61 78 35 70 -48 -25 -79 -18 -54 -3 -32 -64 -50 -9 -59 -33 -69 -21 -40 -16 -26 -66 -73 -68 -43 -11 -58 -22 -63 -57 -49 -62 -6 -60 -44 -4 -41 -71 -37 -46 -76 -47 0
78 8 80 79 33 75 10 11 58 63 39 1 9 32 37 31 76 30 5 24 61 25 -38 -77 -71 -34 -64 -40 -56 -43 -27 -69 -18 -72 -54 -36 -51 -55 -13 -7 -16 -68 -19 -73 -49 -21 -20 -35 -81 -74 -29 0
68 75 30 1 51 74 64 3 41 55 39 67 38 34 59 65 80 47 54 46 33 70 57 28 60 14 78 69 49 18 35 66 27 45 44 19 -23 -7 -63 -61 -52 -4 -72 -76 -20 -25 -36 -56 -77 -53 -8 -13 -22 -15 -29 -71 -5 -79 -43 -42 -16 -37 -11 -6 -73 -24 -50 -2 -62 -12 -9 -10 -17 -21 -81 -48 0
80 57 49 8 28 69 16 25 63 24 76 59 21 73 50 -60 -27 -43 -72 -81 -47 -34 -37 -32 -52 0
65 40 20 43 79 74 72 27 69 -34 -54 -3 -17 -11 -7 -33 0
18 68 56 54 63 44 41 80 39 77 50 33 3 23 74 79 8 15 32 28 4 62 27 55 71 26 51 78 37 69 31 57 29 -25 -58 -47 -22 -30 -53 -42 -43 -24 -1 -76 -5 -13 -60 -67 -36 -34 -16 -65 -72 -20 -73 -75 -6 -70 -46 -38 -61 -14 -9 -11 -81 -64 -40 -21 -45 -2 -19 -48 -59 -35 -17 -12 0
35 9 11 41 50 -79 -5 -17 -3 -46 0
6 67 1 3 47 54 14 40 53 73 71 12 48 66 27 68 8 29 58 11 23 51 18 4 44 10 22 56 26 77 33 19 43 79 -38 -46 -9 -5 -63 -31 -41 -24 -75 -37 -28 -62 -39 -50 -16 -64 -70 -60 -59 -69 -52 -35 -2 -65 -61 -80 -49 -30 -74 -32 -57 -55 -34 0
72 19 1 58 55 57 37 45 63 11 18 52 10 76 79 3 71 68 60 49 62 27 53 64 81 47 12 80 39 6 51 59 17 75 77 24 13 21 50 -69 -66 -78 -35 -54 -36 -8 -28 -46 -32 -26 -48 -43 -14 -56 -40 -34 -15 -20 -7 -22 -4 -70 -5 -25 -9 -61 -74 -38 -33 -31 -73 -16 -42 -67 -23 -29 -65 -44 -41 0
53 28 73 70 59 81 21 48 1 10 5 69 33 39 29 77 66 19 32 62 56 75 52 30 27 2 9 78 42 74 3 4 6 68 38 64 60 45 72 -47 -36 -79 -14 -58 -23 -7 -76 -17 -12 -15 -40 -54 -35 -16 -67 -55 -61 -50 -71 -20 -57 -11 -13 -80 -49 -34 -44 -22 -65 -31 -26 -46 -37 -18 -24 -25 -51 0
47 60 46 17 44 4 70 77 57 21 28 32 65 69 52 55 49 36 33 -37 -72 -68 -53 -10 -34 -42 -81 -1 -61 -24 -80 -50 -19 -78 -76 -58 -11 -2 -31 -62 0
65 22 3 50 20 56 17 33 19 38 16 79 42 55 59 68 57 81 25 32 -61 -6 -11 -10 -21 -30 -41 -70 -23 -63 -15 0
29 48 70 25 61 40 42 52 30 51 19 34 76 13 5 55 9 57 58 69 73 81 66 68 78 39 23 49 21 4 44 75 32 -37 -74 -65 -77 -3 -17 -11 -79 -20 -22 -33 -63 -16 -36 -2 -60 -64 -38 -43 -80 -24 -18 -47 -53 -6 -7 -67 -8 -72 -28 -31 -41 -46 -50 -27 -59 0
30 17 39 20 69 62 67 3 77 28 57 16 61 31 -52 -80 -38 -66 -22 -32 -21 -43 -81 -60 -10 -79 -25 -53 -51 -29 -73 -1 -59 -19 -65 0
42 63 68 43 18 -37 -9 0
57 79 42 30 59 47 44 26 63 56 60 17 49 75 5 64 67 2 54 76 1 50 66 61 8 31 24 55 23 39 21 -11 -32 -77 -9 -13 -33 -58 -34 -68 -72 -37 -46 -14 -27 -43 -19 -15 -69 -3 -52 -62 -71 -6 -80 -51 -29 -35 -16 0
61 71 66 48 37 73 33 49 43 41 8 27 56 7 11 15 70 36 5 76 52 22 20 47 4 25 1 18 6 51 62 2 60 30 79 80 46 68 54 21 23 35 16 -45 -74 -77 -26 -17 -29 -69 -38 -72 -3 -75 -14 -55 -81 -34 -32 -40 -9 -57 -58 -13 -50 -42 -44 -67 -28 -19 -24 -12 -53 -39 -63 0
14 43 30 66 26 45 34 -75 -52 -15 -41 0
39 80 68 49 62 20 24 43 77 -40 -3 -61 -44 -71 -65 -69 -55 -38 -33 -25 -1 0
4 43 47 30 61 74 15 37 18 14 59 24 62 45 66 56 9 80 16 13 63 55 31 73 35 -78 -3 -40 -28 -48 -33 -51 -50 -39 -36 -64 -67 -11 -41 -34 -25 -29 0
34 19 80 35 32 52 40 72 36 53 63 25 70 76 28 67 38 17 27 61 5 50 68 16 33 1 60 49 45 -8 -79 -74 -31 -65 -12 -24 -43 -23 -59 -37 -47 -21 -3 -42 -46 -66 -41 -11 -6 -62 -55 -13 -64 -77 -29 -54 -4 -26 -57 -7 -56 -10 -75 0
62 29 51 39 43 47 45 53 52 72 37 38 69 16 81 14 24 55 54 79 71 33 58 68 48 2 74 23 64 26 11 -4 -76 -20 -66 -5 -12 -60 -65 -21 -17 -40 -34 -59 -78 -41 -75 -9 -3 -18 -70 -67 -36 -50 -32 -61 -7 -25 -31 -63 -13 -28 0
78 27 45 28 40 15 21 54 17 9 13 61 56 77 50 63 59 30 12 7 20 67 70 -66 -52 -79 -1 -76 -42 -74 -64 -19 -39 -29 -75 -22 -11 -46 -23 -71 -43 -8 -48 -4 -68 -25 -32 -5 -35 -55 -53 -80 -24 -18 -10 -60 -44 0
57 45 65 48 38 22 67 23 12 78 60 30 80 44 68 66 56 79 51 3 37 64 50 74 -41 -61 -46 -54 -69 -36 -59 -2 -58 -63 -24 -75 -72 -21 -10 -8 -11 -17 -42 -81 -34 -73 -52 -76 -39 -25 0
26 43 62 78 74 25 4 35 21 38 3 44 61 48 55 22 17 79 28 -54 -66 -36 -58 -2 -16 -53 -14 -46 -69 -29 -80 -63 -5 -6 -57 -73 0
33 27 37 11 61 20 31 54 8 76 80 35 75 43 17 -4 -40 -50 -7 -9 -60 -64 -16 -44 -3 -46 -12 -45 -74 -72 -36 -70 -59 0
38 20 14 6 69 33 59 74 51 63 62 3 80 50 79 9 67 78 10 55 27 12 66 52 81 65 8 57 72 39 49 54 61 29 68 31 53 16 60 19 25 22 21 73 47 71 -37 -11 -45 -5 -41 -64 -43 -34 -30 -44 -58 -18 -56 -35 -23 -77 -13 -28 -17 -32 -7 -70 -42 -40 -48 -75 -2 -1 -24 -26 0
45 21 12 29 7 70 27 69 3 50 41 14 33 43 54 52 31 74 71 57 39 56 -44 -22 -35 -53 -20 -4 -13 -51 -76 -73 -16 -5 -15 -19 -64 -78 -38 -23 -24 -62 -26 -9 -25 -37 -80 -49 0
63 39 24 77 47 80 52 46 49 41 79 9 17 12 4 5 61 54 65 56 11 50 36 2 76 72 10 55 73 8 69 -44 -16 -15 -38 -68 -6 -59 -35 -13 -40 -21 -26 -7 -27 -70 -53 -29 -28 -81 -71 -58 -18 -43 -23 -66 -67 -45 0
56 30 34 57 3 80 39 75 77 5 71 9 41 69 13 46 63 81 25 27 53 55 48 2 58 8 14 74 76 28 51 66 11 79 65 61 59 72 68 15 22 78 60 47 10 38 36 6 -23 -37 -42 -21 -7 -35 -44 -70 -12 -24 -54 -16 -18 -4 -19 -26 -31 -50 -32 -17 -64 -45 -1 -40 -52 -67 -33 -29 0
53 49 9 13 11 61 62 19 52 7 -1 -56 -79 -27 -63 -55 -66 -44 -39 0
35 51 27 19 53 43 11 64 77 -71 -16 -58 0
52 31 58 61 1 55 10 48 69 57 71 28 7 11 30 2 35 14 78 77 73 26 15 4 12 18 6 74 -45 -80 -38 -59 -8 -34 -64 -41 -68 -60 -65 -53 -72 -81 -67 -44 -39 -3 -25 -49 -37 -17 -46 -70 -13 -19 -56 -33 -42 -50 -63 -43 0
81 71 55 34 -17 -14 -48 -18 0
1 34 41 74 15 21 20 67 57 33 65 46 70 11 79 77 42 47 37 58 76 32 39 35 78 51 71 30 66 63 62 38 14 52 17 68 -7 -55 -5 -9 -28 -29 -26 -81 -36 -18 -2 -54 -10 -13 -64 -12 -69 -72 -43 -44 -61 -3 -4 -25 -59 -16 -80 -6 -53 -48 -31 -49 -23 -75 -8 -45 -19 -22 -60 0
38 68 58 53 54 17 80 12 43 20 52 29 42 32 36 35 13 49 47 75 7 3 65 64 78 74 23 60 57 73 46 37 33 55 40 22 18 59 1 72 41 79 66 45 30 -76 -26 -61 -63 -34 -25 -70 -69 -21 -71 -77 -16 -50 -10 -27 -31 -9 -44 -15 -11 -6 -24 -51 -2 -67 -28 -4 0
78 76 51 19 33 34 40 37 71 30 -7 -61 -72 -54 -23 -5 -69 -9 -20 -42 -16 0
37 55 6 30 73 35 79 61 29 53 72 34 39 -13 -15 -5 -50 -19 -8 -31 -32 -20 -33 -74 -77 -11 -69 -48 -67 -1 -57 -70 -81 -27 -21 -38 -18 -47 0
36 17 51 40 28 1 16 58 43 70 30 60 38 75 3 11 21 63 55 -52 -47 -42 -5 -32 -53 -39 -76 -56 -66 -25 -79 -20 -41 -6 -33 -65 -29 -37 -69 0
75 60 17 41 6 40 42 15 13 11 79 64 34 59 30 21 12 57 9 22 56 -72 -26 -80 -25 -29 -23 -76 -43 -73 -78 -32 -48 -54 -68 -10 -69 -49 -24 -52 -2 -66 -4 -65 -58 -38 -3 -61 -62 -8 0
62 42 45 46 -50 -61 0
63 16 34 80 39 65 32 56 69 70 14 8 17 79 72 45 47 3 73 41 15 48 51 38 43 21 52 68 66 27 20 28 55 29 10 -4 -78 -6 -59 -71 -22 -33 -35 -24 -12 -58 -54 -5 -26 -13 -2 -64 -1 -44 -23 -74 -62 -31 -42 -9 -7 -60 -46 -50 -61 -81 -30 -53 -49 -40 -11 0
48 9 13 14 38 43 -16 -69 0
2 68 35 17 33 57 67 15 16 19 3 13 65 79 20 38 52 48 37 18 40 -28 -59 -70 -80 -66 -60 -43 -34 -51 -10 -27 -55 -6 -73 -7 -25 -32 -64 -5 0
60 14 62 63 7 47 -53 -13 -46 -52 -38 0
53 47 2 27 41 54 11 9 32 39 62 7 66 28 -16 -61 -25 -72 -70 -24 -18 -5 -12 -19 -26 -35 -81 -60 -55 -14 0
6 74 59 2 64 5 62 77 1 76 38 19 30 32 61 18 29 14 78 10 15 45 22 70 63 42 23 80 69 27 54 57 -56 -37 -51 -13 -8 -28 -67 -41 -33 -71 -36 -44 -46 -72 -52 -3 -25 -16 -40 0
56 1 32 78 28 58 7 65 2 21 66 22 36 10 68 67 53 12 61 15 24 73 34 77 3 81 45 41 69 37 -31 -63 -59 -55 -70 -49 -25 -50 -42 -8 -33 -39 -30 -40 -29 -18 -48 -35 -43 -52 -19 -80 -74 -72 -60 -54 -11 -23 -57 -5 -20 -75 -47 -79 0
19 52 80 72 67 42 22 3 5 60 34 73 69 17 -33 -66 -40 -38 -77 -31 -70 -54 -7 -49 -30 -13 -29 -9 -18 -79 0
53 70 37 67 31 26 6 77 74 59 81 40 9 43 66 -57 -5 -48 -23 -35 -17 -2 -33 -18 -29 -11 -73 -72 -41 -19 -38 -27 -54 -24 -63 -71 -13 -39 0
72 7 43 37 70 74 19 64 29 46 45 32 61 55 65 -18 -59 -58 -69 -52 -12 -9 -1 -24 -51 -6 -54 -57 -76 -71 -30 -50 -42 -48 -35 -23 -26 -62 0
44 81 10 -70 -46 -43 -24 -26 -52 -53 0
27 21 13 50 63 60 40 32 22 26 29 8 31 69 6 53 47 80 39 18 28 17 59 9 -5 -73 -64 -66 -19 -54 -14 -49 -74 -7 -35 -68 -37 -38 -71 -34 -62 -1 -61 -65 -4 -30 -12 -70 -25 0
62 40 34 31 44 14 15 54 50 39 6 63 9 16 10 12 45 76 66 18 4 30 51 59 28 77 61 33 60 78 49 37 73 21 43 2 58 81 70 26 72 19 80 -75 -46 -64 -35 -57 -3 -32 -69 -7 -8 -5 -65 -41 -13 -17 -42 -11 -71 -74 -48 -52 -68 -1 -20 -23 -25 -38 -53 -24 0
39 1 81 30 -68 -63 -42 -54 -79 0
23 9 16 62 59 22 8 80 75 46 35 36 65 63 69 33 29 70 26 39 1 42 72 34 13 4 44 51 49 30 21 15 54 25 50 32 12 28 -18 -52 -60 -64 -31 -47 -81 -55 -38 -71 -43 -79 -7 -73 -41 -77 -3 -48 -20 -57 -24 -37 -10 -2 -45 -6 -17 -27 -74 -61 -19 0
57 42 5 60 63 81 31 3 33 76 28 23 6 58 52 64 17 18 34 46 80 29 2 15 10 74 67 32 50 56 44 73 -53 -24 -68 -19 -49 -1 -4 -65 -20 -70 -14 -35 -11 -45 -27 -72 -78 -38 -61 -51 -40 -66 -47 -79 -21 -59 -48 -13 -55 -25 -9 -26 -30 -43 -41 -7 -69 -36 -37 -77 0
5 24 17 72 26 59 47 6 71 7 13 16 46 79 68 76 35 57 73 3 12 80 2 45 62 53 65 78 58 77 69 18 31 8 -14 -23 -49 -21 -29 -41 -54 -42 -4 -39 -32 -19 -81 -44 -25 -34 -55 -63 -50 -60 -9 -48 -74 -1 -56 -61 -67 -51 -66 -37 0
45 68 1 59 75 42 18 10 55 51 9 66 23 -8 -36 -46 -29 -79 -49 -63 -12 -73 -21 -56 -5 -32 -40 -11 -22 -35 -53 0
34 6 5 72 17 74 -42 -53 -33 -76 -29 -52 -21 -13 0
37 70 4 79 47 25 39 77 43 80 41 10 53 48 21 14 34 66 57 3 81 63 24 19 55 71 30 23 78 51 22 62 72 54 60 27 5 -65 -76 -68 -16 -7 -50 -56 -15 -13 -73 -2 -35 -26 -38 -67 -1 -64 -75 -6 -44 -12 -45 -46 -58 -33 -18 -29 -9 -36 -32 -31 -74 -61 -17 -52 0
46 1 38 75 66 68 6 70 72 43 51 44 56 11 77 23 74 33 31 62 36 17 14 63 55 81 65 16 53 39 3 15 -9 -35 -42 -22 -27 -5 -28 -60 -47 -80 -4 -78 -59 -34 -54 -67 -24 -69 -40 -13 -30 -19 -29 -21 -48 -73 -57 -7 -26 -8 -2 -61 -45 -64 -37 0
26 61 -46 -39 -55 -47 -37 -72 0
63 68 28 46 23 30 37 45 36 76 64 59 75 48 52 44 43 50 1 32 -5 -79 -18 -51 -57 -17 -72 -20 -70 -11 -78 -22 -41 -56 -66 -26 -12 -73 -53 -39 -10 -77 -14 0
29 52 61 12 3 31 79 58 74 46 56 80 19 66 20 68 72 41 47 71 14 1 11 13 81 39 70 76 63 75 28 40 16 32 -34 -2 -21 -26 -49 -65 -62 -38 -27 -18 -5 -50 -23 -36 -8 -9 -37 -51 -25 -22 -33 -6 -35 -42 -17 -57 -44 -67 -10 -64 -30 -43 -24 -45 -78 -15 -60 -73 -59 -77 -55 -4 -7 -53 -48 -54 0
79 7 42 62 50 54 55 30 69 72 25 29 65 34 24 26 15 1 11 -8 -43 -68 -10 -48 -27 -19 -6 -61 -81 -40 -17 -23 -4 -46 -67 -45 -14 -9 -77 -2 -31 -47 -75 -39 0
42 19 39 5 47 61 67 68 3 30 41 29 57 36 9 25 33 16 11 21 24 18 28 31 44 35 64 7 69 59 48 -80 -56 -38 -62 -73 -70 -43 -12 -8 -23 -34 -55 -54 -15 -75 -1 -78 -50 -63 -13 -27 -22 -45 -26 -6 -58 -51 -40 -60 -74 -2 -81 -71 -66 -65 -76 -20 -52 -10 -53 -79 0
26 39 55 34 1 68 22 46 64 19 66 76 47 65 45 2 28 69 71 40 30 81 57 -33 -25 -9 -21 -4 -5 -37 -14 -62 -11 -75 0
63 41 39 71 14 59 38 26 5 80 25 65 68 24 77 45 62 57 6 60 13 79 54 70 36 78 8 28 3 30 27 42 66 12 73 64 74 -69 -40 -31 -43 -81 -7 -15 -16 -21 -22 -19 -1 -47 -9 -49 -20 -56 -23 -48 -55 -10 -34 -51 -50 -4 -53 -76 -72 -44 -2 -35 -46 -52 -17 -61 -18 0
51 49 47 6 73 70 15 1 81 63 -54 -58 -3 -26 -46 -35 -13 -30 -25 -74 -42 -38 -65 -8 -80 0
47 54 37 39 55 60 8 10 18 11 22 81 67 45 26 73 50 -36 -17 -62 -42 -33 -12 -27 -70 -57 -79 -63 -61 -5 -69 -59 -2 0
71 32 56 3 17 27 49 59 1 52 67 14 58 16 80 75 35 81 63 -15 -54 -47 -68 -36 -4 -2 -23 -21 -6 -13 -61 -66 -79 -77 -72 0
73 52 39 37 58 81 44 75 69 40 61 18 22 42 5 -4 -43 -25 -56 -46 -34 -26 -24 -38 -29 -9 -31 -49 -20 -33 -16 -45 -6 -59 0
63 53 42 78 39 56 50 20 74 26 25 34 31 27 2 62 1 32 75 57 33 80 49 13 11 43 15 22 9 76 -70 -29 -3 -21 -16 -65 -40 -18 -55 -79 -44 -46 -66 -4 -52 -19 -54 -8 -35 -68 -23 -7 -14 -24 -6 -81 -69 -72 -10 -30 -17 0
6 81 57 56 33 75 60 52 45 2 48 46 78 71 39 27 55 50 19 15 63 30 69 3 26 49 25 47 32 24 28 68 12 53 29 16 18 13 17 7 9 40 14 41 80 65 -37 -34 -51 -22 -77 -44 -61 -21 -70 -43 -20 -74 -76 -36 -5 -1 -8 -66 -11 -35 -79 -4 -10 -31 -54 -58 -62 -59 -38 -67 0
61 39 66 58 23 43 -30 -64 -52 -11 -53 -38 -51 0
50 39 26 24 3 54 35 59 2 16 52 33 46 81 77 4 62 71 63 -17 -58 -20 -76 -25 -27 -28 -12 -56 -31 -21 -9 -47 -67 -69 -1 -70 -74 -37 0
80 62 68 19 70 44 55 13 14 37 50 67 30 43 74 32 29 41 -35 -76 -18 -11 -26 -27 -52 -10 -4 -24 0
58 47 44 52 9 66 71 2 64 20 61 -22 -5 -41 -40 -77 -19 -46 -57 -7 0
28 39 20 30 3 25 2 46 19 26 77 51 32 50 5 29 35 15 64 81 7 12 61 72 14 17 70 42 43 13 18 21 -65 -41 -55 -49 -60 -67 -9 -68 -80 -56 -33 -53 -37 -38 -16 -66 -62 -1 -24 -8 -75 -74 -54 -47 -71 -44 -4 -36 -79 -22 -10 -45 -27 -48 -73 0
74 9 35 56 23 2 -51 -80 0
-34 -37 0
44 75 59 43 2 46 57 14 66 5 39 -16 -49 -26 -81 -30 -1 0
40 76 47 14 23 67 13 34 15 51 25 18 71 22 24 50 46 77 48 28 70 26 61 -74 -17 -49 -32 -68 -44 -45 -36 -78 -10 -21 -42 -16 -58 -43 -6 -69 -12 -56 -7 0
22 46 27 17 28 26 33 76 75 55 44 15 37 61 12 66 35 34 72 67 45 32 1 68 20 51 74 3 81 31 7 13 10 41 -79 -49 -4 -80 -63 -16 -65 -62 -39 -77 -30 -24 -9 -11 -6 -36 -47 -69 -23 -73 -43 -50 -19 -59 -40 -21 -29 -5 -56 -60 -8 -52 -25 -42 0
77 38 14 67 23 10 41 35 39 71 62 44 3 76 45 9 64 34 7 60 27 48 29 80 70 11 33 32 75 19 16 56 2 12 43 55 -78 -63 -26 -31 -54 -66 -58 -47 -74 -73 -18 -51 -25 -24 -17 -53 -6 -72 -28 -22 -21 -52 -61 -79 -57 -36 -50 -30 -37 -59 -8 -20 -69 -13 -5 -40 -46 -4 -15 -49 0
44 68 52 17 25 54 75 67 63 77 20 65 69 73 62 1 39 12 10 7 71 42 74 16 61 -79 -48 -58 -38 -29 -18 -4 -36 -64 -11 -43 -33 -57 -76 -23 -9 -66 -81 -35 -72 -47 -37 -13 -26 -27 -8 -46 -56 -14 -40 -6 -5 -2 -28 -21 -53 -60 -49 -31 -3 0
52 66 39 46 51 32 36 38 60 30 27 21 45 41 33 40 56 61 -67 -65 -24 -72 -77 -22 -11 -31 -34 -29 -3 -8 -25 -64 -81 -2 -28 -1 -80 0
22 27 76 21 35 -60 -2 -20 -14 -63 0
18 1 39 33 71 22 38 67 28 40 13 30 51 17 25 69 70 66 58 62 14 4 72 6 35 65 57 8 -21 -2 -26 -41 -27 -74 -54 -50 -55 -76 -80 -42 -59 -7 -36 -20 -5 -49 -37 -68 -60 -52 -53 -19 -77 -44 -64 -10 -56 -24 0
12 78 81 66 58 73 39 -55 -26 -60 -77 -37 -56 -43 -35 -19 -14 -76 0
77 29 69 20 18 33 21 45 78 12 6 81 50 75 16 23 43 67 63 56 64 54 -74 -73 -36 -70 -24 -13 -44 -72 -52 -55 -40 -8 -60 -62 -42 -71 -3 -46 -59 -14 -22 -19 0
16 22 36 6 35 55 39 37 63 78 75 59 23 60 12 49 58 4 69 64 10 62 52 34 44 41 74 13 46 -43 -54 -28 -33 -57 -20 -29 -32 -5 -14 -81 -1 -9 -45 -31 -66 -42 -56 -50 -48 -7 -8 -73 -15 -70 -25 -51 -40 -26 -27 -47 -53 -76 0
22 28 59 37 48 77 45 8 72 6 10 7 -67 -32 -35 -66 -73 -33 -23 -70 -11 -14 -26 0
70 64 34 33 73 30 43 69 9 58 57 49 13 79 28 50 75 11 20 53 16 63 29 6 62 19 21 7 12 -67 -71 -59 -14 -3 -77 -65 -32 -22 -52 -51 -56 -17 -27 -4 -35 0
55 28 65 22 16 5 47 26 14 66 52 72 19 21 2 75 20 35 46 53 29 -9 -64 -42 -71 -27 -30 -23 -39 -63 -80 -78 -38 -59 -69 -44 -67 -54 -18 -81 -1 -13 0
32 -69 0
31 14 79 7 36 51 15 64 13 49 44 4 75 47 65 25 20 68 46 67 61 73 48 50 22 81 52 62 77 33 -21 -17 -41 -39 -80 -71 -58 -55 -27 -40 -6 -45 -78 -26 -72 -23 -69 -2 -30 -74 -24 -1 -57 -60 -19 -43 -37 -42 -28 -35 -54 -38 -3 -12 -66 -53 -8 -76 -16 -5 -34 -11 -56 -70 0
30 38 66 61 62 11 14 26 71 48 24 53 22 47 45 64 78 43 37 54 76 75 39 1 27 60 77 51 -50 -67 -41 -35 -31 -55 -21 -81 -28 -7 -40 -2 -72 -59 -18 -33 -44 -68 -65 -57 -17 0
70 73 48 51 75 24 25 32 18 40 1 66 61 15 14 16 23 8 35 58 47 45 17 60 -2 -37 -69 -72 -43 -62 -30 -27 -65 -11 -44 -21 -52 -57 -36 -53 -68 -19 -78 -74 -41 -33 -77 -79 -54 -46 -10 -63 -20 -6 -59 0
70 61 9 76 66 3 74 23 29 35 8 68 43 38 22 6 16 18 63 -62 -33 -10 -42 -77 -54 -34 -79 -4 -49 -20 -40 -41 -36 -39 0
57 80 48 66 60 6 43 46 5 52 42 62 37 8 47 64 25 76 41 18 71 13 49 15 -22 -74 -30 -65 -77 -34 -33 -12 -29 -36 -53 -2 -63 -38 -24 -19 -4 -32 -11 -67 -20 -51 -72 0
81 21 1 9 74 13 31 24 47 42 51 5 14 38 54 43 50 35 25 3 -65 -16 -63 -75 -52 -30 -36 -8 -79 -17 -40 -39 -44 -64 -15 -69 -53 -18 -71 -10 -20 -70 -12 -45 0
53 17 62 60 10 13 73 3 8 49 46 24 40 68 48 80 52 4 20 1 26 42 35 28 65 22 6 12 78 37 63 38 51 -33 -76 -11 -36 -27 -39 -18 -58 -5 -16 -72 -19 -21 -71 -25 -15 -45 -9 -74 -29 -55 -44 -41 -32 -59 -30 -77 -34 -56 -54 -2 -70 -50 -57 -75 -69 -64 -31 -66 0
37 3 28 50 11 41 15 54 66 73 22 44 75 14 4 55 76 65 17 26 2 27 31 46 51 -21 -16 -8 -42 -29 -59 -30 -33 -61 -53 -19 -80 -70 -67 -18 -39 -35 -7 -58 -5 -10 -60 -40 -45 -81 -13 -38 -23 -63 -64 -6 -1 -62 -25 -43 0
39 45 49 29 81 72 78 69 26 52 64 44 58 80 79 57 56 3 -31 -14 -71 -25 -48 -22 -21 -2 -18 -65 -19 -40 -74 -37 -11 -9 -38 -43 -6 -33 -67 -1 -36 -16 -10 -66 -5 -15 -13 -8 0
6 43 69 61 48 36 15 64 13 70 7 10 42 81 30 49 52 21 72 56 19 57 50 33 29 68 5 20 66 31 -65 -59 -41 -9 -79 -76 -34 -37 -54 -32 -78 -60 -35 -46 -22 -44 -17 -74 -58 -40 -14 -12 -18 -26 -71 -24 -75 -27 -38 -8 -16 -51 0
69 78 25 68 9 53 3 46 60 75 24 2 12 57 19 52 4 65 21 44 39 6 56 5 37 51 16 13 1 71 70 33 10 15 30 80 -41 -29 -47 -55 -14 -27 -76 -32 -72 -48 -62 -22 -79 -42 -64 -35 -67 -58 -43 -63 -59 -34 -54 -40 -20 -50 -45 -74 -18 -77 -17 -28 -61 -8 -66 0
78 70 45 43 11 1 40 63 8 66 49 73 54 38 -81 -75 -44 -59 -14 -24 -60 -25 -20 0
73 66 79 69 7 27 28 -54 -77 -30 -41 -81 -8 -78 -21 -74 -48 -80 -65 0
51 35 34 37 43 65 10 47 46 41 3 60 9 13 7 32 -79 -12 -39 -72 -45 -50 -75 -49 -66 -26 -11 -78 -76 -16 -28 -38 -6 -71 -5 -2 -54 -1 -33 -52 -61 -44 0
24 15 17 59 54 61 19 27 7 70 -36 -40 -20 -4 -43 -81 -41 -3 -10 -53 -67 -25 0
28 29 35 52 33 1 6 15 11 43 70 62 18 64 27 23 68 41 63 26 19 81 72 74 50 14 8 4 42 22 17 71 9 79 2 -56 -24 -46 -76 -30 -77 -51 -31 -12 -25 -16 -78 -10 -45 -20 -3 -39 -34 -66 -5 -53 -61 -75 -44 -48 -21 -40 -38 -47 -65 -49 -37 -58 -36 -32 -54 -57 -60 -13 -67 -80 0
35 25 52 45 18 22 63 3 48 14 78 17 53 28 44 71 50 68 12 47 40 73 81 32 21 19 77 15 -80 -34 -11 -29 -75 -42 -56 -65 -24 -5 -36 -61 -51 -43 -69 -9 -54 -6 -33 -72 -46 -58 -70 -79 -62 -8 -30 0
7 34 61 44 50 28 29 54 25 5 40 16 77 22 47 65 20 14 6 30 13 79 70 66 1 74 10 4 17 81 43 76 64 73 23 -63 -67 -31 -69 -75 -51 -18 -57 -72 -46 -33 -62 -38 -60 -2 -19 -27 -68 -36 -78 -52 -45 -24 -15 -48 -32 -9 -35 -37 -11 -39 -55 -42 -59 -21 -12 0
10 45 40 26 16 27 81 65 33 2 11 43 -37 -56 -49 -38 -25 -71 -15 -70 -32 -31 0
25 50 45 46 64 29 52 7 34 16 63 62 43 49 55 -59 -37 -67 -30 -66 -61 -47 -79 -2 -1 -68 0
80 10 3 62 81 29 67 -63 0
59 73 66 64 9 1 2 5 23 12 14 68 -41 -76 -29 -71 -53 -80 -49 -22 -40 -24 -19 -70 -58 -61 -15 -74 0
6 27 16 25 49 9 31 19 53 67 4 72 81 64 8 24 2 14 55 57 30 68 80 29 76 3 52 58 18 63 7 -28 -79 -41 -69 -21 -22 -43 -23 -45 -1 -38 -56 -51 -48 -77 -66 -5 -46 -13 -40 -59 -54 -60 -20 -44 -62 -35 -71 -61 -10 0
67 76 66 55 40 34 16 58 8 29 31 26 37 47 68 63 48 64 22 45 36 35 13 62 11 5 73 15 20 78 70 19 24 39 2 53 25 49 33 6 43 79 -50 -3 -7 -28 -12 -72 -1 -65 -74 -30 -51 -21 -38 -18 -17 -14 -80 -61 -56 -27 -77 -4 -44 -9 -41 -42 -71 -23 -10 -81 -60 -57 -59 -75 0
36 75 80 65 23 4 69 32 1 3 13 37 51 21 70 52 58 26 6 39 67 31 62 8 34 78 33 19 18 29 16 73 47 64 59 24 -72 -11 -56 -79 -2 -81 -49 -10 -38 -7 -48 -74 -77 -9 -27 -40 -66 -30 -55 -63 -76 -46 -43 -60 -45 -28 -53 -68 -42 -35 0
18 17 31 -3 -23 -15 -57 0
66 19 7 71 58 33 4 16 57 81 -18 -76 -64 -29 -59 -14 -50 -15 -62 -38 -69 -21 -56 -10 -34 -2 -41 -20 -26 -70 -79 -67 -68 -27 -30 0
55 65 4 19 7 36 30 60 27 68 73 78 59 8 43 -17 -20 -81 -56 -28 -38 -54 -61 -32 -40 -80 -15 -16 -57 -44 -53 0
60 77 -47 0
78 32 6 69 62 53 71 79 28 65 8 12 2 55 21 67 17 43 80 61 5 -33 -74 -52 -27 -68 -10 -25 -38 -60 -31 -26 -14 -18 -40 -57 -39 -77 0
32 5 79 24 31 34 48 71 28 77 46 54 61 39 12 2 -80 -73 -6 -27 -23 -16 -81 -26 -41 -72 0
20 16 80 56 47 42 39 66 74 59 40 57 65 70 61 -1 -26 -31 -69 -5 -79 -78 -58 -64 -3 -46 -30 -37 -15 -60 -29 -33 -67 -76 -43 -44 0
10 49 40 7 21 72 5 60 9 35 68 75 33 54 30 31 53 24 70 48 62 1 69 51 15 27 16 -14 -37 -46 -63 -71 -67 -42 -65 -57 -41 -45 -61 -77 -26 -76 -20 -32 -22 -3 -18 -56 -4 -74 -34 -79 -73 -55 -11 -58 -29 -28 -59 -25 -38 -52 -17 -23 -6 -43 0
27 2 60 17 22 -19 -1 -61 -44 -32 -53 0
13 16 12 68 71 53 9 2 40 4 19 14 73 50 3 55 22 32 49 61 -25 -34 -8 -7 -74 -26 -44 -64 -37 -57 -31 -43 -66 -28 -59 -77 -48 -70 0
22 58 44 36 71 7 39 28 31 14 52 43 49 30 62 81 60 53 77 27 41 11 67 4 47 74 29 48 76 80 33 10 46 -56 -18 -50 -65 -13 -6 -25 -8 -38 -5 -55 -70 -64 -66 -2 -34 -24 -19 -3 -78 -72 -37 -57 -73 -32 -15 -51 -16 -20 0
80 81 74 26 34 6 15 49 23 54 38 1 62 71 2 39 51 48 64 66 75 47 3 52 69 20 53 19 -29 -55 -24 -50 -61 -35 -22 -37 -40 -36 -14 -11 -13 -78 -56 -16 -45 -70 -43 0
47 77 34 62 80 69 44 25 41 20 12 4 75 56 51 8 50 78 10 48 58 35 68 49 66 32 60 43 29 46 2 73 53 67 9 42 63 1 22 26 52 -13 -59 -33 -40 -81 -45 -14 -24 -36 -16 -65 -23 -57 -54 -30 -7 -64 -15 -21 -19 -28 -5 -79 -3 0
33 73 44 43 81 22 53 18 59 65 15 68 2 69 49 20 35 23 76 48 -16 -24 -39 -42 -64 -31 -3 -72 -29 -67 -40 -19 -46 -52 -71 -74 -56 -25 0
26 14 77 19 73 44 78 1 8 29 64 9 27 17 61 40 54 55 41 33 -3 -52 -43 -16 -35 -42 -74 -30 -23 -25 -66 -15 -12 -59 0
44 39 1 70 63 33 31 35 28 51 13 75 62 59 6 46 19 7 26 2 16 -73 -11 -74 -20 -77 -8 -43 -37 -10 -67 -3 -52 -41 -79 -42 -58 -54 -53 -71 -69 -29 -12 -72 -60 -78 -50 0
51 61 32 63 29 31 45 36 54 52 57 -6 -18 -50 -5 -23 -47 -81 -64 -78 -16 -28 -15 -41 -48 0
76 46 37 63 48 68 6 61 22 19 5 40 78 13 64 55 30 66 56 67 16 47 69 21 -81 -51 -43 -8 -52 -58 -10 -15 -75 -28 -71 -31 -33 -73 -39 -42 -3 -20 -9 -53 -60 -59 -45 -12 -72 -26 -80 -18 -11 0
27 50 66 21 80 26 18 29 41 56 60 11 62 14 6 35 54 19 4 77 68 36 46 61 13 1 8 48 -17 -28 -76 -2 -53 -72 -40 -78 -52 -23 -10 -69 -20 -45 -43 -12 -55 -67 -15 -65 -34 -16 -25 -42 -24 -30 -47 -79 -31 -63 -44 -73 -70 -49 -33 -74 0
74 56 21 48 43 11 9 33 75 55 19 26 34 36 35 60 17 66 6 81 73 12 23 5 7 27 78 65 71 72 -80 -39 -29 -20 -67 -63 -52 -40 -25 -77 -59 -14 -41 -70 -4 -49 -2 -13 -16 -76 -37 -54 -50 -79 -38 -64 -69 -15 -42 -61 -22 -62 -1 -18 -24 -28 -45 -47 -32 -46 0
34 49 22 16 33 20 64 67 47 46 44 80 11 75 68 35 4 30 15 21 2 8 38 61 81 57 6 9 62 77 54 55 14 71 -69 -19 -36 -12 -50 -7 -43 -53 -79 -73 -32 -13 -72 -60 -25 -42 -1 -65 -45 -74 -58 -51 -26 -40 -76 -41 -39 -3 -31 -78 -29 -70 -56 -59 0
38 17 23 67 49 20 10 50 13 54 21 74 27 40 3 18 33 39 32 12 31 64 1 48 37 52 -7 -9 -11 -35 -22 -30 -16 -53 -14 -68 -6 -55 -43 -66 -75 -81 -71 -41 -5 -34 -69 -59 -57 0
5 55 77 40 62 26 76 23 67 73 45 43 31 36 66 68 22 57 17 52 37 2 41 28 71 30 46 79 35 78 -49 -56 -9 -32 -53 -65 -7 -54 -12 -63 -48 -3 -11 -20 -80 -15 -21 -18 -75 -59 -27 -29 -4 -72 -50 -10 -70 -44 -13 -64 -58 -39 0
16 71 2 42 62 69 26 57 58 35 38 65 59 19 63 39 6 34 81 28 31 15 61 45 76 9 33 30 60 37 25 5 23 64 50 27 4 49 -52 -13 -7 -77 -41 -80 -44 -22 -17 -40 -74 -32 -54 -79 -56 -68 -18 -10 -78 -48 -1 -67 -53 -11 -12 -47 -70 -72 -21 -14 -55 -43 0
58 41 66 65 55 79 43 -48 -33 -81 -2 -71 -17 -61 0
53 37 67 59 27 7 28 8 16 21 3 32 44 9 29 70 40 19 17 1 12 55 68 25 15 14 54 18 41 80 51 66 -49 -72 -58 -46 -42 -2 -4 -30 -60 -22 -73 -62 -76 -79 -35 -61 -75 -81 -34 0
48 38 8 46 73 -80 -68 -21 0
6 79 32 56 50 23 26 74 21 60 76 18 51 52 22 7 66 63 5 65 14 28 31 49 10 57 67 -69 -17 -3 -80 -38 -19 -15 -48 -46 -34 -62 -77 -81 -25 -78 -20 0
53 48 27 14 10 57 3 70 11 24 51 38 31 37 46 55 12 19 56 71 32 43 58 -63 -67 -77 -36 -81 -45 -52 -66 -69 -49 -25 -39 -35 -59 -20 -74 -75 -17 -4 -16 -1 -54 -61 -30 -5 -62 -73 0
34 35 8 60 3 36 31 18 12 78 21 39 15 48 -7 -47 -1 -61 -41 -26 -75 -23 -53 -76 0
28 80 69 40 27 73 23 52 12 4 2 46 24 7 35 54 77 65 57 33 21 36 15 51 39 11 19 5 55 -1 -10 -45 -42 -20 -61 -50 -17 -30 -58 -16 -26 -29 -31 -76 -72 -37 -14 -8 -13 -18 -60 -38 -74 -71 -81 -64 -47 0
50 73 42 43 59 25 2 63 51 14 70 45 11 3 62 38 52 28 7 80 21 53 31 58 18 12 78 49 35 69 30 81 57 72 19 74 71 76 33 -40 -24 -23 -56 -29 -68 -17 -55 -27 -1 -4 -47 -16 -61 -75 -5 -39 -46 -79 -26 -6 -65 -8 -77 -9 -41 -34 -48 -54 -13 0
5 39 20 71 42 -69 -15 -61 -17 0
70 22 36 64 16 35 77 12 78 17 15 18 50 52 55 5 3 7 24 13 71 -37 -81 -31 -75 -80 -67 -73 -58 -21 -48 -45 -2 -76 -40 -41 -42 0
13 33 64 66 16 40 38 6 36 34 1 5 39 24 72 63 10 44 25 15 14 67 3 9 35 7 18 12 46 60 47 76 -78 -26 -11 -50 -70 -73 -57 -43 -75 -53 -41 -52 -54 -56 -49 -61 -80 -30 -45 -28 -58 -22 -37 -68 -23 -77 -2 -81 0
33 49 4 17 66 29 63 40 53 -74 -41 -45 -36 -26 -3 -19 -75 -35 -52 -38 -68 -25 -5 0
32 25 78 57 14 33 39 60 36 63 31 80 28 10 79 3 43 27 73 72 34 12 35 68 11 54 42 44 -7 -37 -64 -4 -74 -21 -77 -67 -47 -6 -29 -22 -69 -56 -1 -2 -55 -71 -41 -16 -65 -50 -51 -20 -8 -5 -26 -17 -15 0
23 70 76 -57 -48 -26 -39 -11 -8 -80 -67 -14 -53 0
67 30 55 69 66 58 6 44 27 28 31 63 60 71 68 73 19 9 45 61 23 -25 -64 -46 -4 -17 -62 -34 -79 -26 -51 -43 -15 -54 -16 -10 -50 -74 -32 -14 -20 -48 -47 -21 0
37 60 26 14 5 70 72 48 76 67 1 32 7 63 68 3 4 28 81 61 2 40 55 31 15 -18 -25 -19 -34 -66 -35 -75 -6 -64 -10 -39 -71 -22 -43 -38 -17 -46 -78 -23 -54 -20 0
46 7 37 23 30 57 66 72 81 70 4 80 16 48 68 42 33 6 -64 -25 -32 -22 -59 -13 -14 -79 -2 -3 -20 -9 -11 -21 -61 0
4 53 6 -17 0
44 30 51 53 17 42 66 11 20 39 28 76 5 35 26 32 61 77 72 8 -64 -23 -67 -12 -80 -79 -75 -38 -4 -60 -58 -18 -70 -49 -3 -24 -71 -13 -56 -68 -43 -46 -15 -9 0
39 36 32 27 77 62 13 56 30 51 79 80 44 -46 -18 -9 -78 -61 0
27 72 4 63 53 33 -46 -51 -10 0
2 37 35 20 4 25 34 40 65 79 64 38 31 10 77 75 73 68 1 81 46 22 43 15 17 8 74 58 21 13 27 55 12 18 36 70 32 63 41 -42 -7 -69 -19 -47 -9 -44 -6 -59 -48 -28 -51 -53 -30 -33 -61 -16 -62 -26 -24 -54 -29 -78 -50 -71 -5 -52 0
48 20 27 65 7 80 29 1 24 40 59 72 81 47 45 35 31 74 33 66 71 5 77 78 -30 -53 -61 -44 -39 -69 -42 -73 -70 -46 -13 -32 -16 -79 -52 -50 -19 -22 -54 -8 -38 -68 -64 -21 -36 -37 -15 -2 -25 -26 -49 -6 -58 0
30 23 18 75 3 41 10 6 72 16 49 48 56 80 78 24 8 -32 -57 -68 -54 -62 -21 -59 -61 -69 -39 -51 -76 -45 -81 -63 -73 -28 -40 0
72 64 45 16 7 62 6 3 78 68 60 76 48 54 43 -10 -61 -32 -20 -29 -11 -51 -75 -67 -13 -30 -1 0
67 31 27 62 8 48 -2 -40 -58 -3 -46 -71 -55 -6 -80 -25 -32 -47 -51 -18 -16 -56 -21 -73 -45 0
6 61 16 19 5 45 26 27 22 23 48 72 69 54 1 14 49 46 35 12 34 65 56 81 -51 -62 -25 -73 -31 -70 -41 -50 -67 -24 -30 -75 -68 -52 -64 -77 -8 -74 -71 -44 -66 -2 -37 -4 0
19 23 20 42 7 15 27 32 38 74 70 54 76 39 53 13 37 67 68 72 5 56 28 31 61 47 -62 -22 -71 -17 -25 -34 -75 -41 -12 -3 -78 -36 -50 -73 -65 -8 -51 -29 -45 -35 -9 -16 -21 -55 -46 -14 0
44 35 65 56 63 37 21 5 16 10 53 58 57 47 78 69 76 68 28 6 25 -30 -66 -8 -64 -49 -41 -52 -17 -15 -72 -40 -73 0
6 11 51 52 74 21 43 62 15 22 77 56 36 19 69 63 9 61 34 7 29 50 80 44 78 46 32 79 25 -59 -28 -8 -40 -57 -4 -12 -68 -14 -42 -38 -45 -16 -66 -72 -60 -24 -37 -17 -20 -81 -2 -70 0
5 52 80 61 38 6 76 47 56 48 28 54 41 70 43 78 44 4 39 59 50 75 18 36 12 71 34 72 22 55 7 29 30 8 19 65 13 81 63 23 -10 -32 -64 -35 -79 -33 -9 -45 -74 -24 -37 -3 -46 -1 -15 -73 -40 -68 -31 -26 -2 -49 -17 -62 -14 -57 -11 -66 -51 -25 -53 -21 -69 -67 -42 -16 0
20 18 75 59 29 41 5 13 25 53 58 30 37 79 51 9 57 -67 -50 -4 -65 -45 -71 -72 -22 -8 -49 -38 -55 -61 -44 -16 -27 -32 -46 -21 -81 -28 -80 -19 -15 -34 -74 -43 -68 -40 0
66 75 38 68 37 3 31 4 47 16 5 46 20 32 56 40 6 67 74 14 64 42 61 17 60 71 19 7 39 43 51 -9 -72 -25 -70 -50 -63 -18 -49 -76 -33 -81 -13 -12 -48 -36 -10 -69 -55 -22 -65 -73 -8 0
61 63 59 51 37 65 67 71 16 69 3 78 14 50 5 -24 -4 -62 -27 -76 -45 -55 -44 -25 -79 -10 -8 -39 -36 -60 0
42 74 23 -59 -14 -46 -61 -63 -1 0
38 9 43 52 40 37 1 17 22 16 36 59 11 32 7 44 67 77 81 76 33 -29 -49 -47 -53 -51 -13 -45 -62 -79 -25 -74 -5 -64 -58 -68 -31 -72 -41 -65 -71 -73 -56 -24 -8 -75 -21 -10 -46 0
22 18 24 38 61 79 9 7 20 25 67 68 19 36 8 62 77 63 54 48 49 37 -10 -66 -30 -50 -81 -40 -29 -46 -44 -6 -28 -75 -42 -3 -72 -78 -33 -74 -60 -26 -21 -59 -52 -13 -5 -15 -39 0
56 4 25 67 30 51 26 9 6 13 23 17 57 53 72 22 19 40 43 58 54 42 18 73 62 44 46 -7 -61 -59 -28 -60 -5 -50 -41 -12 -38 -10 -71 -76 -63 -66 -2 -52 0
75 9 -80 0
9 3 2 28 51 70 30 24 75 16 13 11 21 29 76 73 31 40 34 78 50 39 79 72 17 66 -18 -57 -47 -71 -67 -59 -43 -41 -10 -80 -77 -7 -52 -45 -53 -15 -49 -61 -27 -4 -55 -60 -42 -44 -56 -33 -35 -81 0
71 77 28 35 51 68 34 60 4 15 63 31 65 59 20 22 6 62 80 23 48 40 76 45 14 30 1 55 36 2 49 -52 -56 -67 -47 -54 -16 -8 -10 -70 -73 -13 -39 -53 -18 -17 -11 -78 -29 0
42 51 50 22 73 2 41 69 1 43 10 20 80 37 12 11 70 54 63 53 64 67 77 62 52 55 4 6 3 47 28 56 35 -16 -21 -79 -60 -61 -49 -24 -33 -74 -15 -45 -81 -40 -25 -5 -23 -48 -71 -68 -18 -19 -38 -59 -78 -30 -75 -29 -58 -72 -65 -57 -31 -9 -26 -27 -44 -46 -8 -17 -7 -32 -76 -66 0
44 46 16 63 40 20 32 73 71 52 15 45 51 29 17 39 54 25 72 4 69 -37 -50 -53 -2 -12 -23 -19 -38 -48 -27 -31 -34 -74 -8 -61 -57 -77 -68 -30 -80 -59 -14 -3 -6 -43 -42 -18 -65 0
12 47 -34 -69 -46 -31 0
69 60 22 40 63 34 11 44 77 20 5 12 6 45 42 2 81 25 48 19 58 47 36 32 80 35 73 17 30 70 -13 -65 -33 -56 -46 -54 -67 -26 -71 -38 -3 -4 -1 -75 -31 -78 -55 -23 -79 -53 -10 -16 -66 -74 -72 -59 -24 -9 -18 -15 -39 -57 -8 -37 -14 0
3 7 81 17 41 37 60 67 52 54 46 50 14 57 70 59 5 23 66 51 77 16 48 56 24 15 61 49 20 11 29 -47 -80 -74 -30 -4 -42 -2 -44 -34 -58 -53 -39 -76 -68 -72 -8 -18 -32 -71 -43 -40 -1 -13 -21 -33 -27 -19 -78 -45 -75 -36 -65 -35 -63 -9 -62 -26 -10 -22 -12 -31 -28 -6 -73 0
59 64 33 13 68 6 27 62 22 76 44 42 4 32 43 80 35 45 -74 -26 -66 -29 -7 -75 -50 -5 -39 -65 -15 -55 -73 -10 -71 -23 -25 -24 -46 -3 0
32 76 -66 -77 -1 -7 0
34 66 12 4 7 55 77 23 73 70 51 58 71 69 46 42 79 8 81 59 61 13 18 1 72 74 80 57 -43 -14 -16 -40 -15 -52 -50 -11 -31 -38 -47 -48 -5 -20 -28 -17 -56 -33 -25 -27 -35 -67 -3 -41 0
46 34 24 45 81 16 26 50 49 19 57 14 22 8 10 75 35 59 -37 -60 -53 -79 -67 -71 -52 -43 -12 -23 -11 -13 -9 -15 -41 -30 -42 -32 -1 0
30 49 65 62 56 77 29 52 48 18 74 28 81 79 71 8 76 60 67 44 23 40 55 -15 -25 -64 -31 -36 -50 -32 -33 -6 -22 -46 -75 -63 -61 -78 -16 -2 -5 -11 -27 -51 -24 -21 -4 -3 -59 -73 -13 -54 -42 -47 -45 0
6 35 55 43 75 2 59 71 66 25 22 12 73 13 18 61 21 68 17 20 60 4 64 11 3 -29 -54 -24 -32 -34 -9 -53 -10 -79 -69 -1 0
17 11 74 39 64 57 75 5 67 44 77 54 72 14 80 35 56 66 37 50 25 60 27 63 10 28 -4 -45 -41 -55 -49 -29 -6 -70 -18 -69 -42 -19 -7 -40 -73 -71 -59 -34 -52 -32 -61 -58 -24 -8 -15 -76 -38 -2 -33 -65 -53 -16 -23 -1 -62 -21 -3 -12 -68 -22 -79 -81 -43 0
21 51 16 7 26 9 52 70 62 2 66 10 -50 -42 -3 -23 -19 -18 -5 -28 -49 -57 -59 -60 -79 0
25 71 30 72 48 22 77 23 41 19 -20 -4 -7 -36 -61 -70 -66 -10 -68 -76 -57 -9 -31 -46 0
20 -59 -35 0
60 62 27 9 11 39 36 14 38 16 56 33 -54 -42 -2 -68 -63 -1 -26 -15 -34 -65 -47 -30 -73 -3 -79 -70 -53 -40 -51 -44 -80 -59 -75 0
18 78 58 79 20 23 50 43 -15 -60 -41 -38 -4 -61 -16 -26 -66 -65 -75 -37 -56 -19 -77 0
26 74 -3 -6 -54 -32 0
16 19 9 48 20 2 33 26 17 34 24 72 -29 -30 -6 -79 -47 -28 -5 -50 -71 -3 -60 -57 -66 0
49 34 -57 -66 -38 -62 -31 0
78 51 2 59 55 17 13 63 24 27 14 81 1 72 15 18 7 48 52 36 45 39 31 47 10 49 62 8 76 75 -46 -60 -34 -44 -40 -5 -57 -65 -11 -71 -58 -64 -74 -79 -35 -61 -37 -3 -12 -22 -21 -50 -42 -54 -38 -19 -30 -4 -25 -6 -26 -66 -33 -67 -20 -9 -16 -41 -53 -29 -77 -56 -32 0
53 43 51 40 21 12 81 39 14 8 16 42 25 11 69 27 22 -78 -60 -76 -46 -33 -62 -47 -65 -5 -7 -13 -29 -26 -36 -75 0
51 70 5 29 61 21 32 52 -79 -67 -15 -77 -35 -62 -20 -50 0
-25 -12 -26 0
32 49 50 45 47 55 81 38 24 57 23 68 73 37 14 13 59 25 28 67 72 8 22 -76 -27 -69 -71 -65 -6 -70 -41 -46 -5 -20 -7 -54 -43 -77 -36 -18 -52 -35 -79 -21 -63 -58 0
4 51 35 30 64 65 75 2 58 62 7 67 8 -72 -26 -17 -10 -42 -23 -32 -25 -57 -69 -44 0
33 68 6 47 67 26 4 69 -62 -74 -52 -55 -40 -25 -46 -36 -15 -10 -45 -58 -43 -57 -54 -78 -53 -38 -16 -19 -66 0
23 61 69 38 43 16 32 33 51 48 19 60 49 31 27 35 67 7 52 47 -2 -15 -4 -79 -37 -76 -66 -41 -5 -81 -73 -8 -20 -42 -46 -18 -9 -40 -75 -50 -44 -68 0
56 9 20 17 60 48 -33 -69 -51 -74 -21 0
26 41 44 72 77 6 57 60 4 78 12 80 3 10 53 28 13 38 1 31 45 55 70 22 2 74 14 81 58 33 27 39 76 54 29 -50 -49 -42 -30 -66 -25 -19 -34 -48 -46 -61 -21 -5 -7 -32 -8 -59 -9 -11 -15 -40 -47 -37 -64 -68 -24 -18 -63 -56 -17 -69 -62 -36 -52 -16 -65 -23 -51 -35 -43 0
17 63 24 43 77 49 66 70 23 16 53 18 58 78 52 19 44 30 26 69 14 81 29 28 15 9 27 -4 -7 -40 -20 -76 -3 -48 -79 -55 -64 -47 -74 -38 -2 -56 -21 -22 0
21 47 57 35 16 45 80 42 8 49 69 41 50 19 55 17 66 1 5 27 13 58 63 26 9 54 67 64 11 71 15 53 28 33 36 24 75 73 20 78 12 48 -2 -51 -4 -18 -14 -59 -52 -65 -32 -81 -43 -39 -23 -22 -46 -61 -62 -76 -40 -25 -6 -56 -72 -30 -79 -37 -68 -10 -29 -44 -74 -7 -31 -77 -60 -34 -3 0
57 44 51 24 36 12 46 4 31 78 42 -71 -59 -50 -14 -81 -29 -60 -18 -15 -48 -2 -7 -21 -58 -22 -73 -67 -33 0
13 47 27 56 46 54 44 11 34 30 38 32 37 17 66 4 -29 -19 -79 -2 -77 -23 -60 -50 -72 -41 -71 -70 -43 -55 -59 -48 -62 -24 -75 -9 -22 -20 0
77 44 46 72 31 71 11 42 4 59 30 40 23 38 49 9 33 19 68 17 32 13 28 37 26 75 53 7 62 76 60 66 29 57 81 2 -48 -15 -80 -3 -41 -39 -67 -51 -8 -10 -16 -34 -54 -24 -61 -25 -18 -58 -6 -12 -63 -55 -45 -1 -78 -64 -21 -74 -52 -20 -73 -50 -5 -43 -79 -65 -47 -35 -14 -56 -69 -36 -70 -22 0
75 10 43 17 9 71 73 48 3 29 59 33 81 20 46 69 13 -58 -7 -74 -40 -39 -76 -56 -15 -34 -16 -14 -2 -18 -30 0
64 63 31 71 10 52 43 61 42 57 65 38 8 73 74 44 40 81 21 -58 -19 -5 -78 -36 -14 -75 -48 -53 -17 -32 -33 -66 -27 -11 -80 -41 -7 -9 -2 -15 0
57 66 39 41 77 23 74 70 33 49 34 71 63 43 42 62 80 8 21 47 14 76 65 69 5 60 -56 -79 -24 -6 -17 -12 -30 -36 -40 -54 -72 -20 -61 -1 -22 -18 -10 -3 -16 -9 -4 -38 -46 -51 -28 -15 -68 0
56 15 29 47 24 25 34 51 37 21 58 2 60 16 18 32 5 22 38 39 59 3 31 7 44 70 26 55 20 33 61 -54 -12 -79 -69 -78 -23 -52 -36 -57 -65 -74 -80 -4 -76 -35 -6 -9 -62 -27 -8 -43 -28 -49 -48 -67 -77 -41 -73 -81 -30 -53 -40 -42 -17 -19 -72 -71 -45 -66 -63 0
32 47 41 7 2 28 11 67 56 76 -58 -24 -44 -73 -66 -54 -9 -3 -39 -80 -78 -36 -74 -34 -1 0
51 17 52 38 13 28 2 24 12 39 36 48 37 -77 -43 -73 -68 -22 -56 -19 -32 -79 -16 -20 -40 -23 -81 -5 -50 0
24 77 49 73 38 5 66 67 2 41 62 53 22 25 32 14 27 18 34 4 60 39 58 56 7 78 51 48 8 10 81 52 20 61 50 1 -23 -71 -33 -19 -15 -31 -57 -43 -46 -79 -72 -21 -35 -45 -69 -42 -16 -70 -30 -28 -65 -36 -44 -29 -75 -13 -3 -12 -17 -54 -47 -40 -6 -64 0
81 -58 -62 -37 0
15 80 21 23 50 29 63 44 67 28 60 49 70 57 6 55 53 31 78 46 8 26 10 14 40 11 48 56 42 36 27 39 75 54 22 77 9 7 16 3 19 -45 -69 -71 -74 -59 -20 -79 -17 -25 -43 -47 -66 -13 -52 -76 -73 -32 -2 -4 -30 -58 -61 -68 -18 -72 -5 -12 -1 -65 -62 -41 -35 -24 -34 -33 -81 -37 -51 -64 0
67 31 63 58 15 38 11 27 7 42 25 69 47 52 77 79 60 -70 -21 -18 -66 -28 -23 -56 -3 -35 -72 -61 -17 -51 -37 -45 -50 -53 0
54 30 5 28 17 56 8 31 42 59 72 6 58 -74 -80 -64 -16 -55 -44 -12 -75 -24 -3 -62 -19 -29 -45 -49 -15 -63 -18 -61 -34 -71 -47 -2 -40 -51 -67 0
57 7 1 36 74 3 38 2 13 41 48 14 37 28 29 34 54 21 70 -39 -18 -66 -33 -81 -9 -64 -24 -51 0
53 5 33 7 43 60 59 69 8 40 -25 -70 -10 -62 -74 -76 -34 -52 -58 -46 -51 -42 -26 -48 -36 -15 -47 -44 0
29 3 28 34 71 46 37 40 23 68 2 9 73 69 39 12 51 20 -41 -32 -48 -54 -56 -57 -79 -74 -31 -66 -72 -76 -25 -55 -26 -4 -58 -63 -18 -75 0
8 75 73 40 43 12 47 67 50 58 28 19 55 24 32 78 65 1 27 80 61 41 66 35 68 44 5 72 34 30 81 16 76 38 37 48 79 -26 -11 -39 -56 -77 -52 -3 -21 -29 -25 -6 -17 -18 -33 -15 -54 -49 -51 -4 -69 -45 -14 -53 -62 -71 -9 -63 -60 -10 -70 -57 -59 -42 -31 -36 -64 -20 0
17 43 58 61 33 13 9 51 37 23 35 60 5 81 44 7 6 -42 -64 -8 -59 -28 -12 -77 -2 -1 -47 -57 -53 -38 -76 -24 -15 -22 -66 -27 -39 -40 -49 -80 -32 0
12 60 9 59 47 77 21 31 20 11 32 39 40 25 38 7 16 75 73 53 55 65 34 50 5 -37 -33 -56 -57 -64 -44 -67 -27 -17 -18 -22 -43 -23 -13 -70 -74 -45 -52 -3 -2 -58 -69 0
43 61 41 40 51 44 32 14 54 72 20 79 7 37 81 42 49 -46 -29 -1 -35 -31 -12 -77 -57 -2 -69 -10 -28 -21 -18 -63 -26 -8 0
37 64 78 69 29 17 51 15 19 53 33 23 7 40 79 45 50 6 13 52 58 34 32 67 14 70 18 76 -3 -66 -1 -2 -41 -36 -42 -65 -63 -8 -44 -81 -35 -27 -48 -10 -68 -62 -28 -25 -16 -49 -4 -20 -57 -30 -31 -61 -54 -77 -11 -80 -12 -60 -39 -26 -43 -22 -72 -59 -71 -74 -47 0
50 49 63 39 71 38 -24 -52 -37 -6 -19 0
71 69 20 44 3 70 45 60 -39 -66 -49 -51 0
53 67 35 65 46 -18 -58 -77 -79 -37 -23 -30 -29 -32 -3 -40 0
54 69 44 74 63 29 17 24 58 39 53 38 4 42 5 76 16 65 22 -30 -33 -67 -75 -60 -3 -51 -78 -2 -36 -37 -10 -47 -41 -64 -46 0
73 58 74 36 12 76 26 5 54 16 32 51 9 6 63 57 59 40 45 80 48 64 20 -35 -70 -1 -71 -67 -41 -38 -10 -50 -30 -24 -23 -13 -62 -21 -42 -72 -52 -22 -60 0
52 60 16 9 12 46 6 76 66 3 78 54 79 64 15 2 -26 -11 -7 -62 -67 -37 -57 -63 -72 -18 -43 -34 -41 -24 -25 0
48 32 58 7 50 51 56 63 22 8 81 27 25 20 64 3 16 61 74 21 42 41 37 60 18 44 28 73 76 57 9 13 -17 -14 -65 -79 -75 -6 -43 -29 -49 -30 -11 -39 -38 -12 -72 -36 -1 -77 -35 -55 -40 -10 -33 -62 -68 -5 -71 -2 -47 -66 -80 0
61 15 14 39 58 29 57 71 19 17 60 7 40 59 54 42 33 47 49 41 13 27 37 16 53 81 -32 -25 -3 -77 -72 -74 -26 -45 -66 -48 -62 -35 -78 -38 -21 -56 -12 -50 -70 -6 -1 -24 -76 -73 -20 -69 -68 -5 -31 -22 -52 -67 -79 0
25 63 60 35 76 61 78 13 72 75 1 56 -7 -9 -33 -18 -6 -46 -44 -36 -77 -47 -70 -4 -81 0
40 63 62 55 25 59 42 27 23 15 32 58 49 18 34 17 71 7 39 8 16 28 51 64 35 78 9 38 10 67 30 33 -29 -69 -50 -48 -72 -46 -70 -47 -57 -20 -24 -81 -12 -37 -22 -61 -52 -14 -65 -75 -26 -66 -68 -60 -77 -2 -79 -45 -3 0
1 15 25 33 57 64 39 70 72 22 41 76 6 35 55 71 46 10 52 56 80 32 63 75 44 73 61 45 9 18 34 19 66 23 40 14 37 26 50 8 68 69 -47 -28 -12 -48 -65 -58 -21 -81 -67 -60 -79 -51 -78 -29 -38 -20 -54 -30 -3 -13 -42 -16 -11 -7 -27 -59 -43 -5 0
41 55 -67 -66 0
78 69 35 55 44 13 11 28 15 31 45 46 14 58 47 81 12 24 30 21 74 23 39 71 40 4 80 33 61 34 73 20 48 -56 -5 -75 -42 -64 -77 -72 -51 -37 -9 -1 -26 -59 -8 -67 -6 -68 -16 -57 -43 -25 -50 -3 -17 -63 -79 -76 -18 0
1 56 78 30 2 57 27 13 33 25 29 45 74 75 66 20 81 -19 -73 -51 -16 -63 -10 -5 -46 -71 -64 -53 -3 -39 -31 -15 -21 0
9 27 66 38 65 20 22 71 47 40 7 -68 -11 -73 -32 -29 -57 -14 -31 -78 0
33 56 4 37 64 19 52 29 73 44 3 49 40 1 78 14 74 54 48 6 51 -66 -55 -43 -9 -47 -63 -15 -61 -62 -46 -60 -71 -45 -58 -41 -5 -77 -36 -32 -7 0
76 7 52 39 29 16 70 36 26 75 77 14 59 10 53 46 32 2 38 42 11 6 35 57 33 55 58 45 50 80 81 48 13 8 25 27 61 74 1 15 69 -78 -3 -65 -67 -66 -44 -9 -22 -5 -40 -23 -71 -12 -20 -21 -62 -17 -60 -79 -18 -43 -54 -41 -63 -68 -34 -64 -73 -37 -51 -72 -19 -30 -56 -49 -47 -31 0
4 6 80 48 56 1 34 5 57 44 74 75 30 71 -58 -47 -49 -40 -18 -11 -31 -33 -53 -79 -32 -59 -43 0
71 9 42 33 70 -36 0
38 53 44 35 51 14 79 46 2 70 62 54 10 33 52 23 55 15 7 43 47 12 -81 -22 -77 -16 -63 -25 -61 -66 -78 -68 -60 -9 -18 -19 -11 -41 -5 -76 -58 -31 -28 0
48 16 41 73 38 -45 -29 -80 -17 -52 0
36 10 31 33 5 18 71 64 30 40 74 47 17 26 50 11 21 6 62 4 22 19 73 27 29 8 81 16 2 7 35 54 69 32 1 59 57 49 65 77 20 75 41 37 38 -72 -66 -34 -43 -48 -80 -78 -15 -56 -42 -51 -55 -9 -12 -61 -58 -39 -24 -13 -67 -44 -46 -76 -53 -70 -79 -25 0
29 14 58 13 43 5 18 21 77 34 57 54 30 45 71 7 48 12 73 2 67 72 47 55 49 36 79 70 80 66 65 59 74 22 41 56 -68 -78 -6 -15 -26 -40 -75 -35 -20 -31 -32 -60 -19 -8 -42 -52 -61 -9 -28 -69 -1 -4 -10 -17 -63 -3 -51 -11 -27 -76 0
29 19 34 74 42 16 46 68 60 70 41 44 20 11 64 51 62 40 32 55 18 81 3 5 26 23 65 67 52 78 33 58 57 45 17 24 -12 -15 -4 -27 -79 -38 -21 -54 -1 -2 -14 -10 -25 -35 -28 -63 -43 -72 -6 -36 -80 -31 -7 -37 -69 -30 -73 -75 -13 -71 -66 -9 -77 -49 0
35 21 55 42 68 36 12 -30 -17 -53 -15 0
45 25 40 48 24 38 71 11 65 55 22 64 52 37 53 70 42 63 33 21 16 59 34 10 72 56 76 60 28 81 20 -51 -58 -29 -79 -8 -12 -66 -62 -41 -73 -69 -15 -17 -43 -1 -46 -50 -26 -35 -49 -78 -74 -57 -9 -31 -18 -68 -80 0
53 72 42 45 56 59 54 37 65 58 40 68 2 33 27 8 77 51 81 69 50 48 78 4 19 12 18 29 70 25 3 44 6 61 28 38 60 66 -74 -52 -79 -80 -57 -32 -41 -64 -24 -55 -62 -10 -13 -47 -1 -16 -26 -21 -23 -22 -14 -30 -7 -11 -43 -5 -35 -9 -34 -31 -63 -67 -75 -17 -20 -15 0
43 80 35 39 79 74 55 66 6 47 15 67 33 28 37 18 69 63 7 77 70 29 -65 -27 -49 -11 -14 -2 -23 -51 -4 -41 -61 -59 -22 -57 -36 -45 -53 -17 -38 -60 -75 -76 -30 -34 -81 0
12 52 9 53 31 27 34 28 47 76 65 14 43 50 29 -7 -78 -64 -60 -39 -63 -6 -57 -3 -40 -59 -62 -2 -68 -33 -35 -38 -72 -41 -79 -71 0
72 33 57 8 4 19 -45 -1 -78 -61 -63 -27 -13 -65 -66 -64 -11 -68 -32 -24 0
27 72 1 26 78 24 55 37 19 28 65 45 68 40 46 62 33 76 67 31 57 36 61 41 75 49 18 58 66 30 81 23 50 11 8 52 12 54 20 80 15 70 -74 -77 -79 -71 -32 -44 -6 -2 -51 -63 -60 -29 -22 -4 -34 -48 -17 -47 -16 -9 -10 -25 -69 -38 -56 -13 -43 -59 -42 -7 -39 -5 -35 -21 -73 0
73 3 30 60 58 11 71 39 68 6 44 55 69 74 28 57 62 16 38 32 45 48 80 1 2 63 42 14 34 64 29 20 12 77 33 41 -78 -70 -23 -52 -36 -24 -26 -7 -76 -18 -59 -37 -54 -43 -61 -75 -47 -5 -31 -21 -67 -8 -46 -27 -49 -81 -25 -40 -9 -66 -15 -10 -65 -51 -19 -50 -22 -17 0
58 -31 -70 -21 -44 0
34 28 47 68 73 75 9 60 70 8 32 27 54 6 66 14 17 13 44 38 61 29 21 15 57 1 2 56 43 33 48 37 50 77 69 30 39 46 31 58 59 -78 -67 -26 -20 -19 -65 -80 -55 -49 -3 -72 -35 -16 -5 -11 -22 -71 -25 -18 -10 -42 -36 -41 -45 -40 -53 -62 -81 -24 -63 -79 -52 -51 -64 -23 -7 -12 -74 0
20 56 39 48 7 46 70 81 1 26 37 -53 -67 -71 -49 -25 -36 -21 -54 -3 -15 -80 -8 -9 -63 -11 -64 -78 -27 -28 -51 -77 -5 -10 -6 -12 -16 0
81 6 74 44 50 28 45 52 76 10 25 47 60 62 7 54 55 73 26 65 19 17 67 29 2 36 49 24 64 32 31 77 18 58 -21 -72 -34 -43 -56 -3 -14 -35 -5 -38 -13 -66 -68 -79 -9 0
26 52 68 47 30 55 8 11 2 72 12 16 13 14 46 35 1 38 4 31 63 32 76 24 22 61 5 50 -59 -64 -33 -58 -75 -40 -69 -43 -10 -65 -49 -6 -62 -54 -21 -60 -36 -67 -80 -78 -9 -48 -25 -73 -17 -57 -28 -81 -66 -53 -29 0
56 26 -35 0
74 10 8 52 45 73 80 28 3 69 78 72 55 7 41 34 15 65 25 58 70 64 21 62 51 43 4 13 60 20 66 79 47 48 37 81 17 9 30 -77 -18 -2 -27 -61 -6 -5 -42 -35 -22 -33 -24 -23 -38 -31 -59 -68 -39 -19 -40 -76 -56 -14 -49 -63 -26 -1 -75 -71 -44 -50 -57 -46 -36 -67 -16 -29 -32 0
43 8 11 9 -19 -67 -14 0
78 11 45 32 55 67 74 19 23 33 8 39 46 43 51 70 50 24 6 68 -10 -60 -34 -40 -4 -56 -54 -57 -44 -41 -65 -28 -25 -36 -42 -52 -1 -29 -14 -9 -17 -71 -31 -76 -5 -21 -12 -64 -66 -62 -61 -81 0
46 36 60 22 24 -70 -47 -5 -14 -63 -31 -34 -45 -33 -75 -59 0
78 2 74 27 24 23 62 68 56 25 50 38 -20 -80 -76 -81 -44 0
25 44 16 -27 -53 -43 -64 -40 -29 -51 0
76 20 72 10 63 7 78 1 45 54 25 -5 -14 -13 -27 -56 -80 -42 -46 0
32 66 31 48 15 70 24 59 28 50 6 -27 -9 -76 -65 -73 0
74 16 72 66 48 24 34 56 54 41 29 20 43 68 3 18 12 15 37 52 32 23 11 10 58 71 -75 -9 -61 -79 -57 -40 -59 -27 -42 -36 -30 -49 -64 -38 -53 -69 -13 -55 -81 -50 -21 -47 -65 -67 -33 -77 -14 -22 0
68 43 6 46 73 55 67 48 -52 -8 -28 -60 -14 -12 -51 -81 -47 0
53 66 18 61 70 38 14 22 24 73 47 37 -4 -15 -49 -46 -8 -39 -1 -67 -51 -44 -23 -25 -2 -60 -28 -3 -69 -13 0
77 58 15 79 9 36 21 -48 -10 -50 -37 -19 -44 -38 -75 -65 0
24 4 30 38 73 21 9 70 65 69 50 62 66 77 5 51 -57 -28 -44 -48 -23 -19 -75 -42 -81 -64 -17 -67 -53 -80 -7 -35 -47 -10 -37 -3 -49 -14 0
37 44 71 58 -27 -53 -5 -15 0
9 3 50 12 13 7 18 70 -25 -8 -63 -49 -76 0
9 43 12 75 81 25 46 64 72 27 20 5 54 7 28 42 39 18 66 63 47 1 19 80 37 6 -24 -29 -38 -22 -4 -16 -70 -59 -40 -2 -74 -34 -76 -41 -21 -30 -67 -11 -36 -48 -61 -58 -3 -50 -62 -33 -8 -44 0
52 1 44 79 58 38 77 16 67 37 28 3 27 -15 -80 -70 -14 -57 -62 -66 -9 -30 -22 -32 -69 -35 -60 -11 -55 -54 -68 0
81 78 30 79 34 72 52 37 36 23 69 14 41 20 21 45 17 75 2 12 70 6 7 58 65 76 16 28 61 26 11 49 71 67 -3 -77 -18 -32 -19 -60 -68 -46 -5 -13 -56 -29 -42 -47 -27 -38 -55 -15 -63 -54 -51 -1 -50 -48 -43 -10 -64 -24 -4 -73 -74 -62 -59 -22 -53 0
30 52 34 33 61 46 29 39 40 1 35 54 71 15 66 76 17 80 7 48 13 -44 -37 -64 -59 -4 -49 -47 -25 -67 -50 -70 -78 -79 -63 -32 -27 -20 -31 -26 -69 0
43 45 65 50 27 74 13 23 57 49 42 54 22 44 73 81 35 59 5 -48 -64 -10 -51 -39 -29 -72 -33 -9 -18 -28 -36 -32 -40 -24 -71 -67 -79 -37 -1 -68 -56 -63 -77 0
68 44 21 28 48 61 74 76 42 33 58 81 20 31 59 56 26 23 80 17 -43 -3 -1 -47 -71 -12 -65 -6 -64 -72 -4 -24 -57 -50 -67 -27 -69 -13 -55 -25 -77 -35 0
38 68 66 58 13 17 7 34 60 23 46 62 78 32 16 11 27 41 -14 -28 -12 -8 -81 -43 -69 -39 -51 -33 -42 -59 -71 -61 -1 -64 -26 -70 -5 -72 -36 0
32 7 41 28 42 72 19 27 21 73 48 62 4 -64 -2 -38 -56 -70 -47 -24 -12 -30 -76 -57 -15 -49 -9 0
16 42 -41 -29 -20 0
15 69 34 32 74 53 54 43 40 10 56 6 44 26 57 19 47 -59 -80 -64 -71 -65 -61 -13 -1 -27 -52 -29 -79 0
37 50 14 72 66 44 30 11 32 81 31 4 17 60 9 29 59 62 70 23 43 27 55 77 20 57 48 65 -41 -12 -21 -35 -8 -24 -22 -67 -78 -18 -49 -5 -13 -28 -40 -80 -69 -56 -47 -45 -19 -2 -46 -16 -6 -51 -39 -38 -42 -64 -52 -25 0
49 58 37 12 3 15 59 34 79 41 27 39 5 23 -55 -30 -13 -69 -73 -42 -28 -33 -72 -68 -77 -20 0
69 2 0
57 40 1 51 58 34 67 14 52 63 17 28 10 48 60 44 3 33 39 75 77 36 20 50 55 -31 -62 -80 -18 -64 -72 -7 -9 -13 -2 -19 -47 -65 -71 -38 -23 -24 -70 -25 -29 -30 -73 -37 -26 -74 -6 -59 -49 0
43 40 46 15 44 18 72 -48 -81 -54 -14 -53 -2 0
12 53 50 41 74 38 1 24 15 70 -77 -34 -48 -6 -81 -73 -45 -21 -65 -18 -10 0
72 57 77 1 62 47 60 43 36 15 55 38 8 35 50 7 69 67 29 21 12 26 68 -16 -61 -49 -39 -81 -46 -33 -78 -42 -4 -74 -64 -6 -54 -40 -51 -76 -80 -34 -48 0
9 4 38 2 46 56 54 36 61 44 -3 -8 -10 -19 -58 -25 -78 0
49 41 40 24 51 7 81 37 77 43 15 21 25 42 56 80 1 -52 -5 -12 -78 -71 -75 -47 -33 -64 -73 -30 -39 -60 -28 -66 -29 -4 -6 0
81 12 59 79 11 32 54 45 33 77 14 25 71 -44 -34 -37 -19 -31 -9 -42 -17 -46 0
32 29 72 21 44 56 1 -64 -35 -69 -11 -7 -49 -73 -59 -25 -50 0
51 61 63 5 32 56 67 21 23 46 58 37 50 47 -34 -13 -68 -24 -53 -49 -6 -71 -1 -31 -52 -66 -14 -80 -69 -57 0
46 49 16 71 36 59 28 32 41 33 45 68 64 3 38 27 30 39 18 4 1 15 -47 -54 -10 -58 -37 -8 -25 -23 -13 -22 -5 -43 -81 -42 -6 -73 -65 -51 -75 -26 -11 -17 -79 -57 -14 -52 -76 -9 0
30 22 43 28 21 2 16 -6 -78 -68 -27 0
32 65 72 30 42 35 36 20 69 49 74 27 8 14 18 10 17 66 73 -63 -33 -62 -57 -56 -34 -29 -61 -41 -22 -76 -67 -46 -51 -79 -47 -19 -64 -52 -13 -6 -77 0
39 23 2 43 56 28 10 79 62 27 59 71 33 22 30 -70 -34 -45 -12 -11 -40 -26 -80 -63 -81 -46 -32 -44 -8 -55 -52 -25 -73 -47 -78 -66 -54 -61 -35 -57 -15 -6 -7 -3 -67 -24 -4 -76 -38 -72 0
65 37 24 28 67 8 42 20 6 43 18 47 34 38 61 1 66 44 33 52 13 63 41 17 30 50 9 77 27 51 75 78 3 -26 -69 -56 -45 -49 -68 -79 -64 -73 -31 -57 -39 -62 -29 -46 -80 -76 -21 -14 -10 -74 -2 -36 -35 -48 -7 -15 -32 -72 -55 -40 -22 -12 -58 0
4 27 71 69 47 20 14 16 37 32 2 74 76 38 34 15 13 78 48 28 60 11 31 62 -25 -52 -55 -49 -26 -66 -36 -21 -10 -29 -33 -3 -61 -67 -42 -24 -6 -7 -22 -56 -75 -30 -59 -19 -54 -18 -58 -40 -43 -17 -12 0
55 70 61 -59 -25 -65 -71 -14 -43 -37 -4 0
72 71 41 40 29 -75 -4 -15 -35 -61 -9 -1 0
23 41 50 40 13 7 14 81 5 45 78 16 21 28 9 30 57 54 71 15 63 68 8 3 37 60 38 61 55 26 -46 -19 -42 -43 -25 -20 -6 -69 -79 -34 -80 -72 -70 -48 -12 -73 -36 -49 -67 -10 -59 -74 -51 -56 -47 -35 -62 -18 -32 -2 -44 -31 0
73 27 35 61 8 4 76 75 44 39 42 47 12 71 15 66 6 63 31 32 38 46 56 65 70 40 43 -28 -36 -67 -5 -9 -79 -20 -22 -34 -60 -78 -51 -74 -2 -18 -24 -26 -54 -17 -72 -64 -81 -13 -52 -33 -21 -37 0
71 30 -65 -40 0
38 39 12 10 33 4 35 18 2 68 75 11 58 49 69 56 74 19 57 50 17 24 53 48 7 61 63 13 59 30 15 3 32 62 79 -70 -34 -31 -73 -80 -25 -37 -67 -72 -54 -29 -51 -20 -55 -16 -76 -6 -77 -47 -43 -36 -78 -60 -52 -45 -5 -44 -42 -41 -26 -64 -28 -40 0
8 33 44 54 35 23 53 22 3 32 24 21 65 81 41 76 40 29 74 19 39 51 71 16 64 17 45 73 38 14 67 72 42 61 57 26 37 36 7 78 70 27 10 6 -18 -15 -1 -12 -63 -25 -20 -46 -48 -31 -77 -9 -30 -11 -34 -28 -52 -59 -69 -56 -75 -58 -62 -49 -13 -4 -5 -55 -66 -43 -68 -50 -2 -60 0
78 16 32 69 20 31 11 56 77 5 35 7 33 30 4 8 52 26 63 36 10 76 27 59 34 44 28 53 45 23 -41 -3 -73 -13 -74 -51 -55 -75 -72 -49 -81 -2 -12 -29 -54 -50 -58 -14 -68 -40 -67 -21 -46 -70 -6 -80 -71 -37 -42 0
8 35 37 29 79 24 22 43 -72 -1 -77 -21 -31 -28 -14 -66 0
7 66 56 57 70 20 64 45 9 75 71 61 46 -63 -5 -50 -33 -43 -30 -8 -4 -14 -29 -24 -11 -54 -37 -22 -60 -19 -52 0
58 15 30 35 21 67 9 61 20 76 19 70 78 6 48 40 81 65 51 55 14 12 25 39 32 57 24 22 46 1 66 28 71 63 79 8 34 53 59 -75 -11 -56 -31 -23 -69 -13 -54 -52 -16 -80 -60 -37 -68 -44 -33 -47 -17 -62 -41 -10 -5 -77 -73 -72 -45 -4 -27 -74 -64 -42 -38 -49 -43 -7 -18 -50 -29 -3 -36 0
23 6 7 12 48 66 79 76 42 11 34 3 33 36 30 77 16 29 19 50 35 39 10 8 65 70 53 40 14 21 57 60 55 18 -5 -20 -71 -81 -9 -17 -74 -58 -80 -44 -32 -45 -15 -63 -38 -2 -51 -62 -59 -31 -28 -68 -56 -64 -54 -37 -26 -43 0
61 35 18 13 56 43 71 41 29 23 1 40 58 47 31 33 59 20 73 44 55 36 74 52 12 -72 -79 -67 -76 -21 -42 -51 -68 -10 -24 -5 -54 -34 -60 -57 -4 -2 -46 -63 -11 -78 -50 -53 -45 -25 -39 -30 -15 -75 -64 -49 -77 0
49 39 3 32 34 55 9 27 24 61 52 54 50 46 62 29 75 33 74 77 -67 -5 -8 -15 -70 -23 -12 -2 -35 -45 -30 -72 -38 -17 -51 -36 -65 -41 -66 -6 -37 -22 -80 -59 -7 -40 -20 -60 -42 -31 0
78 51 44 68 21 41 45 23 80 59 19 33 67 26 12 25 30 34 56 81 2 69 18 61 70 49 52 79 73 54 74 29 -64 -20 -66 -1 -15 -3 -28 -47 -57 -48 -6 -46 -16 -39 -76 -11 -31 -75 -72 -43 -42 -32 -65 -8 -55 -9 -63 -7 -38 -24 -77 -13 -4 -50 -58 -22 -5 0
30 6 52 16 40 62 26 47 53 19 24 2 66 79 59 57 10 23 15 72 8 73 63 29 -32 -64 -11 -13 -37 -76 -77 -1 -36 -70 -55 -41 -27 0
56 3 69 41 65 27 80 58 9 52 14 51 16 70 39 31 55 23 60 42 77 64 68 49 45 25 15 79 78 8 37 59 28 62 72 33 21 38 81 74 -61 -48 -1 -75 -22 -43 -40 -11 -12 -17 -32 -36 -46 -53 -34 -24 -50 -35 -71 -54 -66 -26 -13 -73 -44 -6 -67 -19 -7 -57 -5 -20 0
49 50 22 51 5 52 72 74 2 -11 -16 -18 -6 -81 -59 -71 -56 -38 -33 -55 -25 -34 0
48 61 68 42 8 36 44 -78 -47 -38 -62 -4 -11 -63 -18 -49 -39 0
62 55 39 80 58 54 13 49 76 64 69 73 9 59 2 26 5 43 12 32 36 74 15 40 19 75 48 -37 -42 -30 -27 -57 -10 -61 -1 -72 -35 -18 -31 -60 -33 -38 -47 -66 -24 -53 -56 -63 -16 -17 -67 -34 -21 -65 -22 -68 0
20 66 70 25 28 64 54 56 16 55 19 61 53 75 34 62 36 37 41 11 1 74 3 32 17 -59 -49 -65 -33 -44 -31 -79 -29 -80 -10 -7 -58 -5 -38 -23 -69 -51 -9 -46 -57 -18 -42 -78 -40 0
57 56 52 17 40 1 79 25 14 2 4 51 28 63 76 39 -50 -10 -67 -20 -16 -29 -24 -13 -81 -72 -43 -45 0
50 54 76 11 23 64 63 57 20 3 5 12 15 39 38 46 53 2 58 -44 -10 -47 -14 -42 -8 -79 -18 -9 -21 -31 -7 -45 -80 -75 -26 -25 -13 -40 -62 -37 -43 0
22 3 25 43 24 39 65 60 35 18 5 21 7 57 38 32 41 81 79 78 66 61 54 53 -47 -19 -17 -44 -20 -75 -63 -13 -48 -52 -70 -42 -40 -9 -64 -55 -56 -12 -27 -2 -8 -69 -77 -68 -62 -28 -26 -67 -4 -58 -71 -33 0
9 67 20 76 45 38 6 4 17 -12 -48 -54 -68 -56 -79 -70 -58 -80 -30 -15 -32 -49 -75 0
49 39 64 15 33 50 47 61 46 29 31 35 51 40 21 74 32 57 14 68 18 9 -1 -24 -76 -72 -34 -56 -66 -26 -80 -16 -79 -78 -45 -71 -75 -5 -7 -52 -28 -3 -13 -77 -11 -20 -53 -42 -41 -27 -25 -60 0
53 75 14 73 43 3 51 79 67 49 66 33 62 10 41 47 60 54 37 -55 -13 -5 -25 -48 -7 -4 -36 -30 -81 -64 -35 -77 -12 -52 -17 -20 -56 -15 -40 -23 -59 0
35 75 32 76 74 10 1 34 77 66 12 46 2 33 22 51 57 49 17 38 54 73 18 68 65 -59 -13 -70 -72 -28 -40 -30 -50 -61 -58 -23 -9 -6 -67 -44 -24 -36 -11 -43 -14 0
52 29 64 22 74 -15 -18 -31 -77 0
32 31 63 64 11 12 14 27 18 15 48 58 39 46 53 78 45 42 77 59 40 69 21 37 22 50 54 5 72 23 10 36 13 33 -76 -7 -35 -20 -75 -9 -25 -62 -71 -3 -74 -34 -47 -51 -19 -61 -60 -57 -66 -73 -67 -16 -56 -52 -4 -70 -81 -68 -44 -80 -2 -26 -8 -38 -24 -30 -65 -43 -17 -79 -49 -29 -41 -1 0
52 29 48 64 50 25 33 10 42 76 58 12 71 31 39 56 45 21 69 78 74 17 35 9 7 1 37 18 2 32 63 -6 -70 -8 -38 -40 -79 -54 -5 -73 -19 -72 -28 -59 -24 -3 -81 -41 -15 -11 -62 -16 -14 -55 -30 -49 -67 -51 -4 -36 -34 -46 -80 -23 -68 -77 0
10 37 81 69 29 -24 -34 -14 0
21 11 68 61 77 12 19 49 56 6 18 15 73 35 23 53 27 14 16 4 22 45 46 57 78 31 44 51 67 33 32 25 1 76 72 50 54 58 52 2 -60 -55 -71 -24 -13 -29 -17 -37 -8 -81 -40 -48 -36 -26 -42 -75 -47 -7 -79 -59 -63 -9 -66 -30 -5 -64 -28 -34 -3 -62 -10 -80 -20 -43 -74 -69 -38 -70 -39 0
75 43 8 36 41 17 13 80 10 56 29 34 50 57 -66 -16 -19 -65 -30 -74 -54 -15 -71 -28 -39 -72 -21 -42 -73 0
70 20 56 42 62 10 53 23 18 19 39 40 16 33 -60 -29 -45 -6 -7 -48 -15 -38 -73 -36 -76 -13 -63 -46 -2 0
71 36 60 77 21 66 54 65 14 76 42 75 23 26 10 5 53 72 63 16 41 73 45 62 29 52 49 48 67 81 13 68 3 24 -28 -78 -38 -34 -61 -25 -56 -80 -51 -15 -79 -43 -1 -18 -64 -6 -59 -37 -74 -33 -8 -55 -27 -58 -17 -57 -44 -32 -69 -11 -31 -2 -50 -30 -20 -40 -9 -12 -4 0
56 57 29 19 55 20 53 51 36 25 31 32 22 13 54 23 16 39 11 79 14 35 40 8 28 38 59 21 64 81 3 45 15 34 74 68 -12 -7 -73 -77 -24 -75 -63 -43 -72 -67 -10 -17 -41 -65 -66 -76 -42 -5 -62 -44 -1 -46 -70 -49 -60 -80 -58 -9 -52 -27 -50 -69 -47 0
78 49 38 13 51 76 64 50 10 73 55 12 44 45 53 66 46 71 65 39 69 25 23 5 47 17 6 58 8 29 62 21 28 -48 -1 -40 -59 -22 -68 -52 -35 -36 -67 -18 -34 -79 -63 -31 -4 -61 -33 -57 -16 -11 -26 -7 -41 -77 -54 -27 -70 -81 -19 0
25 38 50 78 21 26 79 17 45 61 42 60 11 5 56 10 64 27 75 67 69 -14 -55 -51 -35 -30 -9 -15 -52 -7 -29 -41 -2 -57 -34 -54 -73 -68 -22 -66 -16 -80 -32 0
73 26 14 -64 -5 -59 -33 -36 0
35 54 77 59 2 76 74 51 48 16 63 1 22 53 70 4 9 66 30 78 17 56 58 15 14 3 57 20 26 44 41 21 73 5 45 18 -23 -39 -75 -42 -79 -7 -67 -55 -68 -6 -27 -65 -28 -64 -19 -33 -47 -24 -81 -12 -25 -36 -11 -8 -13 -38 -10 -46 -69 -62 -61 -80 -34 -71 -72 -50 -60 -40 -43 -37 -52 -32 0
76 -16 -8 -69 -80 0
68 35 25 40 23 24 74 65 19 10 73 58 71 32 12 18 11 76 38 45 26 77 50 15 62 27 3 63 47 41 -39 -29 -54 -22 -53 -70 -14 -59 -37 -33 -60 -30 -42 -28 -21 -69 -1 -78 -20 -56 -80 -34 -57 -5 -31 -2 -7 0
