c NeuroCodeBench 2.0 CNF formula with verdict Sat
p cnf 56 123
25 38 27 46 24 40 37 18 6 56 33 42 53 13 7 41 -31 -30 -43 -55 -48 -8 -14 -20 -26 -5 -47 -11 -10 -28 -19 -39 -15 -17 -29 -32 -4 -9 0
8 30 19 40 51 14 32 37 -41 -56 -27 -52 -31 -25 -17 -7 -15 -54 -42 -13 0
16 17 20 54 45 37 18 19 11 15 5 4 24 29 41 22 28 50 40 23 47 -14 -52 -33 -25 -12 -46 -49 -34 -44 -31 -9 -10 -39 -42 -6 -26 -21 -53 -32 -2 -38 -27 -3 -48 -13 -8 -30 -51 -35 -43 0
15 42 22 3 45 17 50 4 39 25 53 7 43 33 32 28 27 21 24 36 14 46 18 9 8 35 49 -55 -47 -11 -19 -12 -23 -41 -34 -26 -2 -48 -54 -31 -1 -44 -30 -5 -6 -16 -38 -37 -51 0
31 48 46 38 -9 -35 0
37 9 13 40 -16 -4 -5 -31 -30 -35 -44 -54 -51 0
48 14 46 3 24 -18 -50 -22 -53 0
13 55 -25 0
52 31 40 18 24 38 47 53 -20 -7 -8 -39 -49 -11 -26 -42 -56 -43 -16 -13 -36 0
12 32 23 11 24 21 3 56 -41 -53 -52 -10 -42 -49 -19 -20 -16 -51 -46 -22 -34 -45 -36 -40 -33 -30 -26 -2 -38 -50 -37 0
36 12 40 25 47 3 27 24 35 49 37 45 54 32 -29 -22 -43 -9 -17 -2 -11 -13 -18 -41 -5 -15 -4 -8 -34 -7 -48 -14 -6 -23 -38 -46 -55 -19 -1 -56 -50 -39 -30 0
44 35 25 28 -24 -7 -17 -26 -33 -31 -18 0
41 48 4 29 22 51 7 27 16 30 24 12 54 49 40 28 56 32 5 39 19 53 13 10 11 -18 -20 -44 -2 -42 -55 -43 -35 -3 -33 -9 -25 -36 -23 -46 -37 -47 -1 -52 -8 -6 -17 -50 -15 -26 -34 -38 -45 -31 0
42 11 29 26 18 17 -56 -39 -34 -15 -20 0
4 21 23 44 35 12 1 53 38 45 24 17 20 13 -31 -33 -28 -36 -16 -48 -41 -32 -52 -54 -15 -10 0
47 30 6 9 36 54 56 14 55 -12 -22 -45 -35 -16 -46 -49 -42 -40 -15 -25 -5 0
31 43 41 46 45 51 17 19 35 4 13 24 1 23 15 5 18 49 14 -16 -8 -56 -44 -30 -36 -55 -39 -6 -32 -38 -11 -12 -3 -48 -21 -54 0
37 17 43 33 29 13 56 52 49 27 39 32 11 31 3 40 10 1 9 48 18 4 50 34 14 28 -36 -16 -54 -30 -41 -21 -45 -51 -44 -2 -46 -25 -55 -12 -20 -5 -38 -47 -35 -26 -15 -53 -19 -7 -24 0
39 2 36 6 47 43 14 45 38 -11 -56 -54 -9 -17 -4 -21 -20 -12 -33 -50 -25 -19 -49 -34 0
37 26 54 24 50 1 40 42 -20 -21 -29 -19 -17 -49 -15 -39 -9 -31 -32 0
23 32 8 52 7 11 22 25 4 37 34 30 27 35 9 2 56 38 29 49 -54 -20 -42 -55 -40 -48 -51 -18 -24 -46 -19 -12 -21 -15 -36 -41 -28 -44 -17 -26 -14 -39 -43 0
44 41 29 1 23 4 51 3 42 26 25 -33 -55 -15 -46 -12 -21 -6 -16 -9 -28 -48 -31 -19 -34 -52 -10 -36 0
56 21 24 11 15 37 54 52 40 41 30 49 39 19 7 50 -20 -38 -45 -27 -18 -2 -5 -22 -34 -42 -25 0
7 41 9 10 22 53 40 17 32 43 25 42 21 -44 -8 -4 -56 -38 -49 -37 -28 -20 -3 -34 -35 -23 -2 -33 -13 -19 -29 -51 -54 -52 -45 -48 -14 0
18 11 43 12 36 13 41 4 25 32 55 28 44 16 51 52 35 15 34 24 14 39 1 -47 -17 -49 -23 -54 -56 -38 -6 -8 -31 -9 -19 -37 -7 -26 -3 -45 -50 -42 -22 0
21 56 19 49 1 29 32 30 42 15 -47 -22 -14 -26 -12 -8 -44 -53 -4 -16 -7 -20 -34 -6 -27 -23 0
56 34 32 33 18 36 31 4 6 8 17 43 30 -55 -2 -51 -15 -47 -10 -41 -1 -39 -12 0
46 11 53 38 50 12 44 23 15 33 17 29 4 37 30 28 54 42 13 5 26 45 51 18 10 27 2 6 -49 -14 -9 -32 -36 -7 -35 -39 -43 -3 -41 -55 -8 -31 -25 -1 -19 -52 -48 -47 -24 -40 -20 0
31 41 43 55 22 44 34 13 54 16 25 2 19 45 -32 -51 -15 -18 -47 -20 -52 -3 -10 -27 -14 -8 0
54 51 2 28 45 13 36 53 14 41 15 34 1 19 -20 -11 -16 -18 -5 -27 -48 -17 -46 -21 -47 -29 -56 0
26 43 5 49 18 17 8 46 31 44 54 14 48 39 2 51 7 9 4 24 41 -29 -35 -33 -45 -25 -53 -22 -32 -40 -3 -1 -20 -12 -37 0
14 39 53 49 45 44 48 25 47 55 10 46 17 34 18 56 -27 -41 -3 -43 -6 -16 -42 -32 -2 -26 -12 -28 -29 -22 -9 -24 -51 -8 0
35 0
40 34 15 -3 -8 -47 -30 0
3 43 2 32 38 31 50 33 36 56 20 4 14 12 25 42 34 9 54 28 -11 -10 -29 -7 -1 -48 -46 -16 -15 -55 -24 0
8 27 0
30 51 31 44 18 13 22 39 25 50 8 54 20 14 29 27 47 26 40 55 41 15 12 38 -24 -37 -2 -33 -32 -9 -16 -3 -23 -7 -6 -56 -35 -43 -52 -53 -42 -34 -1 -11 -5 -46 0
41 31 10 29 34 49 54 40 35 8 3 -45 -52 -6 -15 -33 -51 -19 0
2 6 37 8 4 12 1 42 39 25 18 41 48 50 10 54 53 13 33 22 23 -3 -51 -11 -56 -34 -17 -31 -44 -21 -52 -46 -7 -47 -29 -40 -24 -15 -5 -38 -55 -28 -20 -16 -14 -30 -9 -49 -35 -36 -26 -19 0
34 4 36 -3 -39 -6 -2 -19 -48 0
23 9 45 24 54 38 5 49 14 56 8 21 39 51 35 7 44 25 42 36 -18 -46 -17 -43 -2 -27 -32 -53 -11 -28 -3 -19 -50 -34 -48 -55 -37 -41 -29 -52 -33 0
45 31 -51 -1 -49 -22 0
33 39 19 17 31 7 46 41 48 27 30 3 4 56 -29 -22 -52 -49 -54 -18 -11 -28 -36 -8 -32 -53 -50 -51 -55 -35 -37 -43 -6 -13 -1 -25 -45 0
10 28 36 49 29 41 39 47 20 52 19 31 45 27 3 18 33 6 5 9 46 54 15 25 -24 -21 -51 -4 -23 -17 -43 -56 -12 -50 -53 -14 -11 -38 -7 -16 -30 -2 -34 -48 -26 -13 -55 -40 -22 -1 0
51 8 29 22 23 40 18 14 17 55 2 43 41 25 24 47 15 30 53 50 28 48 -46 -35 -5 -36 -11 -52 -27 -19 -13 -33 -6 -7 -12 -56 -44 -9 -20 0
31 37 48 9 22 6 51 19 2 7 8 10 41 27 -18 -54 -26 -56 -14 -15 -45 -23 -34 -29 0
29 33 22 11 -41 -23 -54 -43 -34 -20 -12 -18 0
7 24 53 32 51 45 11 36 33 35 9 56 48 29 40 55 4 44 2 28 46 17 5 38 -47 -54 -26 -49 -20 -23 -25 -6 -50 -13 -43 -16 -52 -22 -19 -8 -41 -31 -10 -42 -1 -18 -14 -37 -12 -21 -39 -3 -15 -27 0
56 16 37 28 45 32 9 14 52 5 7 38 15 40 42 11 49 29 3 2 10 35 24 30 -26 -43 -22 -54 -50 -31 -18 -34 -20 -19 -39 -23 -41 -1 -53 -46 -48 -25 0
42 8 2 27 -41 -5 -12 -45 -10 -39 0
51 50 38 25 31 8 17 22 -28 -9 -19 -7 -20 -40 -4 -29 -10 0
35 17 46 53 3 34 19 9 25 36 48 15 4 12 56 2 16 41 20 37 -33 -6 -26 -22 -43 -5 -23 -38 -24 -32 -11 -21 -52 -27 -31 -47 -1 -13 -45 -7 0
31 5 40 4 24 50 23 41 18 48 56 49 17 39 13 -35 -26 -29 -15 -12 0
38 43 49 13 51 37 41 56 21 18 8 48 52 6 44 27 22 14 -12 -34 -10 -40 -55 -5 -35 -25 -36 -33 -54 -16 -45 -9 -30 -23 -7 -26 -2 -17 -4 -39 -50 -20 -19 -32 -11 -29 0
8 20 14 38 7 53 1 44 43 21 48 6 -45 -3 -29 -51 -10 -52 -34 -36 -37 0
36 20 18 27 52 45 39 1 38 51 56 24 23 14 40 43 15 41 31 -42 -7 -54 -50 -10 -55 -26 -3 -34 -9 -47 -12 -44 -33 -21 -28 -13 -30 -35 -48 -8 0
13 3 -32 -7 -6 -47 -46 -10 -19 0
44 28 39 7 55 43 12 38 52 36 47 54 35 17 9 37 8 14 19 11 56 49 -25 -10 -30 -31 -40 -46 -51 -18 -45 -2 -3 -41 -33 -6 -48 -53 -13 -21 -16 -50 -27 -5 -1 -22 -15 -20 -34 0
10 48 36 34 3 18 52 15 44 26 54 49 45 -51 -2 -40 -14 -42 -22 -43 -25 -7 -32 -11 -6 -27 -12 0
25 18 54 21 50 47 8 7 56 15 10 32 -55 -11 -12 -35 -5 -41 -52 -9 -36 -13 -14 -39 -48 0
2 27 23 7 36 52 14 32 45 -11 -1 -51 -9 -42 -5 -6 0
27 47 56 19 2 40 38 51 28 55 7 12 -23 -52 -45 -31 -50 -43 -32 -41 -20 -46 -9 -54 -49 -25 -13 -44 0
3 54 49 47 43 51 35 22 1 15 29 32 19 44 26 -6 -30 -17 -2 -45 -21 -18 -31 -24 -53 -52 -23 -27 -25 -42 -38 -50 -7 -13 -10 -55 -8 -28 -46 -36 0
50 7 -1 0
54 38 39 2 7 51 41 53 34 30 48 22 21 8 6 56 24 15 -31 -9 -46 -23 -50 -42 -19 -45 -36 -14 -37 -33 -4 -52 -16 -10 -5 -29 -26 -35 -28 -44 -13 0
26 7 49 42 35 53 -33 -27 -44 -22 -34 -47 -50 -18 -55 -5 -14 0
28 2 33 27 5 36 49 19 16 22 -52 -21 -51 -37 -25 -55 -12 -48 -53 -18 -15 -13 -34 -8 -29 -43 -30 0
55 12 51 11 45 25 -37 -19 -23 0
6 19 2 7 24 42 35 14 40 49 31 -13 -26 -29 -56 -50 -27 -46 -11 -20 -45 -16 -32 0
55 27 16 6 25 52 49 3 -33 -13 -15 -28 -26 -43 -50 -31 -40 -4 -47 -38 -14 -37 -21 0
9 49 4 -50 -37 -15 -23 -34 -31 0
36 37 4 32 38 41 35 5 52 26 34 8 -10 -25 -31 -39 -18 -44 -22 0
35 53 17 28 50 4 30 15 41 8 23 38 44 11 34 37 42 32 18 5 10 1 47 56 16 43 2 36 26 21 14 19 54 51 -9 -45 -6 -39 -27 -55 -7 -13 -22 -24 -48 -52 -49 -46 -33 -29 -12 -25 -40 -3 -20 0
3 14 54 33 16 22 13 32 50 39 49 30 52 46 12 -29 -4 -17 -37 -23 -24 -47 -51 -15 -7 -48 -6 -28 -20 -34 0
38 2 46 51 33 41 21 42 29 44 19 30 26 9 45 23 47 25 39 13 34 27 52 8 4 17 3 -55 -15 -28 -16 -32 -24 -50 -11 -20 -48 -10 -14 -54 -36 -18 -35 -53 -56 0
2 23 50 51 21 1 -7 -46 -14 -24 -35 -22 -43 0
53 5 47 8 30 6 26 21 17 3 14 29 1 34 37 38 52 2 9 50 4 48 11 54 19 51 49 44 16 27 39 12 -13 -18 -28 -35 -7 -43 -10 -23 -40 -24 -32 -20 -56 -25 -45 -42 -22 -41 -31 -15 0
55 30 6 12 7 2 33 9 14 43 39 48 13 5 35 44 21 -20 -31 -40 -36 -42 -54 -32 -17 -50 -47 -11 -10 -18 -27 -19 -41 -51 -52 0
26 24 16 48 22 4 -1 -13 -43 -50 -6 0
39 34 27 7 17 43 2 42 33 14 50 37 45 19 3 47 29 1 21 53 46 5 49 -54 -35 -4 -30 -38 -40 -48 -28 -44 -32 -13 -41 -12 -23 0
38 23 26 40 9 29 15 22 28 24 51 42 8 46 41 56 27 50 30 47 2 14 48 33 6 7 18 19 54 11 10 -17 -55 -20 -43 -32 -21 -45 -37 -5 -52 -12 -36 -44 -31 -13 -25 -3 -1 -16 -4 -35 -39 0
38 4 21 12 26 52 45 50 3 37 48 -19 -22 -14 -10 -24 -39 -6 -47 -51 -29 -42 -34 -35 0
11 51 34 12 30 10 53 54 8 4 7 1 17 22 20 16 47 45 44 -39 -27 -2 -3 -29 -6 -35 -52 -56 -26 -48 -46 -5 -23 -32 -38 -40 -43 -36 -37 -42 0
16 12 15 32 20 -26 -45 -54 0
3 14 48 1 22 36 35 29 9 25 23 17 21 20 34 41 24 15 10 38 -28 -50 -45 -43 -8 -7 -4 -13 -40 -44 -55 -39 -27 -53 -5 -51 -31 -19 0
27 55 48 3 24 13 49 17 36 29 33 50 28 40 8 10 4 31 46 20 42 6 47 39 7 -15 -32 -26 -37 -1 -35 -43 -34 -44 -18 -21 -30 -54 -45 -25 -56 -23 -19 -5 -11 -16 -2 -14 -9 -12 -53 0
40 56 14 39 34 7 20 42 49 54 29 -1 -31 -43 -46 -2 -11 -27 -53 -5 -3 -52 -41 -30 -51 -9 -33 -36 0
50 3 39 -10 -35 -2 0
20 32 11 56 24 27 25 1 40 46 35 53 -50 -41 -17 -42 -16 -44 -31 -9 0
14 37 15 33 17 54 40 22 23 44 21 47 9 28 36 32 1 43 6 51 24 45 3 -29 -16 -12 -52 -10 -27 -55 -4 -26 -19 -53 -2 -5 -13 -7 -31 -11 -49 -56 -8 -34 -38 -20 -39 -35 -30 -48 0
17 4 41 1 21 53 51 20 52 34 26 46 54 48 -22 -36 -35 -37 -19 -38 -11 -50 -27 -32 -15 -31 -43 -44 -30 -14 -39 -40 0
21 32 -6 -44 -10 -20 0
27 36 29 9 -23 -2 -26 -44 0
32 38 40 29 17 46 4 49 28 48 39 42 53 26 33 10 54 15 19 45 20 36 34 27 37 9 -44 -41 -6 -47 -1 -13 -24 -51 -25 -7 -8 -56 -12 -55 -52 -23 -14 -50 -5 -11 -43 -30 -16 -21 -3 -31 -2 -35 0
5 29 18 16 -8 -51 -7 -12 -27 -21 -49 0
18 31 56 29 2 20 5 25 19 14 15 33 9 35 42 51 7 27 48 43 30 38 -47 -8 -53 -46 -21 -34 -50 -24 -39 -11 -28 -44 -10 -13 -54 -23 -37 -45 -26 -55 -6 -52 -22 -49 -3 0
42 24 31 54 51 47 -3 -39 -44 -35 -19 -52 -5 -53 -8 -1 -30 0
45 6 22 34 47 18 55 30 37 41 -3 -31 -14 -49 -42 -16 0
40 26 50 10 29 6 51 49 2 12 32 33 36 4 47 13 22 28 54 31 15 48 27 52 11 37 -35 -46 -3 -41 -42 -21 -9 -7 -39 -19 -38 -56 -34 -25 -43 -16 -20 0
30 20 24 4 21 18 53 1 55 -11 -3 -33 -37 -41 -56 -25 0
24 1 18 27 42 3 9 20 37 56 14 52 2 43 19 33 32 38 46 -35 -16 -6 -17 -23 -53 -39 -31 -4 -29 -45 -48 -40 0
5 -33 0
46 1 56 28 -9 -49 0
15 48 41 12 30 23 40 4 11 50 16 -31 -18 -29 -35 -6 -36 -54 -22 -24 -34 -7 -20 -25 0
47 31 33 46 44 16 34 1 28 49 19 52 26 35 43 21 27 17 18 30 32 25 51 23 42 14 54 2 -36 -10 -22 -12 -20 -29 -39 -3 -4 -6 -38 -8 -40 -37 -55 -45 -9 -11 -13 0
24 5 17 23 11 50 40 49 16 26 48 36 29 1 7 19 -33 -35 -51 -43 -14 -4 -31 -32 -21 -37 -45 -53 -15 -6 -3 -42 -12 -47 -39 -20 -34 -46 0
31 28 9 55 36 43 7 27 30 47 21 8 33 41 25 42 24 -26 -51 -1 -13 -44 -20 -32 -10 -29 -40 -19 -52 -54 -3 -17 -56 -46 -4 -6 -39 -14 -18 -16 -48 0
46 14 4 8 25 49 30 2 47 41 52 23 -42 -5 -29 -45 -54 -11 -34 -32 -9 -31 -51 -39 -15 -44 -13 -3 -27 -19 -36 0
29 1 39 42 25 27 44 3 56 6 2 48 49 35 16 -37 -33 -5 -22 -52 -18 -8 -19 -36 -10 0
52 14 47 41 53 8 31 -39 -21 -29 -44 -2 -7 -6 0
52 1 17 53 10 -18 -35 -21 -31 -36 -7 0
34 0
28 3 22 25 42 8 54 23 30 21 34 27 33 15 14 24 9 12 53 40 1 38 10 -31 -39 -35 -50 -43 -18 -37 -11 -41 -6 -47 -32 -46 -19 -48 -4 -56 -45 -52 -7 -17 -5 -44 -29 -16 -20 0
9 14 17 32 48 19 26 25 4 47 11 -5 -35 -16 -8 -36 -46 -50 -40 -33 -53 -49 -7 0
16 23 30 -50 -29 -22 -21 -13 0
40 31 36 11 25 41 47 17 33 29 49 30 15 4 35 1 45 32 27 12 -51 -19 -52 -18 -43 -5 -23 -26 -16 -54 -9 -14 -3 -38 -8 -2 -13 -21 -55 -48 -28 -42 -50 -24 -44 -39 -10 -7 -6 -20 -34 -56 -37 0
10 23 12 46 1 2 15 41 40 17 -8 -22 -52 -5 -53 -13 -31 -9 -45 -21 -7 0
50 25 19 29 48 2 41 -21 -49 -45 -23 -15 -5 -37 -36 -51 -31 -32 -10 -3 -40 -39 0
46 17 26 47 33 5 42 16 1 15 7 36 51 24 52 32 38 22 48 49 34 19 55 6 21 18 35 -56 -2 -27 -37 -29 -54 -45 -53 -39 -28 -50 -44 -9 -25 -3 -30 -40 -8 -20 -41 -13 -31 -43 -4 0
23 38 42 10 -30 -13 -26 0
6 42 20 10 11 7 37 43 19 21 36 39 51 54 22 44 3 35 24 4 -2 -13 -18 -38 -29 -52 -8 -50 -41 -17 -33 -55 -45 -1 -47 -16 -14 -34 -40 -27 -9 -23 -49 -46 -53 0
49 53 42 6 15 43 22 41 1 23 3 39 27 19 4 14 26 37 56 30 21 50 2 8 13 -48 -11 -38 -31 -46 -28 -5 -34 -18 -16 -45 -20 -10 -52 -51 -54 -40 -36 -55 -25 -9 -7 -47 -32 -35 -29 -44 -24 0
13 41 -54 -22 -19 -5 -34 -2 -50 -53 -51 0
