c NeuroCodeBench 2.0 CNF formula with verdict Sat
p cnf 37 252
7 35 28 5 20 15 18 19 2 32 37 36 -9 -11 -24 -34 -31 -29 -8 0
17 32 24 22 -34 -1 -25 -31 -21 -35 0
15 4 20 9 14 1 28 17 19 37 24 16 18 27 -30 -13 -10 -32 -33 -21 -8 0
19 15 35 37 7 12 3 27 6 11 22 8 -24 -2 -5 -14 -25 -1 -17 -4 -18 -33 -26 -31 0
3 19 15 27 23 25 6 35 -37 -8 -29 -26 -11 -12 -14 -33 -21 0
21 17 19 36 15 8 20 16 35 -13 -14 -10 -2 -31 -12 -23 0
2 12 17 26 3 37 31 4 7 29 -21 -33 -16 -14 -1 -25 -8 -19 -36 -34 -11 -28 -30 -35 -18 -5 0
14 26 18 5 20 36 -9 -29 -10 -23 -27 -34 -28 -37 -32 -25 -33 -19 0
19 18 31 33 28 34 21 2 -3 -32 -37 -23 0
7 31 18 -20 0
21 29 34 36 35 18 14 15 24 19 -6 -9 -1 -2 -27 0
26 35 12 21 2 36 10 24 7 29 32 4 -11 -5 -30 -17 -23 -28 -1 -27 -25 -14 -3 -13 -16 0
3 33 1 19 27 10 -7 -9 -18 -29 -11 -12 0
2 29 30 -12 -20 -24 -5 -19 0
36 25 24 21 30 20 22 19 11 -4 -10 -29 -17 -1 -23 -33 -12 -31 0
21 26 23 11 24 -7 -10 -22 -34 0
3 -15 0
6 27 13 19 11 9 20 7 36 32 -33 -5 -37 -8 -3 -12 0
2 19 22 24 26 1 32 14 11 16 31 -6 -34 -10 -23 -4 -25 -8 -13 -30 -5 -7 -9 -3 -12 -15 -28 -36 -27 -21 0
12 24 -17 -13 -31 -30 0
-8 0
13 29 27 33 18 -23 -24 -10 -36 -15 -20 -37 0
28 31 18 25 2 6 14 35 12 26 5 32 21 23 17 9 10 29 -15 -1 -3 -8 -20 -33 -19 -36 -24 0
15 10 28 -11 -1 0
13 32 4 29 26 35 2 33 31 21 1 36 9 28 7 27 16 17 11 -5 -6 -25 -37 -3 -24 -19 -22 -34 -12 -14 -20 -30 0
20 24 11 2 28 -33 -13 -7 0
28 21 1 18 20 15 6 37 7 -9 -14 -31 -24 -17 -23 -12 -25 -5 -19 -22 -29 -32 -8 -30 -36 -27 -3 -2 -10 0
27 15 5 21 4 19 32 22 17 20 26 -34 -31 -28 -9 -25 -35 -1 -6 -37 -3 -30 -12 -36 -2 -8 -10 -13 -14 -11 -24 -33 -23 0
10 18 21 -12 -28 -37 -17 -26 0
12 31 13 15 30 18 10 3 24 36 21 5 16 -8 -28 -9 -22 -27 -17 -1 -20 -2 -37 -25 -32 -19 -34 -29 -26 -14 0
15 13 32 27 6 17 21 35 18 4 16 24 37 3 -5 -28 -19 -29 -11 -25 -2 -34 -10 -20 -9 -1 -30 -8 -14 -33 -26 -22 -12 -36 0
36 3 20 31 30 25 9 10 17 -34 -35 -8 -15 -21 -19 -37 -32 -29 -12 -26 -18 -7 -4 -22 -5 -13 -27 -2 0
13 0
32 2 24 28 37 9 25 -6 -19 -14 -17 -36 -26 -33 -18 -29 -1 -30 0
10 2 26 17 25 12 6 14 34 28 3 19 36 4 31 1 -22 -37 -21 -35 -15 -27 -8 -5 -24 0
5 23 36 27 6 21 31 13 12 16 -1 -15 -35 -10 -17 -32 -22 0
16 25 12 9 27 32 3 17 34 1 5 26 24 8 20 35 21 -28 -31 -6 -13 -15 -7 -36 -37 -10 -30 -18 -2 -14 -33 -23 -19 0
20 28 -17 -7 -23 0
27 -28 0
16 19 12 15 35 26 1 13 21 10 22 -36 -33 -20 -24 -8 -4 -29 -37 -6 -5 -18 -7 -9 -17 -31 -3 -28 -30 -27 -2 -34 -14 -25 -23 -11 0
36 37 -27 -17 -26 -13 -30 0
14 31 5 -32 -36 -6 0
20 3 10 4 35 12 23 22 -2 0
35 16 11 1 31 19 24 32 -23 -22 -13 -34 -26 -4 -9 -12 -10 0
27 25 37 12 1 35 26 24 9 30 -23 -29 -34 -19 -28 -2 -8 -13 -21 -20 -17 -11 -5 -36 -16 0
23 32 11 35 6 37 27 -13 -4 -24 -31 0
6 28 4 31 35 2 24 15 27 8 25 -30 -22 -14 -34 -12 -1 -36 -23 -29 -21 -7 -20 0
30 11 14 10 20 23 24 2 15 5 8 22 36 35 32 27 9 33 -17 -26 -3 -31 -18 -13 -28 -29 -37 -1 -16 -7 -25 -6 -19 -21 -34 0
4 34 22 13 7 10 12 -33 -25 -14 -35 -9 -30 -28 -29 -17 -26 -37 -24 -23 0
23 12 10 28 4 33 30 15 37 -5 -18 -22 -8 -19 -24 -21 -34 -31 -36 -6 -35 -27 0
35 34 31 12 -28 -29 -3 -27 0
23 24 17 12 29 30 -9 -28 -36 -7 -5 -25 -37 -20 0
16 11 22 32 23 -35 -31 -13 -9 -29 -12 -15 -26 -4 -18 0
13 6 27 3 11 37 -7 -31 -22 -2 -12 -30 -34 0
20 26 37 6 19 18 -29 -31 -15 -33 -34 -25 -27 -21 0
33 0
27 25 36 24 33 8 -22 -34 -26 -30 -14 0
30 22 7 26 29 28 25 -16 0
17 11 7 25 8 -6 -24 -14 -4 -32 -30 -2 -37 -21 -15 0
18 -1 -32 0
12 -7 -34 -28 0
24 31 21 8 37 -20 -23 -3 -13 -32 -14 0
3 16 34 36 19 26 18 2 -28 -5 -24 -25 -31 0
34 17 2 30 18 -32 -15 0
5 9 33 8 16 28 23 34 30 24 6 32 7 11 -22 -31 -25 -26 -3 -20 -4 -15 -1 -37 0
19 5 8 14 24 2 21 32 16 3 -31 -13 -22 -35 -12 -4 0
3 5 11 27 2 16 33 9 10 37 1 7 4 22 26 21 25 31 12 29 -6 -17 -18 -19 -36 -13 -32 -15 -20 -34 -24 -8 0
35 11 30 27 15 8 36 25 24 23 7 32 33 14 4 -37 -17 -16 -2 -12 -1 -34 -10 -31 -22 -20 -9 0
34 36 30 27 20 -31 0
17 4 6 24 -20 -22 -13 -19 -14 -37 -18 -36 -27 0
19 25 10 26 24 35 16 36 4 23 -2 -9 -15 -7 -34 -6 -33 -3 -28 -8 0
21 27 11 33 2 7 5 37 4 19 25 34 22 29 32 24 26 -15 -14 -31 -12 -1 -28 -30 -36 -23 -35 -8 -20 -17 -10 -9 -3 -13 -6 -18 0
29 11 32 1 17 5 3 25 10 -22 -31 -12 -16 -18 -37 -14 -20 0
14 17 12 26 5 19 24 15 23 11 27 32 21 1 2 -4 -8 -20 -6 -34 -25 -28 -33 -3 -31 -29 0
14 28 13 19 11 34 -26 -15 -18 -6 -30 -35 -10 -25 -23 0
24 31 22 33 1 14 11 18 8 12 32 36 23 4 13 17 -34 -3 -19 -21 -25 -7 0
7 25 21 29 37 -2 -17 -20 -8 -5 -14 -22 -9 -19 -6 -16 -11 -10 -35 -26 0
24 9 35 20 33 37 16 1 27 -6 -8 -18 -13 -21 -22 -15 -29 -30 0
30 5 33 13 10 28 36 -23 -29 -15 -25 -24 -22 -34 -32 -2 -8 -16 -35 -19 -31 -1 -17 0
32 19 33 11 26 30 14 28 6 -15 -29 -24 -8 -17 -16 -13 -22 0
10 15 -23 -26 -5 -12 0
27 34 19 29 20 6 10 -21 -11 -25 -12 -7 -31 -37 -17 -33 -14 -4 -24 0
9 12 22 26 20 11 36 3 30 1 18 19 -28 -2 -17 -35 -34 -29 -37 -24 0
24 37 23 -19 -13 -32 -8 -36 -16 -9 -5 -22 -29 0
3 2 8 17 -29 -35 -14 -23 -6 -12 -4 0
18 11 7 12 3 22 4 -20 -30 -6 -33 -23 -29 -34 -14 -28 -25 -10 0
8 36 29 13 1 25 31 18 21 9 24 30 27 22 14 10 17 2 4 -34 -28 -19 -16 -3 -12 -35 -6 -37 -33 -20 0
10 30 31 25 27 9 -26 -12 -7 0
17 8 36 2 28 5 31 9 32 -23 -33 -4 -12 -10 -18 -14 0
7 27 6 -17 -2 -13 -12 -4 0
7 24 16 2 35 28 22 1 8 -5 -29 -6 -11 -15 -30 -18 -4 -12 -34 -9 -26 0
29 36 20 30 -7 -19 -6 0
7 11 18 9 -19 0
6 32 1 17 13 18 36 37 20 24 35 -2 -26 -25 -34 -30 -27 -23 -33 -4 -7 -15 -3 -22 -28 -11 -9 -5 -21 -12 -31 -14 0
34 24 33 17 22 4 31 37 11 -18 -28 -36 -21 -14 -26 -23 -32 -19 -7 0
32 28 7 31 26 27 37 24 6 20 23 9 10 16 21 30 -33 -25 -29 -18 -17 -15 -35 -8 -11 -5 -14 -13 -1 -19 -2 -4 -22 -3 0
25 1 9 8 26 30 32 6 16 -18 -37 -10 -22 -24 -29 -4 -36 -33 0
37 34 23 3 13 15 10 -11 -29 -9 -7 -36 -26 -33 -16 -6 -21 -27 -12 -14 -1 0
36 11 9 12 18 19 22 37 21 16 8 6 2 -33 -14 -29 -4 -20 -32 -1 -24 -25 -10 0
30 13 15 2 17 -35 -11 0
16 6 19 5 37 4 34 35 26 32 10 11 -15 -14 -7 -2 -24 -23 -9 -28 -21 -25 -17 -20 -30 -36 -31 -18 -33 -29 -13 -22 0
33 28 17 19 12 2 9 32 15 23 -22 -13 -10 -16 -18 -21 -34 -7 -31 -6 -20 -26 -11 -35 -14 -27 -8 -5 -24 -30 -37 -4 0
5 -7 -8 -16 -27 0
9 22 30 15 2 37 25 24 7 3 19 32 12 28 14 18 27 -21 -8 -4 -29 -10 -26 -16 -36 -34 -17 -33 -35 -11 -1 -20 -23 -31 -13 -5 0
21 29 19 24 -16 -22 -5 -33 -36 -18 -11 0
17 34 36 22 3 21 27 32 37 4 5 9 20 -19 -29 -24 -8 -33 -26 -23 -35 -28 -16 0
15 20 3 35 -30 -14 -7 -13 -28 0
20 36 3 11 -26 -32 -28 -29 -12 0
5 31 8 1 14 13 35 16 -19 -17 -32 -26 -3 -28 0
33 29 27 26 18 22 17 28 4 7 -23 -35 -13 -8 -24 -6 -32 -19 -16 -34 -9 -3 0
16 1 24 26 17 19 27 13 23 8 11 18 29 -36 -35 -30 -12 -2 -32 -3 -10 -20 -14 -15 -9 -7 -25 -6 0
35 34 20 8 16 27 23 6 3 5 31 1 28 2 30 32 25 11 7 19 10 -36 -9 -13 -15 -24 -29 -26 -22 -37 -21 -18 -33 -14 -17 0
6 16 7 1 36 25 5 15 29 14 -37 -30 -4 -3 -8 -23 -33 -2 -19 -17 -27 -34 -22 0
17 3 36 -4 -20 -6 0
25 29 24 -7 -9 -4 -36 0
24 30 17 15 25 20 1 14 28 19 12 13 3 23 9 27 36 32 6 -7 -18 -10 -22 -11 -34 -16 -37 0
7 17 28 13 27 19 12 15 18 -32 -34 -33 -9 -36 -11 -24 -16 0
-1 -10 0
18 11 31 26 19 23 37 9 36 3 1 15 24 4 -30 -28 -29 -5 0
14 9 35 1 5 32 16 33 24 27 11 6 31 21 37 -20 -28 -7 -19 -36 -2 -18 -4 -15 -26 -29 -8 -13 -23 -25 -10 -34 -17 -12 -30 -22 0
30 9 35 23 36 21 31 16 13 11 20 18 26 -1 -17 -25 -4 -32 -28 -29 -8 0
30 7 37 6 28 17 32 26 8 2 3 27 20 24 34 31 18 12 5 -4 -1 -22 -23 -35 -11 -13 -9 -33 -14 0
9 10 22 19 27 1 24 6 16 23 -18 -26 -29 -34 -5 -17 -4 0
23 37 25 4 30 8 12 -1 -35 -3 -7 -9 -16 -29 -26 -17 -36 -13 0
19 14 -2 -12 0
20 21 37 17 32 31 14 22 34 24 7 36 12 9 -23 -26 -29 -3 -27 -2 -18 -1 -15 -6 -5 -25 -10 -16 -11 -19 0
34 20 32 25 28 2 1 16 15 29 -21 -24 -18 -11 -6 -13 -17 -10 -14 -8 -5 -4 -35 -30 -31 -37 0
1 22 8 23 4 3 37 -35 -7 -32 -28 0
14 32 1 26 13 23 36 6 16 9 5 2 12 15 17 22 27 8 7 10 18 35 -29 -25 -33 -19 -11 -21 -37 -30 -3 -28 -31 -24 -20 0
4 35 13 19 33 36 31 14 16 -15 -2 -5 -29 -37 -8 -6 -22 -17 -1 -18 -7 0
28 -10 -7 -5 -25 0
29 24 17 2 23 21 28 5 35 11 -22 -4 -34 -31 -1 -8 -6 -12 -37 -3 -36 -30 -32 0
27 10 17 29 11 32 36 7 14 6 20 12 -30 -16 -4 -33 -15 -1 -8 -35 -13 -31 0
26 17 9 23 16 30 35 25 22 6 27 36 29 10 -33 -28 -2 -19 -3 -11 -8 -14 -5 0
1 11 20 17 16 22 12 27 13 37 5 24 26 35 4 33 9 15 29 18 10 19 32 -31 -23 -21 -34 -28 -3 -2 -6 -8 -7 -14 -36 -30 0
13 34 4 25 5 3 24 23 30 -1 -26 -11 -29 -27 -31 -16 -18 -14 -8 -22 0
14 9 7 15 -16 -6 -11 -29 -2 -21 -37 -13 -8 0
22 25 33 2 11 27 6 7 29 14 28 12 17 20 19 -1 -5 -23 -21 -15 -16 -18 -37 -30 -36 -8 -32 -13 -24 -34 -9 -10 0
22 34 17 37 13 6 28 31 12 16 30 15 32 36 35 29 -14 -25 -21 -10 -9 -18 -19 -33 -27 -5 -20 0
19 13 16 8 10 36 6 5 33 30 11 34 9 24 25 7 3 12 18 37 15 1 21 29 -27 -31 -35 -2 -26 -17 -20 -4 -28 -14 -23 -22 0
37 8 18 9 11 27 28 30 29 16 21 -36 -24 -15 -23 -6 -19 0
21 26 25 10 17 33 2 22 -13 -14 -30 -35 -32 -28 -15 0
2 7 8 33 17 4 28 34 23 -6 -5 -12 -20 -32 -15 -30 -27 -21 -1 -3 -25 0
11 2 -22 0
9 37 29 2 33 1 23 30 -15 -17 -12 -5 -22 -28 -10 -35 0
4 24 27 8 11 17 33 7 -14 -23 -20 -35 -16 -29 -21 -2 -37 -25 -12 -36 0
28 19 20 -32 -17 -23 -26 0
30 17 11 22 36 -8 -10 0
24 15 36 19 5 1 4 26 23 32 34 9 -27 -22 -33 0
3 35 5 23 19 6 -26 -17 -8 -18 -29 -25 0
15 2 16 6 36 23 7 17 19 24 35 33 14 18 13 -29 -28 -21 -8 -32 -4 -30 -27 -25 -3 -11 -1 -20 -34 -26 -12 0
6 36 33 25 29 -1 -13 0
11 29 33 25 3 37 8 5 7 21 26 36 27 24 2 19 15 35 14 -23 -17 -10 -4 -9 -31 -22 -20 -1 -12 -18 -6 -28 -16 -30 -34 -32 0
36 7 3 -20 0
34 -14 -1 -25 -36 -30 0
36 31 24 30 1 13 22 2 33 25 26 8 28 9 -17 -14 -34 -35 -19 -21 -37 -5 -32 -10 -18 -4 -7 -3 -23 0
25 16 32 26 12 27 -1 -11 -13 -30 0
9 10 14 35 33 8 27 22 1 31 4 5 28 17 -3 -37 -34 -18 -2 -32 -15 -16 -29 -26 -7 -23 -25 -24 0
24 16 -30 -35 0
6 19 33 24 20 35 28 12 3 -21 -22 -18 -25 -30 -13 -14 0
28 7 18 13 20 2 34 36 -23 -25 -9 -24 -5 -33 -32 -37 0
7 33 19 24 16 8 4 -5 -11 -30 -13 0
19 36 13 26 8 -30 -15 -25 -33 0
9 25 29 8 23 16 26 32 6 22 30 1 -12 -36 -31 -19 -2 -27 -13 -21 0
9 5 31 12 30 1 10 6 32 4 37 35 34 -14 -19 -22 -27 -13 -26 -7 -36 -15 0
15 24 32 8 28 29 37 -6 -34 -14 -26 -9 -35 -17 -7 -11 0
25 7 33 16 21 3 36 13 5 4 2 9 22 -35 -12 -18 -32 -34 -37 -28 -31 -11 -24 0
36 29 20 6 30 35 15 34 31 13 24 14 10 16 33 5 22 -21 -8 -11 -7 -18 -12 -28 -23 -9 -2 -1 -19 -37 -3 -32 -25 -27 -4 0
35 8 10 21 29 1 33 24 6 18 4 12 17 22 31 9 19 15 -3 -20 -13 -32 -5 -28 -16 -2 -14 -27 -36 -23 -25 -7 -37 -26 0
1 30 2 20 22 3 -9 -27 -37 -13 0
37 32 7 35 28 1 11 13 -20 -24 -14 -4 -10 -27 -29 -18 -25 -17 -22 -12 -2 0
35 33 1 6 9 8 20 2 26 -37 -12 -18 -22 -10 -36 -32 -27 -7 -31 -4 -14 -29 -3 0
9 25 1 21 30 4 29 22 32 20 37 11 19 12 13 -6 -7 -15 -3 -8 -24 -33 -31 -10 -28 -34 -18 -36 -2 -27 -35 -17 -14 0
28 4 3 14 24 34 19 35 12 5 33 10 30 21 17 18 26 31 27 9 15 7 6 -23 -37 -22 -11 -8 -20 -2 -13 -36 -16 0
29 26 22 31 33 2 -21 0
14 6 -1 -10 0
5 11 15 26 35 20 33 2 21 14 12 17 37 6 16 -23 -25 -7 -24 -8 -28 0
17 36 2 33 -16 -25 -3 -1 -21 -31 -18 -37 -11 -7 0
4 25 -33 0
5 28 1 10 13 29 6 8 -24 -36 -30 -34 -15 -11 -12 -23 -9 -25 -31 0
23 1 8 14 21 15 22 3 37 26 28 5 13 2 32 25 9 18 -7 -4 -11 -24 -34 -10 -30 -35 -16 -19 -17 -27 -20 0
26 -17 -22 -14 -8 -32 -25 -24 -5 -4 0
9 29 12 33 22 -31 -5 -19 -11 -14 -26 -17 0
1 24 21 29 25 3 23 -19 -7 -14 -32 -27 -9 0
17 18 24 1 32 26 13 22 37 15 8 27 6 5 20 -31 -21 -25 -4 -33 -10 -36 -34 -19 -23 -16 -14 -12 -2 -29 -35 -9 0
8 29 7 3 1 34 35 9 33 37 28 15 26 21 -14 -11 -6 -27 -18 -32 -31 -19 -20 -22 -10 -30 -12 -4 -23 -25 -5 0
12 33 37 19 35 32 25 -27 0
36 15 26 7 20 18 4 3 30 32 16 17 21 6 24 9 22 -12 -13 -1 -2 -8 -19 -35 -23 -31 -37 -25 -11 -27 -28 -5 0
-17 -18 -20 -11 0
37 22 31 2 30 19 34 10 12 26 20 15 4 21 29 17 1 -18 -7 -23 -16 -5 -9 0
-7 0
9 28 1 8 19 34 12 6 21 37 -26 -11 -33 -20 -24 -14 -7 0
34 12 33 -16 -11 -27 -24 -3 -17 -15 0
14 27 2 7 1 26 12 28 37 33 21 4 29 16 22 11 15 24 -34 -8 -25 -35 -6 -9 -32 -10 -19 -13 -3 -23 -17 -36 -5 -30 0
21 36 35 7 13 34 32 24 6 15 1 22 30 27 2 16 9 29 31 37 23 12 -33 -25 -11 -8 -10 -14 -3 -5 -19 0
4 9 10 24 29 5 12 6 19 8 35 -14 -36 -28 -16 -34 -1 -2 -18 -17 -27 -15 -22 -37 -30 -20 -32 -33 0
24 36 21 31 6 9 17 30 14 13 19 28 10 29 -4 -2 -27 -8 -12 -22 -37 -33 -20 0
27 33 30 8 28 17 23 11 26 21 15 16 6 9 -24 -5 -3 -12 -35 -18 -36 -13 -19 -37 -29 -14 -25 -10 -7 -1 -20 -34 -32 -31 -22 -4 0
33 1 7 32 27 31 23 17 34 29 14 10 30 20 16 -21 -8 -36 -13 -35 -2 -12 -26 -5 -24 -25 -37 -4 -11 -9 -19 -28 -6 0
8 20 36 33 25 31 16 24 -2 -21 -15 -12 -19 -30 -10 0
32 25 29 16 17 34 13 9 4 33 -19 -6 -30 -1 -3 -31 -2 -22 -7 -37 -20 -18 -24 -14 -5 0
-18 -33 -37 -20 -4 0
23 -28 -26 0
6 22 11 15 25 9 17 13 20 29 27 5 7 19 14 33 -34 -35 -26 -21 -10 -16 -37 -36 -3 -28 -12 -31 -24 -23 -8 -18 -30 -4 -2 0
37 6 20 3 23 14 12 33 10 28 21 -15 -26 -35 -5 -11 -36 -19 -8 -27 -7 -30 -2 -34 -9 -18 -29 -25 -32 0
27 17 33 23 18 7 10 32 5 11 16 31 35 6 -29 -28 -15 -24 -26 -9 -8 -13 -19 -36 -1 -3 -2 0
14 22 5 32 35 37 10 13 4 36 16 12 -26 -28 -34 -2 -9 -17 -23 -7 -15 -8 -27 -6 -19 -21 -29 -31 0
5 -20 -2 -35 -27 -31 -19 0
16 28 8 18 25 21 -29 -24 -14 -1 -15 -30 -13 -34 -27 0
11 9 37 1 23 10 26 5 29 33 2 24 4 18 32 17 -12 -3 -36 -25 -13 -15 -19 -14 0
25 1 -24 -18 -26 0
4 29 31 27 19 35 9 32 18 3 22 -28 -7 -23 -30 -1 -37 -21 -2 -15 -6 -13 0
2 13 26 24 27 18 10 30 34 -12 -22 -8 -6 -31 -29 -11 -21 -17 -7 -35 -3 -1 0
32 10 26 12 11 5 23 1 35 14 37 13 4 18 34 28 31 29 -25 -22 -6 -16 -2 -3 -24 0
7 32 24 18 15 31 21 23 -34 -9 -17 -12 -4 -14 -25 -28 -27 -29 -19 -2 0
31 15 17 24 5 27 -32 -23 -35 -9 -1 -26 -37 -36 -6 0
22 5 31 27 13 20 24 34 9 14 6 -18 -25 -26 -23 -15 -8 -17 -33 -4 -12 -19 -28 -30 0
-31 -11 -10 -34 -28 -8 -4 -29 -5 -21 0
12 19 27 22 8 35 7 1 9 24 -36 -11 -33 -3 -31 -10 -5 -18 -13 -14 -25 -23 0
10 18 24 25 35 37 13 30 33 7 15 2 11 -29 -12 -26 -16 -27 -1 -3 -4 -6 -28 -9 -34 -36 -5 -8 0
24 20 21 0
35 5 34 22 30 3 32 8 21 16 -37 -11 -14 -12 -7 -36 -25 0
4 8 32 13 15 2 18 -3 -27 -6 -28 -37 0
36 33 31 13 32 3 20 18 22 7 12 11 10 -24 -21 -17 -19 -6 -15 -2 -16 -4 0
24 3 8 36 37 12 18 13 -22 -25 -11 -10 0
2 19 23 25 24 30 27 9 11 28 14 33 4 1 8 35 21 -13 -34 -20 -18 -12 -29 -16 -5 -22 -32 -10 -31 -6 -3 0
-3 0
3 29 13 8 30 5 19 6 31 21 10 26 -17 -20 -27 -33 -15 -32 0
21 25 18 33 3 30 28 2 11 26 5 15 9 12 36 7 31 32 -16 -4 -35 -27 -24 -8 -10 -17 -13 -20 -23 -34 -1 0
23 18 33 9 25 10 22 -30 -34 -1 -14 -2 -8 -35 -20 -26 -11 0
28 35 14 29 26 9 18 -20 -11 -2 -1 -10 -24 0
4 21 2 -29 -6 -22 0
18 10 3 35 22 17 -37 -1 0
22 34 33 14 8 23 10 1 2 17 31 26 28 11 -4 -16 -15 -29 -18 -13 -20 -7 -6 -30 -19 -3 -25 -5 -24 -37 -21 -35 -9 -36 -27 0
23 37 31 7 10 14 22 18 21 29 3 26 33 13 24 15 8 28 9 -34 -35 -1 -20 -2 -4 -25 -11 -19 -36 -5 -32 -27 -30 -6 -16 -17 0
8 7 -33 -15 -14 -29 -27 -3 0
18 30 -16 -13 -23 -36 -4 -7 -28 -11 0
35 15 19 10 20 28 25 37 -33 -23 -22 -13 -17 -34 -26 -16 -18 -14 -24 -4 -6 -36 -32 -29 0
25 -30 -24 -4 0
31 34 22 24 10 27 1 36 25 23 14 32 3 8 2 19 30 -37 -9 -18 -13 -5 -12 -16 -26 -6 -28 -20 -35 -11 -4 -7 -29 -17 0
23 17 5 35 6 16 22 12 3 -33 -20 -24 -26 -4 -29 0
19 30 27 36 6 9 26 4 35 2 18 24 13 23 17 32 11 29 20 33 15 -34 -16 -5 -22 -37 -1 -14 -7 -28 -25 -3 -31 -21 -8 0
15 8 31 19 18 -17 -10 -36 -11 -24 -12 -30 0
10 37 9 24 16 20 29 13 -22 -18 -2 -27 -33 -21 -14 -25 -26 -36 -15 0
32 3 30 36 -19 -13 -26 0
5 13 26 14 20 27 10 21 8 22 18 4 3 30 34 32 19 9 23 -15 -24 -31 -37 -16 -2 -36 -25 -35 -33 -7 -28 -12 0
23 18 13 10 -32 0
27 34 30 24 13 31 12 17 21 6 7 20 35 8 10 -28 -19 -22 -3 -16 -23 -4 -14 -37 -11 -15 0
27 -19 -32 -25 0
13 -11 -36 0
22 36 8 1 37 31 7 12 17 13 3 27 20 26 11 25 18 9 32 29 -33 -15 -5 -21 -6 -19 -16 -24 -10 -14 -35 -2 -4 -23 -28 -34 0
2 26 29 33 24 12 8 3 28 32 10 21 5 -17 -13 -19 -25 -36 -9 -30 -20 -6 0
