c NeuroCodeBench 2.0 CNF formula with verdict Sat
p cnf 93 621
47 57 82 13 48 35 91 51 21 54 55 15 27 12 46 73 25 41 -2 -87 -32 -68 -65 -11 -10 -7 -14 -45 -38 -28 -80 -59 -93 -22 -69 -19 -3 -26 -40 -18 0
52 41 83 6 28 75 70 12 69 87 61 59 32 62 76 66 82 40 73 9 10 16 48 49 63 27 18 14 57 72 88 55 60 21 17 43 45 90 51 13 91 53 11 42 22 36 -46 -74 -1 -30 -7 -15 -5 -65 -4 -19 -84 -2 -34 -77 -8 -20 -23 -31 -58 -71 -67 -39 -37 -33 -64 -92 -35 -56 -89 -47 -86 -81 -26 -25 -44 -93 -78 -38 -85 -54 -50 -29 -79 -68 -80 0
83 59 73 87 44 16 12 74 76 6 34 85 63 52 8 78 70 61 11 79 20 36 7 82 17 -24 -64 -18 -80 -25 -13 -38 -23 -60 -90 -66 -57 -39 -9 -93 -89 -43 -56 -75 -86 -41 -84 0
84 78 87 48 54 65 79 39 18 59 24 70 12 92 4 20 31 67 52 51 66 3 27 47 74 71 72 29 55 88 62 43 56 7 -41 -26 -2 -90 -42 -21 -82 -11 -80 -22 -33 -25 -38 -6 -32 -19 -40 -5 -69 -44 -50 -89 -85 -46 -64 -13 -63 0
2 12 79 11 93 32 71 73 38 40 52 20 24 53 37 21 76 62 67 88 90 49 1 22 17 31 5 82 65 28 48 72 83 14 51 69 68 10 64 16 59 30 61 7 15 19 -54 -56 -34 -33 -13 -91 -63 -41 -43 -35 -74 -50 -81 -46 -25 -47 -55 -6 -80 -87 -60 -89 -75 -70 -86 -45 -4 -66 -84 -8 -3 -29 -26 -92 -57 -39 -23 -58 -42 -9 -78 -44 0
36 9 43 6 52 86 63 77 69 51 8 45 61 42 40 24 38 87 46 4 7 66 57 64 71 17 74 79 22 44 18 62 11 20 67 55 65 56 -15 -2 -33 -16 -78 -30 -10 -23 -41 -68 -39 -1 -70 -34 -49 -90 -13 -14 -50 -28 -3 -26 -19 -75 -83 -31 -76 -60 -48 -58 -12 -35 -92 -80 -25 -32 -82 -47 -37 -89 -54 -93 -59 -27 -91 -73 0
17 5 83 49 52 19 50 51 37 21 32 71 43 86 7 47 41 3 78 81 63 60 77 57 70 68 39 66 56 74 62 2 87 40 36 16 -90 -6 -15 -69 -23 -12 -53 -25 -9 -45 -11 -8 -73 -24 -28 -48 -10 -67 -13 -44 -80 -91 -22 -14 -46 0
-90 0
16 71 51 11 83 73 58 27 19 10 69 52 66 77 88 60 36 44 48 4 -67 -1 -28 -24 -5 -56 -12 -53 -47 -6 -68 -46 -30 -9 -62 -40 0
51 42 36 74 21 47 29 15 86 41 44 58 28 93 40 1 75 39 82 63 62 19 30 25 56 43 64 20 68 52 22 33 46 50 10 71 4 61 91 27 24 -81 -60 -3 -72 -54 -70 -55 -16 -83 -87 -38 -8 -2 -53 -49 -69 -32 -9 -57 -26 -88 -23 -67 -6 -31 -5 -80 -79 -59 -45 -65 -92 -7 -34 -90 -76 -73 -11 -13 -37 0
25 41 60 33 52 15 70 23 90 77 29 47 92 32 61 93 42 79 11 9 80 30 69 3 57 12 51 44 55 49 17 62 28 64 5 75 13 74 40 81 7 86 -73 -37 -87 -65 -71 -53 -67 -38 -83 -1 -54 -16 -18 -46 -78 -91 -89 -63 -27 -85 -45 -35 -76 -31 -39 -26 -24 -68 0
20 84 46 53 56 88 5 36 23 2 21 85 93 6 60 37 43 4 87 54 38 16 40 78 82 7 62 33 14 51 81 15 26 58 80 -3 -27 -79 -69 -1 -32 -91 -9 -24 -86 -10 -72 -65 -49 -18 -73 -50 -74 -70 -45 -59 -17 -34 -67 -68 -25 -35 -28 -39 -11 -29 -76 -63 -92 -66 -44 -12 -55 -64 -8 0
81 76 36 64 25 41 88 73 51 48 45 54 84 50 56 33 23 86 7 17 59 46 18 49 72 89 35 63 11 66 92 57 37 1 47 42 19 -9 -5 -27 -55 -70 -78 -38 -77 -43 -16 -52 -40 -15 -21 -91 -90 -28 -4 -75 -80 -29 -6 -69 -85 -53 -68 -79 -44 -71 0
52 3 82 18 90 86 20 79 14 84 55 28 26 25 -37 -69 -46 -39 -21 -35 -74 -34 -63 -22 -78 -62 -88 -68 0
42 82 8 53 52 1 2 90 71 60 37 40 30 46 92 84 9 15 18 47 65 -3 -35 -10 -43 -24 -12 -57 -79 -70 -7 -28 -49 -54 -85 -33 -36 -77 -45 -51 -81 -55 0
74 45 31 22 1 34 49 84 56 29 10 66 35 -63 -48 -46 -3 -72 -19 -51 -41 -43 -24 -44 -12 0
89 47 60 74 21 1 91 26 53 4 29 88 7 20 56 38 51 33 62 84 40 6 37 34 49 11 -70 -86 -23 -55 -69 -72 -15 -2 -46 -13 -22 -3 -30 -14 -54 -16 -52 -81 -50 -42 -61 -10 -57 -64 -82 -93 0
24 75 10 72 38 57 76 6 11 21 19 82 5 64 83 12 1 56 86 87 79 43 9 16 27 73 49 52 20 29 -58 -13 -7 -91 -15 -14 -39 -60 -61 -65 -18 -66 -81 -63 -4 -89 -35 -48 -34 -88 -42 -59 -46 -25 -54 -71 -85 -22 -36 -53 -51 0
80 86 18 -84 -57 -88 -35 -12 -89 0
39 87 30 68 3 49 1 38 20 83 69 52 24 6 65 54 85 5 33 47 -75 -44 -86 -79 -10 -35 -41 -25 -58 -46 -16 -64 -29 -31 -36 -45 -22 -56 -43 -88 -32 -93 -28 -61 -53 0
60 51 26 57 37 93 49 70 65 91 40 34 38 20 58 14 54 92 32 21 90 24 75 41 66 18 -48 -85 -28 -1 -55 -16 -13 -45 -15 -50 -2 -59 -30 -88 -74 -83 -78 -63 -33 -87 -69 -71 -6 -46 0
87 13 59 39 61 83 92 30 40 86 29 10 55 72 44 53 70 81 20 34 41 16 56 51 57 -9 -46 -25 -19 -5 -24 -37 -77 -47 -88 -80 0
14 43 24 92 88 65 90 32 69 3 84 4 27 10 55 15 35 33 93 58 22 57 72 64 78 37 12 56 30 17 26 59 54 68 53 29 42 41 89 -1 -49 -5 -82 -63 -61 -39 -52 -76 -31 -60 -91 -66 -9 -11 -51 -44 -28 -34 -6 -79 -86 -75 -48 -73 -74 -70 -23 -38 -50 0
5 90 89 67 20 52 32 29 7 42 92 45 35 91 41 60 72 69 34 36 2 54 73 14 28 10 8 53 86 93 16 22 19 38 -80 -70 -47 -87 -50 -57 -55 -82 -78 -12 -56 -31 -51 -40 -4 -1 -24 -63 -62 -44 -77 -30 -85 -88 -17 -61 -66 -33 -83 -75 -48 -27 -13 -81 -11 0
84 93 34 18 58 74 52 39 32 -11 -91 -9 -50 -20 -92 0
93 91 89 10 48 12 40 46 49 23 13 54 52 28 4 17 9 87 90 43 33 63 74 31 6 57 75 62 50 61 45 41 64 78 80 88 44 15 72 83 68 2 66 16 39 -36 -70 -11 -55 -8 -58 -21 -25 -76 -7 -65 -53 -92 -51 -18 -47 -82 -69 -77 -22 -20 -27 -56 -1 -30 -14 -35 -81 -86 -84 -24 -19 -42 -71 -60 -59 -5 -29 -79 -32 -85 -34 -26 -3 0
49 0
85 93 86 7 59 55 60 32 52 66 40 81 84 13 34 78 21 44 65 75 64 48 10 23 53 87 31 41 49 29 61 1 47 54 90 51 82 -33 -83 -88 -74 -17 -30 -36 -26 -14 -42 -92 -79 -4 -18 -80 -19 -22 -3 -50 -69 -76 -58 -37 -72 -71 -8 -15 -11 -24 -89 -38 -16 -43 -5 -6 -91 -35 -62 -63 -56 -57 -12 -46 -9 -70 -73 -45 -28 -77 0
17 8 32 39 67 38 36 85 70 46 10 62 48 9 6 30 79 55 68 19 13 2 25 64 49 28 76 51 81 78 83 86 -33 -66 -1 -57 -52 -90 -45 -88 -44 -59 -16 -26 -53 -73 -40 -80 -15 -71 -77 -21 -84 -75 -63 -92 -60 -50 -29 -56 -22 -31 -34 -47 -27 -58 -42 0
55 26 89 8 80 37 24 59 81 -91 -58 -34 -5 -21 -49 -85 -83 -87 -57 -88 -23 -75 0
70 38 10 3 30 93 -37 -25 -65 -16 -1 0
22 33 -70 -15 -5 0
70 68 64 30 32 34 61 20 42 35 73 67 25 26 -27 -3 -65 -58 -19 -14 -2 -33 -79 -80 -23 -11 -91 -53 -38 -76 -1 -31 -82 -24 -85 0
12 4 79 90 31 59 10 27 44 67 25 83 -57 -81 -77 -69 0
21 80 70 8 73 16 47 1 90 41 42 64 4 36 48 88 55 66 89 74 72 91 5 82 18 23 53 81 22 35 15 11 71 10 40 26 61 34 78 58 24 12 45 50 -25 -14 -87 -27 -20 -76 -49 -92 -56 -75 -51 -33 -59 -86 -67 -6 -84 -63 -69 -65 -17 -52 -43 -54 -68 -28 -19 -7 -31 -2 -79 -39 -30 -46 -57 -62 -3 -32 -93 -44 -29 -9 -37 -13 -77 0
63 28 55 56 21 9 58 13 90 26 74 54 27 25 57 89 15 61 14 64 91 40 7 93 51 59 85 29 33 22 83 43 5 42 6 36 62 60 79 47 4 88 49 92 -69 -11 -35 -66 -52 -41 -24 -19 -50 -71 -16 -2 -1 -38 -78 -12 -65 -72 -44 -53 -10 -84 -17 -76 -32 -73 -46 -80 -81 -18 -30 -8 -86 -31 -67 -75 -70 -39 -68 -23 -82 -34 -3 -20 -37 -45 0
89 80 4 2 53 20 -23 -65 -41 0
8 30 56 74 62 52 6 15 93 59 77 37 45 84 68 31 21 19 67 1 89 88 87 76 -55 -11 -34 -48 -69 -82 -60 -63 -14 -46 -47 -51 -22 -44 -57 -85 -54 -83 -90 -61 -38 -92 -12 -5 -4 -49 -81 -65 0
81 71 82 67 25 5 27 63 76 41 17 30 68 86 -45 -22 -24 -31 -19 -7 -55 -36 -39 -4 -51 -57 -1 -12 -85 -89 -11 -66 -8 -43 -75 -50 -77 0
11 70 -42 -4 -22 -10 0
43 52 26 83 10 18 37 70 65 28 82 3 56 24 2 92 7 44 4 76 6 69 49 75 88 39 16 68 89 35 50 62 -15 -27 -72 -71 -87 -40 -74 -90 -84 -20 -47 -22 -80 -23 -55 -91 -48 -51 -78 -33 -25 -64 -36 -42 0
61 65 89 35 90 36 26 -84 -30 -52 -92 -49 -9 -60 -1 -41 -18 -3 -31 -23 0
32 56 77 65 8 26 29 2 41 69 89 78 63 4 49 31 48 86 38 79 19 24 64 5 67 81 57 27 60 92 66 34 73 72 76 74 55 93 90 68 50 33 1 -6 -70 -54 -10 -58 -12 -35 -83 -46 -51 -53 -36 -39 -11 -25 -21 -23 -17 -61 -91 -71 -82 -30 -7 -47 -28 -13 -42 -40 -15 -3 -85 -22 -45 -75 -20 -62 -59 -84 -80 -88 -14 -44 0
45 43 67 62 72 12 41 40 19 78 63 65 38 73 13 37 61 24 15 9 91 -85 -57 -83 -93 -52 -35 -86 -34 -75 -90 -22 -6 -8 -53 -87 -88 0
17 11 37 16 31 8 76 75 12 10 81 25 74 36 38 35 72 59 23 78 39 67 91 55 41 33 1 15 46 90 22 51 60 80 61 40 93 82 47 14 69 85 -53 -50 -89 -64 -27 -21 -5 -86 -92 -34 -83 -70 -32 -3 -19 -88 -79 -9 -58 -28 -62 -68 -26 -56 -87 -54 -24 -43 -65 -29 -63 -71 -13 -49 -7 -30 -45 -20 -48 -84 -66 -6 -73 -57 -77 -52 -4 -42 0
46 50 28 2 59 3 64 68 63 14 25 66 85 55 70 10 61 49 84 31 12 38 43 9 36 13 44 4 6 90 16 77 65 54 80 67 73 78 -34 -45 -21 -69 -52 -48 -57 -74 -26 -51 -8 -92 -15 -17 -20 -79 -83 -1 -27 -7 -88 -30 -93 -81 -87 -82 -72 -5 -41 -91 -40 -35 -56 -18 -62 -23 -29 -60 0
64 89 59 73 75 34 66 14 23 33 48 51 82 12 20 53 57 40 24 16 31 -56 -27 -45 -42 -10 -61 -21 -76 -85 -19 -70 -2 -80 -28 -87 -77 -86 -50 -68 -78 -41 0
91 40 30 60 88 36 79 77 23 46 63 47 43 3 7 70 53 65 78 4 42 83 1 26 27 52 8 -21 -72 -86 -32 -13 -10 -12 -51 -76 -34 -15 -68 -37 -49 -16 -44 -84 -73 -29 -62 -90 -33 -66 -74 0
25 85 59 35 72 68 69 18 86 87 33 37 74 60 14 89 27 73 83 81 9 49 44 22 30 43 38 23 50 45 67 70 64 1 71 24 54 47 46 4 15 57 -10 -20 -26 -92 -11 -17 -28 -61 -34 -75 -19 -2 -51 -40 -12 -90 -32 -91 -56 -55 -16 -39 -63 -3 -36 -7 -42 -82 -53 -5 -29 -77 -65 -21 -66 -41 -84 -52 -6 -13 -62 -31 -88 0
49 64 82 50 76 61 66 22 46 60 55 47 70 -23 -18 -62 -65 -11 -59 -83 -6 -32 -86 0
5 55 -33 0
43 83 93 70 41 53 51 24 20 60 40 13 66 3 15 44 54 62 73 14 88 50 30 57 31 22 8 18 35 87 2 78 47 28 49 90 36 23 26 79 64 81 89 38 1 37 5 -65 -48 -39 -17 -27 -61 -10 -11 -16 -86 -72 -34 -92 -84 -63 -7 -32 -9 -45 -4 -58 -71 -85 -56 -6 -74 -91 -25 -12 -59 -46 -76 -68 -55 -69 -21 -82 -67 -52 -33 -42 -19 -75 0
32 69 76 74 10 34 63 2 -70 -41 -29 -52 -8 0
20 39 90 51 14 71 89 26 69 58 44 1 12 55 48 82 15 50 63 81 -2 -84 -53 -72 -4 -3 -85 -10 -75 -22 -27 -13 -67 -61 -23 -49 -60 -80 -16 -46 -30 0
33 5 1 90 20 66 83 10 3 43 8 14 59 32 29 13 50 15 26 70 7 51 2 67 28 80 24 -60 -36 -85 -62 -12 -11 -87 -21 -92 -49 -84 -79 -57 -46 -71 -78 -54 -89 -65 -9 -16 -64 0
18 52 3 50 56 65 85 45 75 67 74 58 80 55 76 83 6 42 16 37 36 32 90 60 -20 -89 -10 -68 -51 -8 -33 -4 -29 -40 -13 -38 -31 -61 -57 -87 -78 -81 -41 -62 -44 -73 -22 -48 -93 -14 -82 -5 -69 -26 -54 -17 -53 -72 -77 -46 -70 -15 0
87 65 57 13 6 32 37 18 93 5 77 15 10 26 64 11 62 27 58 55 86 14 67 41 88 84 48 66 79 -76 -19 -50 -81 -69 -70 -24 -71 -40 -80 -34 -56 -43 -49 -78 -7 -28 -72 -17 -73 -8 -29 -53 -63 -2 -4 -42 -23 -46 -31 -54 -91 0
76 32 54 9 70 30 66 72 22 44 21 50 36 56 23 78 -17 -82 -90 -58 -39 -7 -60 -37 -1 -24 -12 -77 -13 -87 -80 0
39 22 13 20 91 55 29 7 8 76 67 -77 -73 -2 -47 -52 -48 -53 -89 -59 0
8 61 31 48 30 11 37 80 67 26 91 50 81 69 45 72 24 22 52 73 92 7 5 86 49 83 93 9 84 58 -87 -6 -39 -38 -66 -79 -56 -65 -25 -54 -17 -1 -68 -4 -28 -47 -77 -71 -75 -2 -13 -78 -29 -35 -70 -57 0
46 72 69 17 16 60 -81 -91 -19 -75 -13 -86 -78 -41 0
64 -3 0
8 72 93 69 35 25 67 45 61 51 90 29 -41 -32 -70 -87 -86 -22 -42 -20 -81 -39 -43 -21 -10 -13 -89 -92 -15 -14 -19 -36 0
19 21 4 72 76 88 18 57 23 48 77 16 78 59 28 34 47 27 30 15 25 71 87 11 66 40 53 63 43 22 65 92 26 90 73 80 49 51 7 24 62 -55 -17 -42 -54 -20 -29 -44 -36 -5 -10 -70 -64 -6 -31 -8 -12 -86 -50 -82 -14 -61 -1 -33 -89 -79 -58 -37 -13 -39 -81 -83 -56 -35 0
61 33 68 65 89 16 40 30 52 28 63 73 72 70 54 67 57 66 93 1 34 78 27 41 9 14 -11 -32 -13 -37 -81 -69 -64 -21 -36 -50 -31 -92 -44 -20 -46 -56 -53 -84 -51 -23 -26 -59 -86 -85 -4 -19 -10 -76 -77 -2 -3 0
71 35 59 3 83 84 13 43 79 -58 -68 -19 -92 -16 -80 -30 -91 0
61 75 17 1 18 14 35 91 5 29 76 88 59 38 43 2 78 90 41 69 4 28 -93 -55 -36 -64 -72 -34 -57 -92 -8 -53 -33 -16 -71 -66 -10 -86 -63 -21 -83 -84 -26 -25 0
60 67 11 1 91 12 4 31 14 32 40 22 54 65 27 62 17 92 44 21 75 56 83 88 37 28 45 9 41 8 3 74 77 7 46 61 23 5 20 2 50 15 6 84 69 72 43 -51 -66 -85 -25 -78 -93 -35 -58 -53 -63 -71 -80 -19 -81 -82 -10 -89 -36 -13 -24 -86 -52 -26 -18 -76 -49 -73 -70 -16 -64 -42 -33 -29 -48 -87 -47 -55 -79 -38 -57 -30 -34 -39 -59 0
56 46 45 40 16 54 22 61 85 71 33 -47 -30 -67 -70 -80 -63 -55 -69 0
89 6 88 62 93 60 52 -57 -11 -84 -92 -42 -7 -66 -55 -85 -8 -68 0
78 45 66 33 54 43 39 24 42 93 71 55 46 16 21 80 72 79 83 6 10 19 7 47 92 50 26 60 31 -49 -75 -25 -28 -57 -53 -30 -14 -13 -17 -90 -85 -89 -34 -56 -8 -2 -73 -65 -29 -51 -5 0
24 88 85 86 28 68 44 83 74 89 10 18 76 31 26 45 8 78 63 29 7 64 23 56 -15 -25 -48 -5 -69 -71 -60 -40 -43 -91 -41 -90 -39 -30 0
7 92 52 -36 -13 0
25 70 64 19 57 29 89 42 7 35 60 22 90 31 13 38 61 1 75 65 58 -16 -78 -17 -71 -45 -69 -4 -51 -27 -30 -47 -93 -15 -72 -77 0
10 69 62 68 24 31 35 3 90 60 87 77 61 23 51 54 -44 -37 -38 -89 -66 -36 -16 -1 -80 -12 -13 -26 -85 -63 -48 0
82 10 8 44 77 28 91 9 67 55 40 48 19 51 30 37 18 20 47 66 49 80 15 42 57 60 4 53 -6 -68 -54 -61 -29 -81 -38 -11 -31 -73 -16 -27 -21 -35 -41 -39 -75 -25 -87 -92 -22 -69 -89 -59 -79 -78 -65 -84 -2 -88 -17 0
78 43 46 76 82 22 -1 -24 -72 -62 0
22 27 12 41 64 20 52 35 26 8 13 77 5 53 23 86 11 44 72 39 49 70 46 19 75 6 15 43 73 58 45 29 60 38 50 57 66 59 14 74 90 -17 -54 -68 -33 -21 -18 -91 -32 -93 -30 -92 -3 -56 -69 -7 -10 -40 -55 -42 -80 -25 -62 -82 -31 -4 -76 -47 -63 -28 -51 -34 -89 -2 -84 -78 -81 -9 -24 -79 0
23 43 54 61 21 17 15 45 82 5 8 30 42 89 62 35 74 56 85 24 83 6 64 7 78 27 -52 -63 -72 -41 -3 -68 -44 -25 -14 -12 -51 -18 -86 -26 -80 -79 -10 -90 -40 -22 -84 -11 -31 -39 -70 -71 -55 -2 -81 -57 -34 -48 -37 -50 -69 -28 0
8 90 22 35 47 9 50 46 38 4 34 31 63 59 19 16 7 41 75 83 20 42 23 30 40 15 71 48 17 57 -64 -37 -58 -67 -78 -82 -93 -84 -92 -76 -29 -49 -24 -55 -21 -6 -54 -32 -81 -18 -56 -85 -51 -2 -27 -87 -91 -14 -68 -86 -12 0
73 47 53 44 65 55 66 82 6 15 43 90 54 52 69 50 64 63 9 42 25 89 23 40 93 68 1 32 30 79 29 59 91 58 72 37 -19 -48 -31 -77 -20 -26 -45 -18 -85 -75 -11 -33 -4 -83 -34 -21 -17 -78 -67 -14 0
31 65 63 92 45 8 91 40 14 34 75 53 7 59 51 42 32 20 47 86 48 56 57 5 73 6 1 84 15 16 43 52 4 12 27 41 81 18 21 10 88 17 76 78 70 24 -38 -77 -68 -19 -35 -36 -37 -74 -67 -13 -87 -49 -90 -55 -11 -79 -29 -72 -22 -25 -83 -60 -44 -9 -61 -58 -33 -23 -93 0
62 76 -44 -79 -5 -81 -21 0
58 47 62 35 23 19 59 55 16 49 93 8 67 66 76 46 72 74 11 44 91 -37 -69 -85 -88 -71 -42 -26 -63 -24 0
55 81 7 73 60 48 80 46 90 31 39 4 32 58 20 43 53 22 24 86 49 34 87 45 26 13 29 62 50 18 93 67 25 3 -8 -68 -12 -88 -66 -17 -84 -16 -71 -64 -5 -79 -2 -44 -10 -11 -42 -28 -56 -75 -1 -33 -69 -52 -76 -59 -38 -70 -51 -36 -65 -61 -54 -6 -85 -23 -63 0
6 40 93 4 62 86 54 34 84 29 80 63 92 -45 -28 -23 -87 -83 -59 -67 -1 -27 -56 -42 0
36 12 28 30 26 41 44 79 75 3 7 2 72 80 60 27 38 46 8 66 19 57 93 67 35 56 11 45 31 10 54 40 -48 -43 -23 -71 -73 -87 -92 -91 -47 -69 -1 -32 -53 -4 -42 -68 -89 -78 -81 -14 -85 -52 -24 -83 -50 -9 -18 -76 -16 -64 -13 -88 -84 -25 0
14 89 70 69 9 67 3 25 5 71 78 47 13 72 87 62 61 64 30 22 53 48 43 74 24 60 26 1 83 -27 -90 -49 -40 -63 -51 -20 -38 -81 -82 -28 -17 -18 -91 -39 -68 -73 -37 -84 -15 -92 -54 -36 -57 -7 -21 -4 -11 -44 -16 -35 0
51 64 2 86 71 93 38 78 12 49 27 54 41 75 52 57 33 73 90 69 66 3 44 76 30 5 37 28 47 16 81 19 -72 -83 -42 -26 -9 -53 -62 -40 -14 -91 -84 -25 -80 -36 -23 -34 -15 -7 -48 -22 -58 -82 -68 -8 -24 -77 -70 -13 -88 -1 -87 -60 -56 -65 -29 -32 -63 -55 -18 -39 -6 -31 -35 -92 -85 0
78 63 37 1 8 73 72 9 26 6 66 82 19 13 67 27 30 28 5 33 17 25 70 36 38 86 24 55 48 43 -77 -69 -59 -75 -32 -34 -52 -60 -21 -53 -74 -65 -15 -51 -71 -10 -88 -92 -12 -23 -79 -46 -54 -57 -35 -64 -61 -2 -47 -84 -22 -83 0
29 80 26 38 61 39 57 5 18 27 85 22 54 79 83 77 28 55 7 -9 -90 -70 -65 -76 -11 -46 -60 -47 -20 -42 -3 -36 -2 -31 0
43 15 50 -87 0
56 93 15 47 89 9 16 39 44 91 38 -19 -58 -27 -64 -74 -5 -6 -31 -85 -79 0
59 34 68 88 26 93 77 31 -53 -15 -12 -56 -35 -38 -80 -83 -49 -64 -70 -73 0
89 14 92 7 31 65 60 9 73 62 69 40 6 79 35 8 1 36 47 24 5 58 23 39 25 -28 -91 -20 -43 -83 -86 -67 -51 -85 -41 -66 -55 -2 -52 -72 -68 -32 -87 -57 -61 -19 -3 -76 -90 -33 -21 -45 0
76 52 19 47 58 13 44 23 20 78 89 43 70 91 54 59 81 82 42 3 73 26 93 48 30 74 60 16 41 69 4 1 63 51 62 80 -27 -15 -17 -37 -87 -64 -29 -7 -77 -40 -68 -33 -22 -12 -75 -85 -18 -14 -66 -71 -61 -49 -36 -57 -46 -79 -2 -10 -56 -25 -31 -35 -6 -86 0
26 46 67 48 92 86 83 81 43 42 13 80 -50 -63 -85 -69 -55 -75 -64 -59 -52 -88 -73 -58 -74 -12 -84 -76 -54 -91 0
65 92 47 68 74 53 84 15 70 57 93 46 30 36 17 89 5 42 7 55 -31 -35 -10 -4 -39 -58 -81 -66 -75 -86 0
25 61 92 19 23 46 20 1 36 12 41 7 64 48 17 50 57 51 59 68 32 -77 -70 -5 -74 -6 -38 -37 -40 -4 -43 -42 -71 -81 0
43 6 40 65 80 11 75 14 71 46 48 50 72 73 68 10 7 92 87 19 4 29 -44 -34 -21 -74 -2 -5 -56 -47 -24 -8 -13 -23 -79 -93 -67 -57 -32 -12 -63 -22 -55 -15 -82 0
41 55 79 11 35 61 67 81 -12 -37 -70 -69 -14 -33 -36 -10 -44 -89 0
9 16 13 52 84 21 49 65 38 85 77 8 6 42 27 76 19 -54 -93 -66 -11 -58 -89 -15 -28 -46 -55 -90 -40 -45 -35 -44 -10 0
91 65 70 26 40 22 87 92 33 12 88 1 4 5 14 8 66 29 68 2 77 -49 -60 -28 -45 -78 -13 -21 -32 -93 -58 -42 -47 -34 -61 -39 -11 -23 0
36 42 37 50 40 88 23 69 66 81 13 71 26 6 75 31 87 8 45 17 85 53 3 65 77 89 24 4 56 78 70 15 5 90 18 16 11 76 -2 -39 -84 -55 -60 -27 -12 -82 -35 -73 -64 -86 -30 -7 -63 -32 -34 -21 -14 -52 -80 -74 -9 -49 -79 -93 -20 -59 -41 -72 -51 -48 -22 -43 -1 -67 -83 -19 -91 -28 -47 -62 -58 0
90 88 68 72 44 14 77 32 -1 -80 -56 -82 -34 -30 -51 -91 0
59 38 80 86 70 16 -21 -73 -32 0
14 61 76 37 78 56 63 10 71 89 38 16 84 32 9 87 75 46 -45 -2 -5 -81 -80 -59 -57 -22 -20 0
83 42 85 17 9 81 67 10 13 50 11 62 63 92 55 58 31 -28 -74 -57 -68 -89 -61 -64 -93 -32 -78 -1 -91 -44 -47 -18 0
28 53 23 67 25 10 63 19 49 89 8 84 21 17 30 73 92 52 6 81 37 18 20 -86 -44 -82 -14 -24 -2 -77 -68 -66 -43 -47 -46 -74 -12 -56 -27 -7 -69 -22 -88 -34 -64 -75 -4 -31 -48 -15 -78 -36 0
72 74 18 17 93 84 5 76 6 20 13 89 65 66 31 88 12 -46 -15 -58 -8 -36 -75 -71 -63 -60 -30 -9 -90 0
64 54 19 27 14 48 6 29 34 80 66 46 21 47 28 89 44 63 58 12 62 67 79 39 43 85 17 87 55 -88 -20 -13 -26 -82 -49 -8 -4 -65 -41 -11 -22 -5 -92 -2 -52 -56 -42 -72 -37 -10 -77 -36 -33 -61 -7 -32 -60 -38 -74 -81 -73 -35 -57 -59 -83 -31 -9 -69 -40 -68 -75 0
18 93 71 10 67 54 84 -80 -55 -16 -11 -7 0
65 88 89 87 67 33 11 -57 -74 -51 -6 -69 -7 -60 -23 -34 -79 0
41 8 51 40 63 53 16 14 18 29 83 85 49 73 36 56 23 46 21 2 82 9 -67 -27 -70 -62 -50 -90 -66 -59 -22 -44 -72 -37 -33 -71 -1 -3 -65 -81 -25 -6 -17 -69 -75 -92 -20 -26 0
22 63 59 14 65 4 55 9 87 6 86 31 1 29 76 41 12 38 88 34 73 13 70 85 33 40 2 57 54 92 93 68 61 26 75 32 42 -35 -58 -10 -47 -19 -30 -79 -66 -64 -56 -78 -3 -25 -27 -71 -49 -77 -67 -83 -39 -62 -52 -80 -5 -8 -72 -18 -84 -28 -48 -90 -82 -21 -69 -51 -24 -44 0
51 80 69 36 41 16 30 82 28 64 44 87 70 38 59 74 12 84 57 54 31 56 81 39 3 89 79 29 55 91 42 75 88 22 6 27 63 32 50 -1 -14 -5 -7 -11 -23 -93 -21 -86 -10 -48 -2 -77 -72 -46 -43 -58 -9 -90 -34 -85 0
15 69 46 3 44 86 13 87 43 84 24 40 45 27 28 50 42 60 38 73 35 56 47 74 29 4 19 93 23 76 81 14 11 12 2 -72 -10 -39 -88 -62 -83 -78 -20 -16 -90 -67 -32 -48 -1 -63 -9 -82 -34 -55 -66 -37 -30 -75 -7 -17 -77 -52 -57 -18 -25 -5 -64 -22 -6 -41 -53 -58 -54 -68 -79 -89 0
59 93 58 9 73 64 48 13 40 20 2 85 -37 -39 -50 -12 -11 -82 -3 0
7 66 52 23 70 43 20 82 60 49 32 84 35 3 15 86 5 39 14 1 58 46 2 72 45 -17 -76 -48 -93 -90 -25 -65 -68 -69 -10 -55 -83 -27 -50 -40 -71 -30 -73 -24 -26 -31 -29 -34 -21 -74 -77 -44 0
24 87 27 3 32 20 13 9 81 50 23 54 53 25 65 29 14 78 55 80 33 5 40 74 28 34 62 92 93 77 67 60 48 56 26 70 16 -17 -11 -41 -2 -79 -51 -61 -66 -89 -52 -30 -6 -49 -71 -21 -42 -58 -1 -91 -76 -68 -45 -69 -86 -63 -88 -4 -31 -83 -10 -8 -22 -37 -64 -15 -18 -47 -75 -82 -12 -73 -35 -57 -36 -44 -59 -90 0
67 80 68 69 86 49 14 81 85 1 83 16 44 29 5 48 17 91 78 55 90 88 87 23 50 34 26 52 41 10 63 47 28 11 -40 -61 -65 -13 -71 -35 -20 -6 -56 -57 -31 -19 -12 -42 -21 -60 -72 -92 -2 -30 -27 -89 -66 -74 -43 -36 -25 -8 -33 -45 -32 -93 -22 -75 -82 -77 -39 0
41 82 88 35 31 60 15 64 59 8 38 33 77 86 2 54 24 91 -17 -20 -43 -81 -13 -46 -85 -9 -16 -34 -66 -58 -19 -14 -22 -7 -42 -5 -63 -78 -72 0
55 29 12 78 28 25 4 53 77 37 86 39 2 41 27 36 79 51 16 81 35 26 54 22 57 66 93 50 47 1 67 34 -10 -21 -58 -3 -17 -69 -85 -82 -14 -56 -19 -44 -61 -8 -92 -59 -63 -38 -70 -49 -45 -46 -90 -24 -52 0
79 10 72 64 87 36 -76 -58 -65 -91 -29 0
51 28 25 8 38 81 27 29 40 79 4 61 24 22 84 67 58 89 54 75 -53 -1 -32 -7 -56 -2 -92 -85 -5 -37 -43 -48 -62 -60 -90 -88 -86 -52 -16 -10 -17 -68 -73 -21 0
92 73 42 45 69 22 26 37 63 93 68 31 67 71 44 33 88 21 20 62 30 41 74 1 49 15 82 46 4 8 -14 -86 -36 -60 -27 -3 -80 -6 -81 -57 -76 -84 -17 -48 -89 -19 -55 -87 -16 -18 -5 -66 -72 -2 -83 -28 -13 -78 -85 -47 -11 -52 0
7 34 2 82 44 74 84 10 56 14 11 28 1 41 46 48 70 86 55 16 50 75 40 68 61 32 63 47 73 78 12 81 21 9 13 89 71 83 49 33 43 19 38 5 22 77 62 3 4 24 -79 -80 -51 -93 -23 -8 -65 -31 -60 -54 -20 -39 -85 -45 -90 -58 -87 -66 -26 -18 -30 -17 -52 -29 -35 -37 -6 -57 -76 -15 -91 -69 -92 -67 -25 -64 -42 -72 -27 -36 -59 -53 0
13 15 11 1 19 64 18 44 21 49 6 58 92 63 81 59 53 30 50 16 45 37 28 3 56 46 77 35 -34 -9 -33 -89 -31 -84 -85 -52 -71 -66 -5 -62 -22 -29 -39 -8 -48 -26 -54 -78 -23 -27 -55 -20 -72 -67 -75 -60 -61 -43 0
23 42 46 13 65 9 88 4 7 43 8 5 55 33 36 66 37 90 20 51 71 67 93 45 39 83 44 38 91 60 24 57 70 17 25 -84 -41 -29 -76 -30 -52 -73 -89 -68 -75 -40 -34 -72 -16 -69 -82 -32 -2 -49 -81 -53 -62 -79 -63 -15 -86 -19 -92 -80 -35 -28 0
41 79 40 44 92 -71 -11 -26 -22 -73 -68 -93 -80 -27 -32 -45 -81 -17 -70 -15 0
7 78 81 50 93 18 58 8 65 31 86 16 88 35 87 25 29 89 37 74 32 42 26 84 83 47 92 90 9 75 52 48 60 39 38 19 69 85 72 71 43 68 17 6 33 44 79 3 1 82 -10 -40 -66 -62 -51 -91 -21 -4 -67 -36 -12 -57 -11 -76 -13 -27 -59 -14 -56 -61 -54 -77 -23 -15 -24 -80 -28 -49 -20 -30 -53 -46 -45 -41 -2 -63 -34 -70 -64 -5 -22 0
9 70 86 45 40 18 48 92 32 90 65 67 36 2 19 73 31 42 49 53 6 62 54 13 77 28 50 87 14 33 71 82 15 63 17 58 55 11 34 60 80 -75 -16 -78 -56 -39 -26 -44 -59 -29 -22 -41 -79 -20 -88 -3 -24 -85 -10 -35 -52 -69 -38 -5 -93 -51 -37 -12 -89 -1 -46 -66 -23 -43 -91 -4 -47 -8 -57 -72 -68 -74 -83 -61 -84 -30 -27 0
50 91 80 20 53 4 70 51 30 35 87 1 32 18 16 65 36 -19 -11 -47 -67 -33 -28 -10 -46 -83 -62 -57 -6 -44 -86 -41 -63 -56 -52 -81 -24 -64 -8 0
61 75 31 64 26 20 52 5 19 73 11 57 43 6 82 47 90 66 32 91 67 -22 -15 -25 -80 -1 -62 -44 -30 -28 -68 -53 -84 -38 -93 -76 -51 -4 -85 -79 -21 -74 -36 0
81 57 29 55 74 92 18 86 89 61 64 66 70 21 62 63 1 50 39 31 24 -45 -83 -25 -91 -6 -34 -73 -15 -14 -41 -85 -20 -23 -49 -17 -19 -56 0
80 26 71 13 52 86 24 16 19 14 81 44 36 64 1 21 50 33 43 85 8 72 51 46 83 39 90 60 18 53 54 40 70 29 74 48 58 59 31 69 79 7 93 30 2 25 27 75 -49 -3 -11 -77 -68 -15 -56 -78 -47 -37 -42 -66 -55 -45 -32 -82 -41 -22 -91 -65 -87 -17 -61 -28 -5 -63 -89 -10 -73 -35 -4 -38 -88 -76 -9 -62 -20 -57 -92 -23 0
2 38 22 52 61 54 69 15 32 70 33 67 49 63 8 30 27 39 57 34 3 1 47 36 56 85 91 93 80 60 9 20 71 84 7 5 68 78 42 17 23 26 92 44 50 48 19 40 28 43 -82 -89 -58 -12 -87 -90 -24 -16 -10 -45 -75 -86 -74 -55 -83 -77 -11 -21 -18 -6 -59 -37 -13 -88 -35 -53 -81 -29 -65 -4 0
43 73 74 7 30 15 85 67 34 38 90 12 45 51 87 77 89 18 66 21 83 61 40 10 25 54 71 14 81 52 59 28 91 19 37 22 44 -5 -8 -84 -92 -47 -70 -57 -55 -33 -88 -80 -50 -48 -4 -64 -78 -23 -24 -62 -65 -20 -32 -1 -2 -58 -72 -56 -39 -69 -42 -46 -63 -11 -36 -60 -9 -49 -3 0
93 39 13 87 71 24 55 23 52 14 7 50 69 41 47 46 88 20 85 79 1 38 31 5 65 62 11 8 68 74 9 54 90 76 61 35 15 80 -42 -75 -89 -4 -21 -53 -91 -43 -29 -37 -70 -59 -17 -49 -78 -63 -48 -19 -83 -51 -2 -86 -56 -60 -3 -18 -27 -66 -45 0
37 84 38 57 65 20 16 42 1 18 -60 -78 -54 -61 -83 -40 -7 -21 -43 -6 0
73 72 21 76 30 5 16 54 63 67 17 62 49 70 75 79 2 20 18 9 39 8 84 91 14 4 87 78 65 23 42 43 64 15 1 56 81 48 82 -44 -60 -77 -25 -51 -36 -7 -11 -83 -6 -47 -59 -10 -13 -85 -57 -50 -52 -71 -3 -31 -28 -33 -93 -29 -90 -58 -37 -66 -86 -45 -92 -32 -80 -26 -19 -24 -34 -53 -89 0
92 42 27 68 6 93 63 83 53 4 66 33 13 65 64 43 37 14 -32 -11 -12 -52 -91 -31 -10 -17 -76 -56 -67 -88 -60 -51 -25 -23 -47 -1 -72 -78 0
47 56 68 64 58 51 81 19 24 35 73 71 10 61 82 44 17 89 66 3 87 12 83 29 26 76 11 6 69 37 72 52 5 7 67 21 41 40 84 23 -57 -70 -43 -74 -75 -15 -25 -90 -55 -33 -20 -28 -14 -53 -93 -16 -36 -86 -92 -32 -50 -4 -45 -48 -46 -63 -31 -8 -38 -60 -9 -22 -91 -59 -39 -49 -13 -88 -78 0
21 71 36 26 37 61 18 15 29 79 25 4 49 2 56 40 80 41 89 7 24 3 45 6 51 83 57 92 66 8 64 12 10 30 85 91 65 39 72 88 63 -54 -78 -33 -1 -13 -48 -34 -17 -90 -84 -69 -28 -81 -23 -77 -9 -11 -70 -46 -75 -16 -5 -44 -38 -87 -47 -67 -76 -93 -14 -35 -22 -62 -53 -52 -31 -32 -43 -58 -42 -55 -59 -82 -50 -73 0
11 8 28 71 82 -15 -92 -56 -22 0
69 35 26 13 12 25 20 74 80 15 -93 -65 -1 -3 -67 0
64 33 91 79 87 71 92 27 12 86 77 46 39 47 23 49 5 66 16 89 93 90 30 36 75 -82 -56 -28 -3 -17 -50 -63 -81 -48 -19 -24 -84 -9 -55 -2 -68 -31 -18 -1 -69 -40 -32 -10 -11 -22 -14 0
64 15 70 41 -68 -48 -83 0
45 48 13 4 72 1 34 82 54 30 15 63 62 35 93 59 8 57 2 58 56 84 70 73 -23 -42 -51 -29 -60 -10 -91 -83 -25 -43 -27 -12 -53 -64 -9 -20 -41 -76 -44 -65 -79 -55 -50 -86 -32 -77 -3 -49 -47 -89 -18 -80 -14 -92 0
66 89 93 70 74 38 56 26 23 51 15 4 60 73 83 86 75 10 17 3 85 72 29 54 13 31 68 50 16 78 33 28 79 91 88 7 35 41 -58 -21 -19 -20 -30 -8 -11 -42 -82 -67 -57 -5 -24 -84 -44 -87 -9 -6 -1 -64 -55 -22 -69 -14 -71 -81 -63 -76 -27 -12 -2 -90 -34 -37 -32 0
38 40 9 41 80 64 39 53 26 28 16 81 91 67 55 13 76 7 31 56 11 35 69 60 10 65 58 34 82 48 15 79 30 47 88 70 20 46 27 37 43 45 59 19 -84 -86 -77 -83 -63 -57 -51 -52 -49 -72 -33 -74 -42 -85 -68 -78 -75 -24 -71 -29 -93 -18 -12 -87 -32 -4 -92 -25 -66 -17 -3 -22 -8 -44 -23 -6 -5 -62 -50 -36 -90 -73 -2 -1 0
48 51 61 23 13 21 38 88 18 28 55 30 16 68 65 32 44 47 34 37 9 3 81 35 12 76 29 85 52 -45 -54 -72 -7 -15 -58 -25 -73 -67 -27 -93 -92 -24 -60 -10 -2 -80 -26 -82 -79 -59 -11 0
92 67 64 8 70 62 22 75 49 63 74 41 7 91 77 58 44 -87 -30 -53 -66 -1 -17 -19 -23 -57 -20 -54 -83 -39 -35 -89 -52 -45 -72 -26 -93 -28 -27 -65 -84 -32 -6 -21 0
18 1 6 11 75 36 37 46 5 65 77 39 19 63 57 49 85 10 47 86 42 48 82 33 93 67 91 -20 -34 -31 -15 -70 -9 -16 -23 -38 -27 -51 -83 -7 -22 -81 -45 -60 -72 -66 -2 -40 -78 -28 -59 -55 0
6 77 24 58 75 53 2 38 50 90 34 40 62 44 56 54 17 55 26 10 59 1 12 11 84 -57 -68 -46 -20 -67 -32 -19 -80 -22 -7 -36 -15 -41 -35 -61 -29 -37 -39 -70 -16 -52 -49 -78 0
65 84 49 35 48 42 39 40 78 61 2 57 62 36 25 60 22 10 71 44 75 31 91 82 92 66 37 19 24 93 46 3 15 90 88 21 -67 -23 -80 -27 -52 -34 -54 -4 -56 -81 -29 -73 -77 -63 -1 -76 -8 -43 -86 -50 -83 -87 -12 -68 -5 -45 -9 -47 -51 -16 -32 -74 -7 -72 -6 -41 -38 -26 -28 -53 -13 -69 -58 -89 -55 -70 -30 -11 -64 -59 0
57 23 51 81 29 43 28 48 14 82 67 75 65 12 4 44 13 69 9 84 88 31 20 19 46 79 41 30 62 83 17 -22 -77 -33 -35 -32 -50 -93 -63 -89 -27 -59 -55 -38 -53 -7 -64 -37 -76 -90 -18 -40 -25 -47 -21 -71 -70 -2 -42 -72 -56 -60 -1 -24 -39 -11 -15 -49 -68 0
64 44 2 76 8 37 19 68 29 31 39 71 -35 -57 -7 -72 -15 -22 -43 -3 -40 -89 -66 -33 -25 -69 -30 -23 -49 -50 -79 0
70 93 46 42 39 75 31 59 74 45 -51 -58 -92 -33 -7 -68 -50 -44 -77 -25 -53 -15 -76 0
42 49 5 70 92 -8 0
41 69 39 16 28 13 37 63 57 59 61 85 25 35 84 26 90 64 50 33 8 51 66 80 32 48 72 43 92 88 11 62 44 70 71 23 30 60 -46 -58 -17 -53 -24 -76 -18 -52 -54 -9 -81 -15 -3 -29 -2 -87 -91 -86 -4 -77 -89 -20 -68 -56 -75 -12 -42 -19 -7 -27 -1 -67 -79 -6 -83 -45 -47 0
91 54 65 30 57 58 53 13 80 79 61 31 21 29 81 75 60 16 90 43 25 85 37 69 -26 -67 -11 -32 -28 -68 -42 -39 -50 -24 0
36 47 6 61 28 26 84 76 32 53 73 10 38 35 22 29 21 87 83 85 34 63 12 86 1 18 30 72 59 66 74 52 91 27 4 60 57 20 9 15 92 64 43 -7 -88 -23 -49 -17 -13 -69 -46 -45 -56 -67 -80 -68 -82 -42 -48 -11 -2 -71 -70 -93 -65 -25 -3 -41 -58 -16 -33 -37 0
56 53 6 72 67 2 35 55 12 43 62 46 79 44 19 7 58 90 68 93 85 37 14 18 33 11 64 84 21 51 70 89 4 9 63 82 74 61 -54 -59 -30 -39 -28 -75 -26 -29 -77 -47 -31 -83 -81 -15 -20 -49 -73 -24 -1 -38 -69 -86 -78 -87 -41 -57 -22 -13 -3 -5 -60 -25 -91 -10 -32 -50 -80 -66 -65 0
60 70 9 11 56 -5 -85 -84 -46 -23 0
3 36 54 67 71 17 2 4 59 19 40 81 93 51 84 7 6 74 11 15 55 20 44 9 35 23 88 75 32 14 42 58 92 72 48 13 85 49 90 64 87 46 66 43 22 50 78 -30 -38 -34 -8 -83 -86 -80 -16 -39 -33 -47 -31 -1 -56 -65 -25 -26 -82 -70 -60 -21 -24 -91 -41 -28 -69 -52 -79 -45 -18 -62 -73 -61 -12 -5 -57 -37 -63 -89 -53 -29 0
36 59 40 77 67 91 54 10 -62 -51 -79 -13 -27 -49 -45 -63 -86 -24 -71 0
8 39 93 25 55 5 87 88 34 72 12 62 80 52 20 89 -68 -66 -15 -35 -71 -79 -9 -45 -77 -1 -42 -30 -44 0
6 15 48 64 34 74 89 59 38 85 30 73 46 33 7 58 42 83 88 81 28 80 56 57 39 84 -31 -50 -1 -27 -10 -2 -67 -36 -93 -32 -52 -63 -37 -20 -43 -55 -86 0
88 34 68 59 21 12 -41 -72 -40 -84 -91 -25 -46 0
39 14 88 8 24 82 28 11 54 40 87 22 26 33 -21 -46 -32 -16 -89 -75 -44 -61 -25 -7 -81 -70 -41 -51 -3 -90 -18 -19 0
13 22 63 20 65 40 82 68 47 14 32 34 18 67 86 72 59 51 88 44 39 78 61 9 1 -43 -80 -29 -12 -71 -2 -7 -92 -81 -35 -8 -69 -41 -70 -6 -11 -21 -19 -73 -54 -15 -5 -62 -52 -33 -57 0
43 46 81 60 39 14 34 13 54 90 48 29 64 71 82 4 47 35 19 18 58 86 -16 -62 -31 -53 -56 -80 -27 -85 -74 -28 -36 -79 -63 -44 -83 -41 -7 -22 -69 -93 -11 -10 -3 0
50 28 92 1 49 82 39 20 66 23 12 38 7 87 32 22 43 79 74 13 40 48 55 88 -31 -26 -60 -89 -36 -5 -42 -73 -37 -65 -61 -69 -16 -70 -6 -72 -24 -58 -67 -90 -71 -83 -33 -9 -34 -85 -57 -46 -25 -63 0
10 91 18 46 89 47 4 61 82 15 -58 -9 -29 -88 -45 -74 -76 -77 0
51 -13 -77 -68 0
17 74 38 54 75 61 40 64 1 65 63 24 46 81 20 6 42 11 85 26 83 8 31 77 86 13 71 51 18 14 23 25 19 89 21 68 82 4 80 43 76 33 -32 -53 -50 -27 -30 -88 -92 -52 -67 -29 -73 -60 -37 -36 -56 -15 -22 -91 -72 -62 -55 -45 -93 -84 -57 -12 -58 -90 -3 -78 -5 -79 -35 -28 -47 -69 -49 -2 0
59 47 72 48 64 86 56 54 25 92 18 66 82 67 73 7 3 41 49 50 19 1 12 45 90 43 21 81 38 77 84 5 75 78 -69 -68 -23 -85 -13 -20 -40 -32 -44 -53 -51 -33 -29 -10 -46 -15 -87 -62 -42 -27 -34 -22 -70 -30 -58 -91 -57 -60 -74 -63 0
37 1 77 29 33 19 89 67 44 -53 -43 -36 -25 -72 -26 -28 -4 -83 0
80 77 86 4 87 17 -15 -31 -68 -2 -19 -12 -59 0
70 52 30 73 92 10 18 46 20 82 3 8 74 67 22 47 16 48 12 89 60 -72 -42 -4 -28 -69 -2 -14 -17 -61 -62 -34 -35 -58 -27 -83 -1 -5 -25 -88 -49 -6 -21 -66 -9 -80 -39 -43 -54 0
18 92 41 65 90 86 68 11 69 70 15 49 87 42 28 29 13 93 64 23 63 62 73 57 32 8 55 46 5 9 -27 -2 -85 -39 -50 -47 -3 -17 -76 -30 -78 -75 -22 -26 -80 -91 -60 -83 -44 -31 -88 -34 -6 -89 -43 -24 -38 0
52 41 34 17 72 2 14 40 33 61 85 21 35 60 29 13 26 11 53 73 87 54 45 3 27 84 77 28 44 7 68 56 47 51 22 58 66 59 19 10 70 38 20 23 57 -43 -69 -75 -89 -46 -37 -16 -42 -55 -15 -80 -31 -18 -88 -91 -64 -24 -63 -8 -5 -39 -71 -78 -74 -62 -48 -36 -76 -1 -12 -79 -92 -83 -82 -81 -86 -93 -50 -9 -25 -32 -90 -6 0
63 64 9 54 31 89 7 49 23 65 4 55 82 85 -24 -16 -38 -30 -59 -88 -1 -57 -75 -66 -13 -40 -48 -3 -72 -74 -41 -78 -36 -77 0
42 -52 -88 -37 0
38 60 54 2 63 34 31 73 57 30 26 45 8 9 1 -42 -41 -66 -37 -62 -61 -85 -71 -83 -84 -17 -91 -55 -22 0
56 78 80 -85 -43 -35 -19 -48 0
44 65 38 89 32 90 82 11 43 55 52 48 41 54 64 26 84 -47 -78 -35 -58 -57 -37 -75 -8 -42 -3 -27 -23 -10 -33 -63 -28 -49 -71 -46 -51 -53 -66 -34 -14 -74 0
28 34 12 17 73 29 58 74 75 25 32 48 23 90 6 54 89 21 46 13 50 52 68 3 -69 -76 -8 -63 -81 -61 -31 -38 -49 -67 -64 -83 -10 -42 -33 -40 -79 -65 -7 -57 -56 -60 0
46 42 39 14 44 38 66 18 73 20 24 33 47 64 84 35 11 3 89 55 29 7 27 17 70 65 40 80 30 93 60 62 74 75 85 78 88 -9 -69 -45 -58 -56 -5 -13 -82 -90 -31 -83 -71 -37 -79 -81 -23 -68 -8 -53 -36 -32 -59 -43 -19 -86 -76 -67 -49 -41 -87 -92 -77 -63 -2 -28 -72 -15 0
18 13 45 50 12 16 32 47 9 86 79 4 70 64 27 44 74 22 42 93 77 43 58 46 11 55 38 -71 -84 -89 -56 -54 -31 -35 -90 -51 -17 -23 -3 -6 -48 -41 -66 -28 -19 -72 -39 -76 -1 -67 -87 -83 -20 -5 -62 0
49 6 61 39 89 65 16 73 45 3 47 14 56 78 33 -68 -9 -23 -46 -12 -83 -79 -36 -54 -53 -17 -57 -1 -91 -25 -40 0
75 51 78 73 3 25 28 17 53 69 35 9 15 67 87 38 65 92 55 24 48 36 31 46 27 45 6 82 74 29 16 79 -81 -76 -49 -57 -59 -14 -10 -50 -8 -83 -5 -47 -19 -85 -54 -33 -20 -71 -64 -7 -62 -58 -63 -39 -91 -1 -86 -89 -44 -72 -70 -43 -18 -26 -13 -60 -2 0
37 31 53 68 14 84 35 57 74 49 24 78 30 76 56 41 36 69 71 6 90 91 52 44 3 32 38 18 21 87 89 29 20 -86 -13 -9 -45 -92 -61 -26 -72 -33 -46 -1 -12 -93 -80 -39 -64 -48 -27 -23 -59 -19 -62 -55 -88 -77 0
-36 -12 0
74 69 92 43 87 12 14 54 35 61 42 59 85 51 65 71 31 20 19 67 3 26 29 56 50 79 30 83 32 11 60 23 10 88 77 21 -52 -27 -58 -24 -63 -78 -84 -89 -80 -37 -41 -76 -57 -73 -6 -81 -53 -4 -90 -13 -91 -40 -86 -45 -16 -48 -9 -36 0
11 86 56 83 7 82 84 -78 -13 -38 -33 -21 -22 -53 -45 -20 -93 -10 -61 -76 -9 0
18 47 3 84 71 42 6 44 9 11 28 87 61 63 16 64 5 82 91 23 33 88 51 34 89 35 72 2 85 93 22 39 7 32 30 48 12 53 75 65 52 49 55 -73 -1 -26 -81 -92 -86 -60 -43 -21 -27 -10 -4 -67 -46 -76 -31 -57 -83 -59 -41 -8 -62 -80 -79 -69 -54 -58 -66 -40 -29 -45 -20 -56 -38 -19 -78 -74 -25 -17 -14 -36 -70 -37 -15 -90 0
32 19 47 76 50 69 28 87 44 30 14 73 31 8 24 93 22 15 84 38 63 72 43 29 80 65 16 70 64 26 34 51 56 45 -39 -74 -75 -79 -42 -1 -92 -21 -11 -85 -62 -33 -18 -17 -7 -55 -12 -36 -53 -49 -71 -68 -2 -58 -90 -10 -52 -48 -35 -54 -59 -4 -13 -57 -86 -89 -3 -20 -37 -41 -66 -5 -23 -82 0
12 92 89 47 32 50 61 76 8 38 25 43 45 37 31 66 52 93 75 48 14 19 58 60 88 24 74 18 13 55 57 33 34 16 56 73 53 23 1 65 84 3 9 86 -81 -46 -87 -70 -91 -30 -51 -54 -79 -40 -62 -69 -67 -59 -27 -4 -80 -6 -42 -22 -64 -7 -49 -83 -77 -2 -11 -71 -82 -78 -72 -17 -28 -20 -36 -39 -68 -90 -35 -63 -29 -10 -21 -85 -15 -44 -26 -5 0
34 85 44 8 37 55 57 29 69 58 81 56 26 76 18 36 38 87 7 52 39 75 5 63 28 82 42 24 15 88 35 -10 -16 -86 -23 -50 -70 -27 -47 -51 -80 -3 -14 -79 -83 -78 -25 -93 -49 -59 -61 -46 -54 -4 -64 -62 -84 -17 -31 -30 -1 -12 -68 -66 -11 -65 -67 -41 -89 -40 -20 -60 -6 -43 -77 -2 -22 -91 -21 0
39 6 73 92 70 59 5 57 84 21 8 40 12 79 82 17 20 1 68 23 34 64 90 72 85 -16 -15 -56 -76 -75 -3 -87 -27 -66 -80 -91 -19 -42 -60 -31 -93 -32 -69 -22 -10 -88 -14 0
22 76 -7 -62 -33 -74 -36 0
28 89 68 44 78 -70 -85 -5 -33 0
88 92 37 77 9 34 16 54 -45 -7 -68 -3 -22 -15 -81 -14 -70 -18 -28 0
14 -17 -41 -43 -29 -3 -31 -12 -64 0
62 66 18 31 68 83 55 74 92 76 89 36 51 1 13 24 41 48 6 7 -46 -93 -3 -81 -33 -80 -75 -64 -40 -37 -61 -56 -86 -4 -90 -21 -28 -14 -72 0
89 46 44 74 38 -23 -48 -56 -39 -75 0
48 27 37 16 49 8 28 58 26 60 89 84 83 -90 -42 -24 -45 -33 -36 -17 -50 -20 -32 -6 -53 -12 -92 -67 -21 -68 -44 -18 -25 -55 0
22 20 15 48 82 27 75 51 84 32 77 67 71 18 6 50 87 4 54 64 30 65 66 12 16 49 73 41 56 81 86 14 45 19 28 44 29 -42 -83 -47 -1 -39 -93 -72 -21 -59 -2 -76 -36 -92 -69 -63 -79 -7 -25 -61 -33 -34 -35 -26 -89 -11 -38 -46 -10 -40 -8 -23 -31 -13 -37 -43 -9 -57 -80 -52 -74 -91 -68 -62 -55 -85 -70 -3 0
45 78 63 17 25 40 27 21 23 64 88 69 5 42 87 22 15 16 52 -54 -80 -2 -93 -55 -20 -44 -68 -84 -12 -56 -74 -7 -70 -32 -4 -24 -14 -38 -60 -41 -39 -82 -37 -6 -51 -72 0
47 16 78 3 32 80 84 62 41 28 35 75 30 31 68 6 43 24 73 61 88 71 93 58 20 52 23 27 86 70 51 92 17 13 11 22 39 25 -79 -44 -33 -76 -60 -56 -10 -21 -46 -50 -66 -69 -37 -91 -85 -90 -82 -83 -89 -57 -34 -87 -38 -54 -59 -53 -63 -18 -42 -1 -36 -9 -12 -55 0
69 17 34 25 28 64 14 65 56 12 16 87 24 59 4 52 22 20 -2 -72 -67 -46 -51 -40 -57 -54 -83 -58 -55 -84 -5 -7 -90 -35 -13 -37 -71 -85 -41 -77 -76 -39 -44 0
57 11 33 83 91 87 63 26 72 9 4 7 36 8 56 43 22 21 10 84 -79 -50 -31 -18 -81 -68 -70 -25 -15 -13 -47 -3 -29 -65 -76 -74 -54 -28 -46 -17 0
86 89 3 7 74 25 39 81 66 93 23 2 90 26 78 9 19 53 40 68 18 69 54 30 46 70 27 41 12 64 60 61 13 21 38 92 75 17 85 43 34 73 35 14 16 10 42 22 -67 -65 -36 -91 -28 -51 -11 -62 -79 -37 -80 -33 -56 -57 -1 -55 -31 -49 -44 -88 -47 -4 -45 -6 -82 -52 -71 -83 -84 -20 -77 -63 -48 -24 -72 -29 -50 -59 -58 -32 -5 0
15 3 10 60 30 5 14 77 55 86 34 93 23 6 46 -31 -38 -73 -13 -41 -87 -67 -58 -79 -90 -2 -53 -20 -40 -65 0
80 44 6 69 86 74 27 25 14 61 88 10 17 56 93 8 33 54 84 34 63 78 31 49 76 5 39 50 19 47 66 75 67 28 7 23 38 12 48 53 55 13 -29 -83 -40 -62 -3 -20 -87 -52 -30 -9 -37 -46 -73 -68 -21 -81 -71 -32 -91 -35 -72 -64 -92 -18 -42 -11 -60 -85 -65 -51 -24 -58 -59 -1 -22 -70 -4 -77 0
1 3 5 75 39 87 31 65 66 74 8 88 63 35 49 11 21 42 53 50 -61 -56 -38 -48 -62 -16 -80 -30 -89 -76 -57 -59 -72 -86 0
86 33 44 3 38 14 11 6 79 49 88 42 55 4 77 31 75 91 50 12 16 39 90 -21 -29 -93 -82 -34 -30 -85 -32 -9 -69 -20 -36 -51 -62 -65 -19 -73 -80 -70 -46 -2 -92 0
77 65 35 19 58 18 72 21 10 80 56 68 49 13 43 9 15 23 7 63 88 -50 -76 -53 -70 -51 -87 -44 -84 -46 -90 -91 -93 -69 -45 -73 -28 -57 -66 -31 -71 -78 -32 -16 -37 -11 -12 -55 -26 -54 -41 -62 -64 -5 -59 0
75 68 89 62 53 76 46 90 71 14 55 8 74 83 86 35 52 48 66 -59 -20 -19 -72 -31 -51 -1 -61 -33 -32 -54 -64 -84 -27 -79 0
52 7 6 44 10 4 34 32 80 90 61 82 60 1 28 77 17 85 3 37 35 45 31 62 57 63 33 79 12 36 2 42 71 74 53 86 88 70 41 81 87 15 65 13 64 -11 -51 -84 -18 -25 -54 -29 -49 -55 -38 -43 -69 -58 -59 -19 -91 -9 -50 -26 -5 -76 -14 -27 -92 -47 -20 -73 -8 -67 -22 -75 -46 -21 -39 -66 -93 -40 -72 -89 -68 -16 -30 -56 -23 0
70 38 5 77 12 42 35 79 17 91 88 10 31 83 28 14 55 57 69 93 75 40 15 86 18 29 1 -64 -46 -60 -8 -50 -58 -36 -11 -85 -30 -41 -7 -20 -21 -66 -54 -2 -47 -22 -84 -45 0
42 40 83 15 6 82 68 64 10 88 23 20 38 41 79 58 87 56 28 33 36 4 62 51 55 -66 -5 -32 -16 -24 -9 -3 -2 -89 -81 -59 -86 -75 -26 -67 -11 -13 -25 -45 -35 -71 -91 -39 -93 -63 -44 -52 -77 -29 -65 -14 -84 -18 -47 0
43 81 8 44 40 62 15 59 45 60 36 41 32 34 87 35 29 69 88 54 55 9 16 -57 -73 -82 -27 -86 -66 -89 -2 -31 -26 -7 -46 -71 -24 -1 -76 -92 -33 -75 -78 -58 -61 0
77 22 74 13 51 6 34 52 37 1 66 38 36 89 53 43 64 2 40 70 8 93 83 76 48 39 7 84 62 35 11 32 91 92 67 29 -60 -15 -54 -14 -16 -72 -17 -25 -50 -28 -24 -55 -47 -19 -9 -82 -46 -61 -20 -10 -73 -5 -59 -87 -30 -21 -58 -42 -86 -79 -45 -3 -63 -81 -71 0
75 92 76 57 -29 -58 0
68 55 18 87 80 16 19 46 24 3 54 74 34 49 69 66 -7 -6 -50 -57 -44 -89 -91 -12 -84 -41 -61 -79 -48 -65 -36 -21 -28 -31 -23 0
14 47 89 56 52 54 75 16 90 36 22 46 4 25 61 42 48 76 83 93 38 87 70 1 20 31 80 18 55 24 -39 -68 -44 -60 -78 -32 -92 -28 -62 -41 -10 -23 -34 -7 -49 -2 -27 -15 -66 -72 -77 -33 -8 -6 -26 -12 -79 -21 -29 -9 0
11 40 24 37 93 33 10 61 70 29 1 4 76 16 56 66 21 73 64 63 39 -65 -31 -12 -51 -41 -25 -86 -28 -3 -55 -59 -58 -62 -81 -23 -14 -53 -35 -52 0
7 68 38 15 42 22 52 34 86 17 28 59 64 35 57 25 82 47 49 55 83 6 50 92 27 20 4 14 40 18 1 16 33 62 61 30 24 9 93 45 87 -80 -36 -39 -11 -81 -67 -23 -48 -21 -8 -44 -88 -46 -89 -75 -2 -79 -43 -65 -72 -71 -85 -51 -69 -32 -19 -58 -66 -91 -90 -54 -60 -70 -77 -29 -5 -74 -13 -73 -31 -63 -3 -56 -78 -37 -26 -41 -84 -12 -53 0
58 91 35 79 7 27 92 75 62 54 57 5 48 36 85 59 19 10 63 26 51 64 69 37 50 56 21 73 42 60 89 55 -46 -70 -8 -44 -74 -90 -83 -30 -6 -43 -71 -78 -49 -29 -40 -4 -77 -2 -86 -53 -25 -88 -45 -38 -80 -81 -9 -15 -72 -23 -93 -22 -24 -11 -87 -28 -16 -3 -31 0
3 11 40 16 34 36 53 91 7 61 39 79 67 52 70 54 19 48 93 47 85 23 58 8 20 82 83 80 43 18 46 68 41 6 15 71 62 55 32 13 -87 -22 -30 -26 -27 -25 -9 -59 -12 -21 -44 -69 -31 -60 -65 -77 -49 -14 -73 -56 -81 -72 -42 -64 -57 -28 -86 -75 -74 -63 -2 -66 -29 -51 -1 -78 -88 -92 -37 -89 -24 -35 0
91 17 35 10 7 19 89 62 76 50 52 82 56 15 22 81 48 21 25 86 51 85 73 45 64 88 58 8 13 26 42 78 60 79 87 16 54 43 55 2 69 1 68 84 23 49 40 -57 -67 -61 -5 -27 -92 -4 -12 -18 -65 -46 -74 -72 -28 -90 -14 -32 -77 -93 -44 -24 -63 -33 -34 -53 -39 -31 -66 -36 -30 -83 -70 -20 -47 -37 -11 -6 -80 -75 -59 -71 -38 -41 -9 0
50 32 66 89 60 55 88 37 54 17 26 20 75 90 56 81 13 14 44 7 68 47 69 53 67 42 72 58 41 30 12 28 36 4 -15 -33 -22 -80 -23 -77 -38 -91 -83 -8 -76 -51 -3 -61 -82 -10 -18 -19 -65 -16 -2 -1 -39 -49 -73 0
90 21 10 69 4 43 70 84 31 89 5 14 30 57 22 93 48 34 92 42 28 80 55 17 68 49 -8 -83 -29 -1 -65 -86 -77 -61 -58 -39 -25 -75 -47 -88 -36 -12 -59 -46 -23 -73 -6 -9 -33 -85 -71 0
48 90 59 32 80 27 89 81 11 86 -43 -3 -41 -2 -54 -67 -17 -75 -45 0
68 40 19 61 8 2 33 29 -49 -35 -25 -34 -91 -48 -50 -78 -41 -85 0
42 32 64 -29 -59 -33 -66 -30 -49 -89 -85 -79 0
39 81 24 80 55 10 59 29 61 23 19 54 79 86 88 18 -37 -33 -66 -53 -31 -48 -65 -3 -93 -5 -35 -62 -16 -92 -52 -91 -70 -69 -78 -77 0
29 14 77 61 20 78 66 44 3 13 67 85 17 7 41 43 22 86 68 27 88 37 65 -62 -16 -55 -58 -48 -46 -6 -24 -33 -82 -2 -42 -72 -91 -34 -54 -89 -18 -52 0
78 25 87 31 46 52 44 4 3 74 92 59 65 80 50 68 75 12 38 11 82 77 90 57 -16 -19 -72 -6 -42 -14 -66 -21 -39 -17 -40 -5 -32 -13 -43 -34 -89 -29 -41 -26 0
61 56 67 62 60 -63 -51 0
36 89 51 38 9 84 59 92 58 73 93 79 29 40 63 77 88 5 35 66 72 47 80 15 67 71 62 23 -26 -8 -75 -37 -68 -61 -34 -18 -82 -74 -64 -31 -1 -6 -13 -22 -19 -16 -39 -50 -56 -52 -81 -11 -4 -17 -53 -76 -14 -43 -28 -44 -86 -45 -87 -10 0
45 57 93 85 10 27 58 62 52 56 12 50 18 33 24 2 16 82 44 73 39 28 30 31 15 77 80 78 67 25 61 -4 -64 -13 -26 -92 -43 -72 -37 -1 -59 -51 -91 -5 -14 -83 -47 -21 -20 -84 -68 -90 -8 -63 -22 -32 -81 -48 -23 -9 -29 -60 0
15 10 29 25 30 9 19 90 26 71 8 70 22 73 40 52 24 20 67 66 31 2 18 13 28 33 3 64 57 4 16 75 12 58 74 92 60 43 49 82 76 72 1 89 35 51 39 44 91 59 27 -14 -53 -5 -81 -61 -38 -46 -50 -79 -48 -45 -83 -69 -68 -11 -62 -55 -85 -17 -93 -80 -87 -32 -65 -78 -34 -21 -6 -54 -88 -86 -63 -36 -56 -84 -37 -41 -23 -77 -47 -42 0
34 16 92 35 38 41 44 7 54 84 22 10 17 21 68 50 58 12 36 51 25 48 46 81 60 -53 -80 -8 -6 -61 -57 -91 -15 -89 -72 -93 -37 -9 -63 -69 -43 -14 -78 -85 -24 0
76 21 47 28 83 43 56 51 77 68 31 91 93 61 12 67 41 -24 -9 -48 -65 -75 -39 -23 -74 -42 -52 -54 -50 -90 0
59 10 33 7 2 1 24 36 91 3 68 72 81 58 8 44 17 63 16 92 80 70 88 55 30 61 -90 -54 -13 -21 -69 -74 -78 -23 -42 -64 -57 -51 -82 -18 -39 -11 -32 -35 -62 -40 -6 -93 -86 -45 -73 -52 0
93 51 41 63 44 30 16 47 53 23 6 28 75 25 87 43 71 27 22 58 20 46 67 37 74 60 89 24 69 34 78 32 62 92 31 68 49 35 61 17 11 -4 -15 -90 -8 -1 -52 -73 -77 -76 -9 -40 -85 -29 -70 -72 -2 -45 -57 -55 -86 -10 -19 -50 -13 -54 -7 -64 -39 -88 -14 -33 -38 -65 -56 -36 -48 -83 -80 -79 -84 -5 -26 -91 -59 -66 0
92 48 11 44 78 17 84 10 2 40 22 12 67 30 33 88 -35 -87 -47 -62 -45 -76 -91 -31 -83 -43 -8 -37 -65 -77 -26 -66 -61 -68 0
80 61 28 36 16 70 67 69 25 90 71 58 4 72 60 26 84 74 38 19 42 20 53 5 54 12 51 11 9 17 27 21 52 44 39 62 41 40 37 -2 -81 -83 -34 -49 -89 -64 -50 -68 -86 -22 -78 -56 -31 -93 -46 -92 -75 -33 -87 -79 -1 -45 -57 -88 -76 -7 -10 -23 -30 -15 -8 -73 -6 -13 -29 -55 -48 -59 -85 -82 -32 -66 -14 -63 -3 -24 -47 -43 -91 -18 -65 0
58 57 -50 -18 -68 -29 0
5 16 78 17 39 50 86 56 37 79 85 23 8 21 89 74 10 48 80 92 26 47 82 -7 -64 -67 -3 -12 -71 -20 -70 -9 -88 -1 -41 -22 -36 -2 -40 -33 -57 -75 -34 -24 -35 -19 -14 -76 0
18 52 42 50 -28 -55 -29 -40 -8 -17 -85 -59 0
82 46 10 20 51 42 12 -40 -37 -33 -68 -77 -83 -21 -87 -22 -73 0
11 43 60 93 61 33 22 40 30 90 2 50 20 28 41 51 6 76 80 67 54 7 55 77 38 34 14 53 68 35 23 52 47 48 83 45 19 12 78 86 26 85 64 70 3 24 44 -21 -62 -16 -37 -63 -57 -32 -5 -89 -46 -82 -31 -74 -91 -1 -92 -69 -66 -87 -13 -15 -56 -71 -88 -42 -39 -18 -79 -29 -27 -58 -65 -25 -49 -81 -84 -10 -36 -72 -73 -75 0
52 19 70 7 64 61 29 24 23 73 87 75 16 93 55 44 36 31 26 25 62 3 53 43 51 28 13 48 89 66 71 4 57 -54 -17 -49 -74 -12 -72 -30 -9 -63 -33 -1 -11 -80 -46 -78 -85 -92 -18 -32 -42 -21 -82 -76 -38 -47 -77 -91 0
88 19 27 22 20 16 3 77 78 2 67 56 65 69 81 93 17 48 42 92 13 84 -54 -74 -89 -14 -5 -76 -40 -34 -70 -9 -61 -45 -62 -49 0
57 5 42 22 68 75 71 45 69 74 23 76 13 15 26 1 17 65 6 70 9 2 21 79 59 84 25 38 64 87 39 78 80 35 10 40 44 82 -32 -19 -90 -3 -8 -73 -37 -63 -58 -11 -92 -43 -77 -72 -85 -7 -12 -34 -86 -54 -36 -4 -49 -55 -20 -81 -83 -47 -60 -33 -61 -52 -88 -89 -14 -51 -50 0
33 44 10 21 62 65 43 51 29 82 79 90 3 39 63 64 88 77 80 60 19 69 89 24 52 73 12 5 1 67 87 41 70 13 28 38 8 -46 -92 -4 -9 -20 -35 -81 -72 -34 -32 -74 -42 -66 -83 -93 -68 -11 -37 -6 -55 -54 -16 -36 -22 -75 -50 -48 -17 -2 -91 -30 -61 -71 -59 -40 -84 -58 -23 -31 -53 -14 -49 -45 -76 -47 -57 -27 -56 -25 -7 -18 -26 -85 0
57 70 60 44 21 42 47 78 -1 -76 -40 -27 -88 -59 -49 -26 -82 -19 -65 -67 -56 0
24 47 41 10 44 27 9 22 51 3 75 23 37 11 54 48 18 17 62 90 -56 -2 -35 -57 -74 -16 -83 -1 -72 -39 -87 -25 -64 -53 -88 -71 -38 -29 0
24 16 50 14 6 33 34 87 52 91 81 68 36 92 70 47 26 40 62 53 73 51 13 74 69 31 38 7 86 57 63 -66 -32 -83 -3 -76 -20 -56 -85 -75 -89 -37 -61 -41 -42 -30 -8 -78 -55 -15 -17 -2 -35 -77 -27 0
29 85 0
43 51 58 61 57 40 39 12 15 36 88 76 93 8 62 86 70 84 47 82 21 50 19 27 78 60 46 48 74 3 24 75 69 32 79 1 38 29 44 20 34 22 16 13 17 -28 -2 -85 -65 -45 -6 -9 -23 -18 -55 -10 -56 -52 -41 -14 -92 -53 -54 -33 -77 -83 -49 -25 -7 -64 -42 -91 -63 -72 -5 -90 -35 -30 -68 -73 -26 -81 -59 0
5 35 17 46 36 91 -37 -92 -75 -56 -84 -88 -32 0
6 61 72 45 52 63 2 86 62 87 40 24 21 53 9 16 49 43 22 11 14 58 33 79 13 57 74 75 -73 -42 -51 -54 -10 -76 -64 -50 -93 -1 -84 -36 -39 -81 -80 -82 -37 -44 -41 -27 -20 -32 -15 -28 -69 -34 -18 0
10 33 60 92 89 38 6 36 78 55 30 72 27 64 34 41 47 90 22 57 45 11 42 3 -82 -20 -61 -23 -9 -44 -31 -16 -81 -69 -66 -87 -24 -35 -59 -67 -29 -19 -84 -93 -26 -48 -76 -12 -39 -58 -18 -63 -14 -37 -40 -28 -4 -91 -73 -50 0
46 61 42 75 27 68 2 16 34 -15 -18 -80 -91 -28 -57 -10 -37 -76 -31 -82 -30 -29 -39 -17 -83 -24 -32 -53 0
77 12 46 55 76 49 37 9 69 87 73 80 52 64 61 48 40 -84 -18 -30 -92 -68 -20 -58 -36 -82 -60 -31 -28 -22 0
45 58 41 86 -88 -38 -19 -69 -10 -6 -71 -51 -76 0
86 89 76 19 71 38 78 84 9 34 60 75 70 79 66 35 72 21 5 6 77 37 56 3 29 46 51 2 44 81 43 24 74 52 17 90 55 7 8 32 65 88 -82 -69 -73 -23 -39 -64 -27 -20 -14 -48 -92 -83 -87 -25 -68 -31 -54 -10 -1 -30 -61 -49 -63 -12 -4 -22 -80 -85 -47 -45 -58 -40 -62 -18 -11 -57 -67 -50 -42 -59 -26 -91 -93 0
72 79 61 82 64 40 37 25 43 9 78 12 58 93 15 22 91 33 89 60 11 42 85 86 75 51 20 69 32 19 59 44 41 13 71 38 48 54 45 27 1 90 49 57 -36 -28 -65 -18 -67 -80 -4 -66 -52 -2 -81 -53 -68 -17 -30 -34 -46 -29 -21 -92 -73 -16 -77 -24 -76 -87 -3 -8 -26 -63 -31 -47 -74 -6 -84 -55 -83 -39 -88 -35 -50 -7 -56 0
13 53 29 46 -37 -66 -48 -17 0
42 52 33 18 22 41 47 72 70 28 77 87 36 61 4 10 40 23 62 60 66 69 2 34 27 88 39 21 50 24 79 78 25 37 93 31 19 35 71 58 91 65 -90 -51 -64 -1 -86 -63 -75 -30 -16 -56 -13 -12 -80 -68 -53 -17 -49 -46 -38 -48 -76 -7 -43 -84 -6 -81 -57 -3 -74 -89 -82 -11 -32 -73 -26 -14 -20 -15 0
41 54 40 50 64 66 72 27 92 34 57 2 59 62 35 78 30 22 37 29 44 58 74 5 20 71 45 25 15 91 52 42 56 88 23 9 80 68 89 32 36 47 67 26 43 46 87 10 -70 -69 -63 -4 -65 -79 -21 -7 -14 -82 -53 -13 -76 -73 -31 -17 -84 -75 -18 -55 -61 -33 -1 -51 -39 -8 0
68 26 61 55 83 84 70 10 57 64 78 75 77 60 46 18 52 43 -6 -51 -80 -65 -40 -76 -89 -54 0
36 -20 0
14 22 11 48 60 20 21 13 37 2 18 85 91 47 76 34 16 78 32 72 75 31 45 65 19 86 25 52 39 62 33 -36 -46 -43 -12 -53 -93 -6 -1 -27 -79 -24 -28 -5 -89 -50 -29 -70 -15 -59 -54 -49 -35 -63 -4 -23 -67 -81 -61 -56 -40 -30 -82 -7 -69 0
34 72 25 57 81 20 65 52 55 13 60 90 41 49 61 83 31 12 62 50 44 78 21 -56 -70 -2 -74 -32 -8 -4 -54 -16 -27 -46 -28 -92 -15 -26 -47 -24 -43 -89 -67 -23 -59 -66 -73 -29 -51 -40 -1 0
56 6 67 59 63 76 31 65 8 30 51 92 32 5 28 87 88 39 10 27 9 16 3 68 4 75 47 50 17 22 7 11 61 91 86 57 14 60 89 35 83 -2 -18 -90 -93 -85 -23 -82 -26 -72 -66 -53 -80 -58 -81 -70 -34 -38 -54 -37 -1 -45 -24 -36 -46 -42 -77 -64 -44 -15 -73 -48 -33 -40 -43 -84 -25 -12 -20 0
48 54 59 83 38 5 86 8 77 63 50 52 41 14 12 61 10 37 90 6 24 40 64 76 44 78 58 20 -85 -1 -17 -89 -32 -46 -79 -25 -80 -53 -68 -18 -88 -65 -36 -31 -62 -47 -82 -45 -92 -69 -29 -57 -27 -84 -42 -11 -28 -74 -87 -60 -72 -73 -7 -35 -66 0
79 82 89 14 11 68 44 87 70 31 49 4 59 8 42 61 69 28 90 53 5 73 63 12 72 60 55 46 74 35 86 91 71 83 33 41 7 80 88 39 24 29 37 38 66 30 36 26 9 85 -57 -2 -21 -40 -92 -6 -62 -10 -54 -56 -1 -67 -19 -76 -84 -47 -81 -17 -18 -20 -15 -48 -45 -23 -25 -27 -50 -75 -51 -3 -78 -16 -65 -77 -22 -43 -13 -58 -93 -64 -34 0
21 57 75 80 37 51 15 56 79 24 86 34 1 17 2 14 10 11 71 16 31 44 66 47 9 5 -27 -18 -81 -84 -91 -40 -35 -38 -92 -88 -8 -42 -3 -58 -82 -6 -13 -69 -83 -29 -12 -23 -87 -68 -33 0
69 64 90 18 58 23 41 82 1 87 63 4 91 40 6 29 60 73 54 68 9 81 79 -66 -14 -84 -33 -76 -25 -47 -22 -57 -70 -20 -52 0
58 59 54 19 67 79 17 25 31 74 39 36 66 37 43 13 72 86 23 26 65 64 33 11 1 60 5 -70 -53 -34 -48 -92 -6 -28 -69 -29 -12 -22 -75 -93 -46 -73 -89 -82 -35 -8 -2 -44 -42 -38 -7 -61 -20 0
41 7 85 64 59 32 65 77 49 46 80 89 68 43 56 13 44 82 17 5 23 58 61 53 20 71 26 28 -83 -34 -88 -12 -69 -75 -21 -4 -19 -3 -31 -30 -70 -1 -78 -79 -57 -25 0
33 57 38 51 3 84 29 28 20 76 69 87 70 66 78 17 61 59 56 82 48 77 14 32 58 49 39 27 72 52 26 81 60 86 62 -53 -25 -11 -30 -47 -83 -7 -93 -5 -8 -75 -88 -16 -73 0
16 12 50 27 59 48 17 72 68 47 82 73 88 36 90 28 6 24 60 37 79 39 40 77 76 13 66 64 83 49 52 86 35 -81 -4 -63 -26 -23 -91 -43 -25 -7 -3 -75 -87 -46 -74 -5 -38 -21 -70 -69 -19 -15 -34 -10 -44 -14 -45 -84 -32 -18 -67 0
45 25 72 78 28 9 73 43 12 80 50 19 36 49 38 63 20 89 83 86 26 65 21 54 42 84 60 39 1 59 81 51 70 30 5 66 58 -7 -68 -10 -79 -62 -61 -67 -33 -93 -88 -2 -74 -4 -8 -53 -57 -11 -69 -75 -40 -27 -23 -64 -3 -91 -76 -31 -90 -44 -16 -85 -82 -6 0
33 65 85 6 89 3 76 12 53 84 -36 -59 -8 -81 -31 -41 0
79 3 20 90 6 23 8 11 70 67 15 64 53 13 25 81 54 60 24 80 49 52 88 44 -1 -26 -91 -68 -34 -63 -12 -89 -86 -92 -32 -35 -66 -7 -75 -10 -51 -69 -29 -57 -31 -22 -42 -47 -37 -9 0
54 34 63 36 42 14 19 66 1 79 58 39 8 93 62 60 41 88 -70 -72 -44 -61 -90 -7 -78 -86 -67 -68 -10 -20 -4 -27 -30 -29 -59 -76 -87 -37 -81 -38 -18 -33 -2 0
26 57 28 74 81 41 53 33 11 29 40 43 10 85 61 58 75 65 91 68 76 69 63 -83 -2 -92 -55 -45 -14 -50 -52 -38 -23 -6 -44 -59 -31 -86 -47 -12 -88 -4 -36 -64 0
59 93 32 -78 -74 -47 -40 -61 -62 -20 0
7 33 77 82 90 61 70 29 63 16 62 67 18 6 38 2 8 11 44 52 15 57 68 30 32 73 3 71 47 37 93 49 78 85 -26 -89 -84 -14 -72 -58 -81 -54 -46 -22 -40 -74 -80 -27 -13 -42 -23 -1 -48 -88 -64 -83 -4 -31 0
10 1 83 39 32 43 27 2 5 66 45 69 77 52 81 31 37 8 74 42 73 11 61 88 24 12 7 82 64 87 50 46 36 22 15 89 26 54 56 28 29 6 -60 -48 -93 -21 -19 -14 -90 -41 -44 -4 -55 -80 -33 -86 -20 -38 -85 -17 -91 -70 -63 -65 -51 -62 -57 -59 -34 -3 -58 -71 -9 -30 -75 -18 -47 -78 -79 -68 -35 -25 -23 -84 0
46 25 70 27 6 86 48 78 12 36 21 18 79 83 50 44 88 52 68 41 40 81 30 74 1 7 91 16 43 55 61 11 19 89 80 33 10 73 59 57 90 24 56 28 -35 -26 -49 -71 -23 -51 -2 -45 -38 -42 -34 -47 -22 -66 -75 -64 -67 -14 -62 -65 -92 -60 -53 -5 -13 -32 -54 0
66 21 26 43 70 1 63 16 75 83 91 51 92 6 18 89 2 30 57 15 77 25 47 4 71 68 53 35 -59 -90 -13 -60 -84 -65 -93 -39 -88 -37 -33 -81 -67 -48 -28 -36 -80 -22 -42 -23 -41 -40 -78 -11 -61 -82 0
64 15 33 56 71 68 73 81 76 26 34 83 67 84 54 85 38 65 69 46 8 30 32 91 4 87 11 24 12 47 52 -5 -72 -59 -92 -63 -14 -48 -37 -90 -35 -29 -22 -6 -77 -27 -20 -28 -19 -21 -2 -86 -31 -79 -1 -93 -62 -7 -60 -49 -17 -78 -57 -10 -61 0
20 26 90 17 31 29 42 28 89 68 66 84 52 79 47 41 44 8 77 86 -87 -3 -57 -24 -2 -11 -5 -22 -72 -88 -50 -80 -60 -1 -92 -75 -51 -18 -33 0
81 72 84 77 87 1 80 28 -58 -49 -89 -21 -23 -8 -17 -53 -83 -45 -92 -52 0
34 69 37 10 50 4 33 13 6 -2 -86 -75 -45 -51 0
57 28 12 35 18 79 76 73 70 24 40 77 37 16 63 48 61 58 36 38 43 11 87 86 42 3 10 91 33 81 46 25 34 55 71 21 -75 -93 -29 -6 -2 -47 -30 -80 -74 -90 -32 -59 -1 -64 -19 -5 -92 -83 -39 -88 -23 -89 -67 -8 -14 -27 -26 0
26 70 82 28 42 69 12 81 44 59 57 54 50 77 51 -3 -86 -41 -78 -4 -72 -65 -34 -49 -25 -56 -63 -20 -13 -87 -32 -15 -76 -27 -58 -83 -61 -7 -89 -90 -14 -23 -31 0
42 15 23 66 9 75 24 85 51 69 72 45 44 57 79 82 5 37 89 61 60 38 28 -34 -20 -87 -76 -62 -53 -29 -56 -41 -59 -25 -36 -22 -90 -88 -70 -52 -4 -78 -40 -54 -13 -81 -65 0
88 21 89 12 27 30 2 3 23 24 32 79 59 66 35 25 29 46 75 44 38 1 73 20 69 61 8 19 26 51 60 49 28 87 22 56 -37 -83 -84 -63 -67 -31 -16 -86 -4 -76 -77 -39 -41 -57 -5 -40 -33 -47 -14 -70 -34 -9 -36 -62 -92 -85 -78 -10 -93 -13 0
78 15 -44 -33 0
25 43 1 21 5 44 86 47 40 7 14 74 32 3 37 65 63 51 45 68 72 58 9 61 4 34 2 84 85 -35 -60 -90 -11 -16 -66 -88 -8 -17 -62 -12 -57 -80 -48 -54 -6 -23 -53 -26 -55 -73 -89 -79 -64 -93 -83 -39 -27 0
28 40 21 18 -27 -35 -66 -72 -2 -50 -61 0
52 86 46 57 18 44 37 43 83 69 74 60 49 82 34 13 9 91 55 67 40 32 62 12 6 26 75 15 53 42 72 87 81 77 3 4 1 92 61 63 90 33 58 7 14 -22 -29 -23 -10 -71 -85 -88 -59 -54 -89 -31 -80 -24 -76 -84 -51 -41 -5 -16 -65 -38 -17 -56 -30 -2 -20 -93 -8 -73 -47 -11 -36 -79 -66 -64 -27 -68 -35 -39 -21 -78 -50 0
11 73 35 40 88 28 41 8 48 17 82 84 10 45 89 65 22 71 18 7 61 24 20 -85 -31 -2 -86 -26 -69 -42 -9 -55 -92 -33 -72 -3 -68 -93 -36 -81 -75 -46 -74 -52 -4 -12 -91 -63 0
31 54 39 90 78 18 41 24 66 82 19 56 45 63 61 35 80 26 29 89 1 34 57 85 62 75 92 76 55 86 83 59 73 7 23 71 52 68 51 15 69 2 42 67 9 13 -43 -5 -37 -16 -27 -44 -50 -14 -70 -3 -49 -87 -93 -20 -65 -64 -38 -11 -72 -46 -28 -48 -91 -6 -10 -81 -8 -17 -74 -25 -32 -58 -88 -47 -40 -22 -33 -60 0
57 80 43 71 60 77 5 41 78 42 68 91 59 27 88 76 32 44 54 2 69 81 33 86 40 39 34 48 50 62 8 58 66 79 47 49 11 51 31 29 73 -20 -67 -75 -30 -74 -13 -83 -15 -9 -65 -14 -35 -82 -61 -55 -25 -24 -3 -22 -21 -26 -12 -10 -37 -4 -87 -6 -89 -46 -85 -93 -1 -53 -38 -72 -70 -7 -64 -17 -28 0
15 2 84 25 22 80 33 7 48 37 39 49 19 55 11 54 85 6 68 20 59 52 31 64 21 79 43 81 17 38 57 12 56 28 61 27 13 -90 -3 -65 -82 -63 -8 -34 -10 -67 -41 -5 -45 -24 -30 -14 -66 -32 -78 -93 -87 -53 -73 -26 -62 -44 -89 -18 -58 -47 -35 -72 0
33 86 70 10 32 27 31 51 78 64 9 74 69 38 82 89 88 46 58 55 26 53 83 13 34 20 65 35 43 59 85 1 71 45 42 47 3 17 5 75 37 -24 -14 -52 -60 -18 -44 -63 -8 -28 -4 -81 -2 -91 -15 -73 -90 -93 -68 -21 -56 -39 -48 -36 -80 -7 -29 -62 -67 -22 -57 -92 -23 -16 -11 -19 -50 -77 -72 -6 -79 -76 -87 -30 -12 -49 0
78 44 61 77 70 17 -4 -29 -23 -52 -82 -68 0
61 18 49 71 9 34 44 2 85 89 39 31 -82 -25 -56 -65 -54 -15 -30 -23 -26 -28 -52 -5 -17 -70 -53 -64 -41 -45 -59 -29 -33 0
9 37 32 54 10 69 22 64 35 92 -70 -12 -7 -28 -29 -72 -11 0
15 2 34 87 49 86 17 65 47 35 27 58 3 60 40 54 32 1 74 73 57 39 76 63 36 5 83 50 20 59 62 38 67 24 -33 -81 -21 -91 -10 -11 -46 -7 -52 -28 -69 -80 -82 -92 -26 -31 -56 -72 -55 -6 -37 -64 -41 -53 -19 -12 -23 -90 -88 -44 -84 -71 -61 -89 -42 -16 -78 -43 -66 -93 -45 -85 -8 -79 -75 -48 -14 0
3 89 76 69 90 2 32 81 16 36 30 44 79 61 27 70 93 43 19 50 48 42 85 56 20 71 15 54 18 34 7 64 22 -6 -59 -12 -35 -78 -51 -4 -45 -57 -25 -88 -31 -92 -72 -13 -8 -91 -77 -41 -21 -38 -52 -24 -75 -74 -37 -9 -66 -65 0
4 50 9 68 65 21 70 90 31 51 56 12 15 81 76 60 74 17 -27 -66 -5 -11 -62 -86 -24 -37 -43 -10 -75 -28 -71 -80 0
69 77 40 74 71 62 50 45 73 5 53 49 13 41 27 10 24 38 80 86 39 16 72 18 78 93 60 82 67 43 29 46 35 92 70 22 66 -28 -14 -91 -83 -75 -26 -56 -48 -4 -54 -81 -87 -58 -21 -64 -76 -20 -23 -89 -12 -8 -9 -63 -84 -52 -32 -59 -7 -17 -47 -79 -31 -55 -19 -25 -37 -34 -51 -42 -68 -61 -2 -85 -6 -88 -57 -36 0
48 44 52 35 47 65 85 39 86 46 69 73 42 75 83 72 4 23 38 18 32 6 8 36 2 -66 -24 -57 -29 -67 -89 -92 -21 -40 -22 -70 -64 -33 -26 -20 -14 -61 -10 -11 -12 -71 -45 -15 -27 -76 -51 0
40 91 35 46 13 8 17 55 93 25 62 85 53 63 31 82 -66 -19 -37 -22 -60 -34 -57 -43 -16 -80 -67 -69 -89 0
51 52 46 79 84 3 59 55 35 41 34 91 74 13 26 80 45 17 24 6 38 40 4 77 65 20 62 90 29 70 58 82 1 87 72 44 53 81 32 54 -48 -28 -8 -21 -12 -83 -19 -31 -71 -73 -76 -78 -92 -63 -42 -2 -61 -69 -39 -93 -85 -50 -5 -25 -49 -56 -22 -43 -60 -10 -14 -23 -36 -64 -86 -33 -27 -47 -7 -37 -11 -67 -15 -88 -16 -30 0
17 24 62 18 84 93 64 80 7 72 26 87 35 53 32 52 90 27 78 46 -14 -81 -15 -60 -82 -66 -48 -58 -51 -54 -1 -23 -39 -12 -91 -6 -8 -57 -22 -92 -42 -43 -9 -68 0
64 47 -91 0
52 50 40 79 32 3 72 66 27 57 64 23 76 58 48 82 44 22 69 74 68 5 42 21 19 26 71 60 87 20 16 1 70 77 37 46 4 10 83 13 41 88 51 45 7 78 73 56 93 55 38 36 -47 -63 -6 -14 -25 -17 -33 -54 -90 -15 -75 -81 -65 -85 -89 -53 -30 -28 -31 -12 -80 -18 -84 -59 -62 -61 -92 -67 -11 -9 -43 -39 -8 -29 -49 -24 0
84 72 -56 0
10 47 79 5 73 32 34 31 25 15 93 62 42 46 60 53 88 55 76 87 30 77 40 4 17 85 66 28 23 68 33 12 91 57 86 -90 -89 -27 -37 -81 -64 -43 -61 -14 -69 -3 -6 -59 -16 -39 -67 -18 -29 -80 -72 -26 -82 -50 -92 -1 -75 -19 -84 -7 -54 -41 -11 -35 -51 -22 -78 -48 -24 -36 -63 -71 -52 0
79 82 90 34 6 77 31 26 93 89 37 73 2 28 15 59 5 67 84 63 17 69 42 86 62 39 51 60 88 53 58 -68 -35 -66 -50 -12 -36 -33 -4 -11 -47 -87 -16 -80 -54 -57 -78 -29 -70 -65 -85 -38 -56 -76 -21 -22 -75 -92 -44 -55 -20 -13 -81 -61 -83 -27 -25 -40 -49 -91 -7 -41 -14 -52 -45 -32 -64 -72 -3 -46 -24 -71 0
28 59 60 35 67 14 85 55 15 1 72 89 36 48 50 64 88 58 87 41 37 68 91 7 -20 -42 -65 -46 -62 -5 -86 -49 -90 -70 -8 -83 -38 -69 -22 -4 -82 -63 -79 -93 -66 -32 -23 -92 -76 -25 -43 -77 -27 -53 0
18 41 77 19 82 69 13 53 9 51 6 50 48 78 86 25 64 74 93 7 87 38 63 -12 -17 -14 -76 -5 -3 -37 -47 -44 -80 -65 -92 -8 -54 -79 -57 0
50 35 33 56 37 17 16 18 71 27 80 64 4 5 70 19 79 7 93 24 11 65 30 3 92 90 58 85 68 21 41 84 14 15 73 60 77 88 89 43 -38 -36 -31 -23 -82 -25 -13 -9 -51 -28 -22 -72 -63 -53 -57 -91 -1 -47 -8 -78 -81 -62 -29 -20 -54 -26 -44 -10 -48 -55 -42 -46 -12 -59 0
76 56 9 52 53 11 10 79 83 75 67 19 39 14 78 32 87 61 44 72 18 41 73 -7 -93 -88 -45 -60 -74 -69 -51 -57 -35 -24 -27 -16 -12 -47 -28 -13 -70 -2 -22 -31 -37 -15 -85 -29 -36 0
32 64 2 30 62 59 52 68 16 53 21 11 25 72 35 47 13 80 67 28 77 9 22 65 78 49 56 33 10 17 88 41 91 29 14 42 40 38 -24 -85 -34 -70 -66 -82 -57 -92 -81 -45 -60 -61 -37 -75 -31 -7 -83 -86 -87 -48 -93 -73 0
62 88 63 68 33 43 55 80 81 5 15 73 85 28 89 93 60 53 19 29 65 69 24 38 56 37 9 47 -21 -46 -57 -32 -10 -42 -25 -58 -84 -11 -74 -27 -41 -76 -30 -79 -18 -22 -39 -34 -44 -23 -86 -91 -6 -82 0
46 1 87 49 77 75 56 36 8 65 82 14 47 69 -45 -83 -86 -68 -38 -60 -29 -37 -48 -71 -79 -54 -9 -44 -52 -92 -81 0
52 27 68 15 92 61 40 48 2 67 93 41 38 56 60 80 22 31 24 23 45 58 77 87 28 32 53 10 18 55 39 29 81 49 7 20 1 16 9 44 79 63 74 11 21 4 90 26 -35 -76 -72 -47 -62 -5 -13 -25 -66 -6 -14 -83 -51 -8 -19 -82 -3 -70 -65 -46 -75 -85 -43 -91 -69 -30 -57 -33 -64 -88 -54 -59 -34 -89 -17 -78 -36 -50 -73 -12 -71 -84 0
46 51 48 62 74 22 83 -58 -19 -77 -52 -53 -64 -11 -79 -65 -32 -33 -59 0
23 72 67 5 10 22 31 71 70 39 77 74 7 18 90 84 3 60 44 32 -27 -21 -43 -58 -34 -65 -11 -15 -82 -26 -40 -83 -45 -35 -41 -42 -73 -93 -88 -19 -9 -25 -54 -63 -55 -87 -24 -49 -79 -68 0
21 58 16 74 50 20 55 80 66 68 51 38 1 6 34 27 56 40 89 78 39 79 -70 -49 -14 -32 -76 -84 -5 -15 -13 -45 -60 -7 -65 -54 -90 -46 -83 -19 -30 -82 -67 -87 -41 0
76 34 8 23 25 47 24 26 11 81 74 62 21 7 32 83 50 45 3 -9 -77 -86 -48 -53 -61 -85 -70 -19 -65 -52 -64 0
24 69 13 3 89 45 60 41 91 67 57 32 7 40 50 9 42 56 58 82 36 71 48 43 47 90 27 26 12 8 30 29 92 10 22 80 17 31 49 18 85 11 73 -20 -75 -78 -76 -70 -14 -66 -19 -64 -38 -21 -1 -59 -88 -51 -93 -28 -15 -84 -83 -81 -61 -5 -62 -87 -53 -77 -23 -39 -37 -74 0
76 42 10 47 75 68 71 87 28 25 43 50 91 9 49 54 17 16 14 64 80 22 6 86 48 -5 -39 -57 -30 -93 -3 -11 -38 -40 -13 -21 -19 -27 -8 -60 -59 -41 -2 -82 -77 -20 -52 -24 -37 -89 -79 -12 -23 -83 -90 -32 -53 -36 -7 -46 0
90 68 10 6 22 33 48 2 43 72 69 -78 -88 -62 -55 -66 -75 -77 -34 -51 -24 -87 -50 -57 -40 0
50 44 53 75 10 1 26 12 91 18 87 36 62 5 69 71 22 8 33 43 57 40 86 3 21 81 16 41 92 17 70 47 39 84 27 90 56 55 29 80 73 82 28 67 61 51 -66 -32 -24 -9 -52 -60 -78 -45 -93 -59 -79 -23 -15 -6 -7 -46 -13 -74 -65 -88 -42 -34 -25 -63 -48 -76 -77 -2 -85 -11 -35 -4 -58 -49 -54 0
6 13 22 32 17 28 -64 -93 -75 -62 -27 -36 -21 0
93 56 9 26 57 29 44 71 33 25 76 27 53 8 88 85 72 34 41 70 35 59 -52 -84 -12 -92 -63 -2 -45 -38 -11 -43 -87 -30 -78 -82 -75 -79 -67 -81 -4 -22 -40 -5 -16 0
63 57 6 1 62 76 23 58 36 55 89 81 5 83 87 72 65 50 18 47 29 19 11 20 28 77 21 40 61 -8 -52 -86 -10 -32 -71 -7 -37 -17 -48 -4 -88 -91 -59 -73 -13 -44 -38 0
87 24 35 20 31 15 68 82 12 89 13 76 44 26 9 88 73 55 54 18 42 50 46 47 40 -27 -32 -36 -34 -61 -21 -23 -60 -41 -8 -67 -63 -80 -90 -38 -72 -59 -75 -66 -16 -17 -70 -37 -22 -91 -56 -14 -79 -57 -86 -29 -4 -65 -51 -43 -84 -92 -2 -53 -1 -77 0
56 83 40 84 2 86 50 10 82 1 23 73 35 85 13 21 53 16 29 25 8 79 63 88 80 5 34 57 92 89 31 27 67 45 38 69 15 30 70 17 93 66 3 -58 -87 -54 -91 -36 -41 -77 -9 -52 -65 -60 -47 -51 -14 -81 -22 -33 -75 -42 -28 -49 -37 -90 -48 -46 -19 -32 -7 -62 -11 -78 -4 -61 -68 0
55 87 31 48 14 42 51 -22 -6 -44 -66 -70 -69 -53 -30 -86 -20 -33 -71 -88 0
83 46 67 16 93 28 47 54 51 14 69 63 23 71 29 72 79 12 1 -5 -25 -43 -15 -65 -2 -91 -87 -75 -35 -60 -39 -22 -7 -59 -36 -3 -64 -27 -62 -57 -37 0
64 80 6 67 66 72 77 74 22 82 69 90 61 57 28 35 58 25 62 4 50 56 7 34 38 85 26 83 -14 -10 -21 -41 -37 -29 -30 -76 -87 -71 -9 -11 -27 -84 -24 -13 -36 -5 -18 -86 -68 -49 -88 -39 -79 -40 0
19 57 17 51 48 65 73 38 15 47 62 7 9 70 69 30 59 91 25 13 46 3 18 72 40 35 93 49 37 84 79 20 43 45 67 90 92 64 32 87 10 60 1 66 81 8 80 44 23 5 33 55 -74 -27 -26 -63 -89 -2 -36 -71 -21 -85 -75 -22 -24 -28 -53 -12 -14 -31 -41 -76 -4 -68 -16 -88 -34 -83 -56 -11 -6 -29 -82 -50 -61 -58 -86 -42 -52 -54 -39 -78 0
66 76 -49 0
2 -81 -35 -33 -48 -45 -72 0
71 85 68 39 93 33 58 62 61 -46 -38 -35 -51 -91 -84 -50 -69 -31 0
82 29 72 13 47 45 2 40 67 65 44 4 66 39 86 1 62 24 53 33 73 49 30 34 81 60 57 74 55 22 -17 -38 -84 -10 -11 -69 -63 -12 -37 -43 -79 -83 -8 -87 -20 -35 -68 -46 -89 -91 -25 -52 -64 -80 -85 -92 -28 -61 -70 -26 -19 0
32 11 1 46 22 13 78 83 28 20 48 3 45 43 70 24 73 54 79 50 68 89 64 40 82 58 2 7 66 59 14 93 4 86 67 42 30 41 21 -81 -84 -44 -72 -77 -15 -52 -18 -5 -51 -60 -49 -16 -55 -37 -8 -31 -71 -39 -63 -57 -88 -26 -92 -74 -19 -10 -25 -53 -17 -80 -90 -56 -35 -27 -76 -38 -69 -91 -12 0
17 71 28 24 69 39 81 9 83 54 31 36 57 15 40 47 48 3 18 42 59 56 70 32 90 19 41 86 27 -8 -16 -46 -61 -43 -87 -26 -65 -21 -53 -62 -75 -89 -64 -88 -30 -80 -35 -4 -7 -91 -79 -44 -2 -58 -11 0
6 52 59 10 44 90 46 61 -81 -56 -9 -41 -16 -43 -55 -68 -33 -37 0
12 41 45 87 28 8 50 64 47 62 81 77 74 11 79 93 63 22 17 18 39 80 75 67 43 72 23 38 44 83 69 78 2 9 7 -37 -24 -5 -73 -70 -4 -32 -54 -6 -56 -1 -13 -90 -25 -92 -89 -35 -29 -34 -19 -14 -61 -48 -76 -10 -27 -42 -20 -15 -21 -71 -33 -91 -84 -40 -52 -65 -88 -57 0
68 25 38 78 55 51 13 70 89 48 37 49 22 17 83 21 -63 -81 -90 -82 -8 -32 -79 -33 -1 -85 -80 -2 -43 -3 -45 -46 -9 -47 0
66 10 44 72 61 60 33 43 51 59 54 2 31 81 46 67 85 15 34 1 74 -83 -38 -6 -40 -13 -36 -9 -26 -35 -20 -55 -75 -91 -70 -3 -56 -22 0
87 8 49 38 17 15 32 28 21 52 71 67 12 68 80 54 70 31 93 43 -44 -66 -19 -53 -61 -60 -92 -86 -88 -40 -14 -81 -30 -23 -76 -45 -55 -89 -41 -4 -2 -75 -1 -85 -26 -78 0
87 78 38 49 86 -4 -79 -64 -1 -12 -20 -36 -55 0
85 78 20 57 53 3 11 25 4 -13 -93 -29 -36 -1 -87 -55 -52 0
38 72 40 68 70 57 4 55 43 73 62 52 93 74 84 18 39 92 77 27 66 33 10 31 82 1 83 28 59 25 49 15 24 79 -7 -60 -5 -71 -76 -61 -13 -3 -87 -54 -36 -53 -19 -2 -41 -20 -16 -51 -85 -80 -65 -26 -50 -11 -88 -21 -9 -63 -45 -91 -32 -44 -6 -22 0
68 10 60 48 46 51 83 49 70 40 71 78 22 55 29 93 58 34 19 3 52 54 43 80 85 87 66 17 32 14 4 38 89 18 82 12 81 77 73 8 27 88 9 -57 -64 -53 -2 -76 -44 -62 -36 -30 -16 -86 -74 -39 -41 -69 -6 -1 -13 -25 -15 -35 -5 -91 -79 -72 -33 -28 -92 -21 -23 -50 -20 -31 -7 -84 -45 -56 0
74 -49 0
41 11 88 29 47 60 76 8 50 63 7 73 53 37 4 86 64 32 12 67 49 30 85 58 78 71 -40 -57 -22 -84 -55 -44 -16 -36 -17 -38 -80 -83 -69 -24 -43 -70 -25 -14 -62 -68 -87 -3 -90 -6 0
14 65 5 81 29 28 44 39 56 6 17 69 76 82 11 60 83 57 79 48 90 9 49 -87 -86 -75 -66 -59 -74 -50 -20 -63 -37 -40 -24 -30 -15 -84 -13 -68 -10 -53 -8 -33 -1 -78 -16 -52 -35 -92 -38 -93 -27 -31 -18 -46 -7 0
53 65 46 61 74 41 52 16 7 -19 -33 -85 -56 -34 -62 -6 -77 -31 -79 -20 -26 -83 -45 -4 -18 -43 -92 -35 -40 -80 -93 -48 -1 -59 0
22 89 28 -7 -62 -87 0
33 19 40 3 57 46 4 63 76 88 75 60 20 17 55 29 58 30 51 41 42 61 62 -83 -7 -59 -23 -84 -66 -5 -45 -43 -16 -74 -35 -87 -2 -90 -34 -26 -50 -69 -9 -80 -52 -89 -22 -32 -44 -15 -53 -85 -31 -70 -27 -8 -47 0
5 92 70 6 81 78 17 68 59 27 90 76 2 49 83 85 43 16 40 19 45 26 11 73 60 61 35 34 32 12 14 29 20 23 -82 -7 -47 -38 -58 -62 -8 -37 -24 -10 -87 -28 -71 -91 -80 -48 -39 -22 -15 -53 -51 -88 -4 -69 -77 -13 -63 -55 -84 -86 -52 -18 -57 -25 -56 -64 -33 -30 -50 -89 0
2 43 53 74 24 83 77 18 89 57 25 86 13 92 5 42 -9 -8 -85 -23 -20 -39 -49 -81 -10 -91 0
72 81 24 90 22 4 12 65 46 54 14 30 78 64 52 56 9 91 39 63 60 42 67 40 38 2 1 49 17 71 76 66 58 61 59 79 28 31 74 20 83 -85 -89 -69 -45 -50 -3 -13 -27 -36 -62 -70 -8 -93 -19 -92 -23 -47 -33 -55 -26 -88 -87 -34 -35 -32 -48 -41 -53 -11 -44 -5 -51 -21 -6 -7 -57 -75 -43 -68 -77 -80 -15 -25 -18 -37 -73 -16 0
11 9 62 25 13 54 56 93 18 20 36 29 4 14 19 60 33 46 73 44 68 87 65 39 -28 -22 -12 -5 -51 -63 -77 -16 -57 -80 -82 -23 -15 -48 -34 -43 -64 -59 0
53 48 81 12 79 70 13 91 17 85 14 11 93 40 41 33 2 76 26 -49 -22 -47 -89 -68 -52 -39 -20 -84 -78 -74 -88 -62 -32 -87 -34 -23 -71 -24 -66 -21 -1 -56 -50 -27 0
22 81 48 71 68 89 91 87 34 30 8 76 39 70 9 13 42 69 86 50 64 83 57 63 40 92 55 12 59 41 5 6 54 60 19 37 75 15 84 93 4 33 23 85 20 -44 -46 -66 -31 -14 -56 -61 -3 -72 -35 -52 -10 -25 -49 -32 -58 -17 -24 -21 -77 -88 -26 -82 -7 -16 -62 -53 -45 -78 -74 -18 -43 -28 -36 -73 -38 -67 -29 -2 -1 -65 -47 -51 -11 -79 0
26 64 67 4 74 44 80 34 19 37 1 50 90 41 60 17 25 49 88 10 76 89 55 54 87 47 77 56 65 -78 -82 -52 -29 -43 -16 -7 -73 -81 -92 -42 -59 -84 -22 -93 -13 -45 -36 -18 -71 -83 -70 -11 -86 -53 -51 -30 -33 -32 -24 -21 -27 -6 -62 -35 -15 -5 -46 -8 -9 -48 0
70 56 91 72 44 4 45 66 61 35 -55 -67 -19 -28 -90 -43 -68 -27 -29 -26 -18 -88 -17 -89 -15 -73 0
20 3 51 48 59 67 42 47 93 13 26 73 8 70 83 12 18 88 10 69 29 77 -15 -35 -91 -16 -90 -85 -71 -6 -63 -4 -61 -34 -11 -32 -39 -36 -58 -14 -1 -7 -43 -81 -53 -2 -5 0
45 7 65 15 73 4 29 24 27 10 3 32 78 42 11 72 57 71 1 34 26 60 68 33 9 -91 -53 -84 -56 -77 -38 -2 -83 -62 -59 -35 -19 -76 -49 -74 -50 -48 -20 0
29 3 39 10 13 36 11 18 63 30 17 85 2 43 37 84 69 60 1 32 66 49 76 26 57 8 31 5 64 75 40 82 7 50 19 -34 -88 -6 -77 -14 -92 -22 -12 -44 -72 -90 -70 -23 -58 -55 -28 -78 -73 -81 -74 -27 -42 -38 -24 -93 -41 -68 -79 0
29 9 92 89 63 31 16 3 59 34 37 79 26 20 73 22 80 43 74 36 33 46 4 91 48 78 88 49 47 52 -65 -5 -38 -17 -8 -77 -1 -19 -25 -24 -66 -7 -64 -86 -57 -81 -39 -87 -30 -35 -21 -61 -2 -68 -70 -82 -75 -44 -10 0
74 72 23 16 77 40 54 25 22 1 61 80 37 24 67 41 29 10 7 84 18 57 91 21 39 58 46 33 32 64 53 14 49 36 9 38 87 28 48 47 92 68 86 60 79 59 83 -31 -75 -71 -52 -12 -19 -20 -27 -82 -85 -5 -51 -43 -50 -8 -76 -78 -4 -55 -34 -3 -30 -35 -63 -93 -42 -89 -81 -65 -11 -45 -73 -26 -15 -88 -66 0
72 77 85 43 62 82 1 87 90 22 14 49 2 23 80 -84 -19 -13 -51 -91 -30 -83 -17 -9 -16 -75 0
10 8 30 77 27 87 20 43 25 84 53 88 14 2 93 39 23 44 92 -79 -83 -28 -33 -86 -32 -66 -18 -5 -81 -57 -74 -82 -50 -22 -35 -80 -38 -13 -21 -46 -85 -48 0
58 68 66 21 40 92 41 61 38 16 47 -35 -31 -22 -9 -10 -56 -7 -39 -86 -82 -87 0
41 92 2 28 25 23 37 19 56 65 32 57 63 10 82 62 18 47 86 38 51 36 50 13 5 30 55 68 88 3 67 11 54 9 90 85 80 91 4 79 24 26 84 70 17 46 -1 -43 -53 -61 -83 -34 -15 -45 -87 -20 -76 -81 -29 -22 -27 -42 -48 -75 -35 -40 -72 -78 -6 -21 -49 -16 -77 0
16 53 25 8 49 50 2 24 28 36 20 41 90 89 35 18 40 92 70 91 72 83 78 62 79 17 85 31 67 86 -33 -74 -30 -63 -5 -61 -4 -14 -88 -80 -19 -34 -39 -32 -46 -84 -7 -13 -21 -87 -55 -59 -15 -47 -3 -81 -77 -51 -73 -69 -64 -22 -66 -10 -45 -11 -52 -26 -56 -58 0
69 22 50 76 71 45 16 7 46 25 59 64 10 23 83 37 49 52 42 -43 -19 -34 -57 -66 -26 -38 -88 -91 -13 -39 -29 -21 -40 -78 -15 -30 -5 -33 -93 0
49 9 8 10 45 2 76 39 41 56 19 79 25 66 33 85 69 4 57 -23 -44 -29 -18 -92 -70 -28 -87 -53 -83 -91 -32 0
75 35 10 89 81 80 69 6 49 15 47 18 57 19 88 50 70 91 12 13 68 66 32 39 28 -73 -93 -67 -74 -37 -85 -30 -7 -84 -51 -1 -56 -92 -61 -20 -9 -60 -36 -40 -24 -76 -58 -65 -3 -29 -23 -48 -5 0
42 53 6 24 4 39 21 -19 -22 -64 -52 -57 -80 -59 -86 -1 -60 -20 0
27 10 15 50 2 79 93 39 41 92 49 63 57 72 -38 -18 -8 -70 -24 -20 -59 -60 -30 -23 -52 -56 -64 -84 -42 -87 0
55 35 69 75 11 83 18 49 60 5 50 77 76 45 65 39 15 32 62 57 40 92 29 80 79 14 22 41 25 71 42 86 13 53 -38 -51 -19 -90 -43 -52 -6 -85 -9 -2 -34 -61 -68 -17 -47 -8 -33 -81 -31 -87 -20 -37 -64 -63 -58 -84 -88 -10 -7 -44 -72 -78 -36 -4 0
15 16 92 58 28 -65 -66 0
68 46 90 15 66 72 57 61 41 9 28 24 1 38 33 -26 -63 -14 -74 -58 -18 -6 -16 -40 -65 -91 -75 -39 -84 -87 -71 -49 -85 -19 0
38 92 -56 0
8 93 20 52 44 71 30 19 41 4 9 39 58 79 64 89 45 10 27 1 75 40 13 61 84 26 55 50 5 35 73 47 92 86 36 69 70 63 83 -62 -78 -76 -43 -42 -82 -3 -72 -91 -16 -87 -48 -29 -74 -2 -77 -80 -7 -11 -68 -85 -24 -28 -54 -33 -14 -65 -31 -38 -88 -90 -81 -49 -32 -37 0
5 63 27 44 7 82 46 55 20 6 16 61 39 35 37 49 40 1 33 48 45 36 76 66 25 24 2 54 78 21 18 91 79 43 58 90 81 -92 -52 -70 -10 -8 -30 -59 -80 -26 -3 -32 -19 -53 -57 -93 -9 -85 -51 -42 -60 -31 -62 -15 -13 0
61 91 16 14 3 59 37 28 24 42 5 60 83 49 86 25 45 80 19 29 82 6 56 62 17 75 88 77 78 71 57 27 74 30 54 39 34 36 84 50 87 -13 -33 -38 -12 -4 -73 -58 -72 -53 -48 -92 -46 -47 -1 -85 -51 -65 -43 -40 -67 -9 -69 -20 -11 0
46 26 28 12 30 57 13 59 63 72 68 50 73 55 27 7 78 18 79 -82 -45 -36 -19 -49 -2 -64 -52 -21 -11 -61 -76 -74 -34 -93 -1 -31 -43 -24 -5 -3 -53 -87 -54 -90 -40 -9 0
20 34 3 62 73 29 11 23 51 81 4 -85 -16 -58 -80 -63 -68 -7 -30 -87 -83 -32 -37 -61 -35 -12 -60 -89 -1 -24 -26 -18 0
40 61 34 26 73 29 55 2 12 93 35 -38 -13 -27 -62 -67 -21 -86 -90 0
22 6 59 78 58 85 48 86 33 46 61 76 16 25 -10 -32 -11 -30 -82 -31 -83 -60 -88 0
51 46 64 25 60 11 7 58 2 26 27 24 88 9 5 86 -54 -14 -80 -44 -69 -90 -38 -33 -82 -4 -20 -16 -65 0
20 48 31 66 21 17 33 -74 -35 -34 0
75 61 70 3 68 85 21 15 42 86 73 93 89 8 65 26 28 33 11 66 22 63 32 84 64 81 76 27 83 48 44 79 74 16 56 39 -88 -34 -90 -77 -12 -7 -10 -72 -25 -37 -20 -87 -9 -67 -4 -23 -24 -57 -40 -60 -69 -59 -41 -54 -49 -38 0
6 36 72 0
72 1 86 36 51 28 63 16 31 17 10 13 42 3 -49 -41 -56 -87 -32 -24 -77 -40 -55 -15 -67 -57 -12 -81 -90 -45 -9 -2 0
55 66 49 37 64 44 59 61 85 32 16 63 23 84 92 24 67 54 88 34 35 10 25 68 15 48 62 72 36 43 5 71 65 9 -77 -47 -21 -82 -4 -58 -50 -51 -74 -93 -57 -91 -60 -11 -2 -8 -39 -14 -87 -69 -90 -27 -18 -12 0
6 54 61 -8 -31 -87 -2 -19 -51 -39 0
44 14 81 20 21 68 31 77 56 36 66 12 -30 -58 -88 -92 -29 -3 -82 -65 -43 -25 0
8 48 28 10 3 26 6 46 75 68 62 33 38 52 1 2 40 34 69 24 83 73 58 61 50 78 29 31 45 91 72 21 76 65 32 84 59 66 27 -88 -30 -42 -13 -80 -77 -89 -19 -79 -7 -11 -53 -18 -87 -43 -85 -15 -16 -9 -44 -20 -41 -55 -49 -39 -74 -17 -25 -81 -35 -92 -93 -5 -51 0
41 62 7 74 50 19 75 87 25 90 82 30 35 57 36 11 16 61 3 24 83 63 80 20 28 76 77 1 89 4 31 84 29 65 49 66 6 86 60 44 52 70 78 17 47 85 13 79 53 43 -40 -42 -8 -33 -9 -22 -64 -54 -55 -21 -45 -58 -12 -23 -93 -15 -59 -18 -32 -56 -10 -37 -92 -73 -71 -39 -5 -67 -69 -27 -34 -91 -48 -2 -68 -46 0
64 60 83 52 12 50 26 82 53 33 31 54 57 40 17 93 72 24 67 4 30 85 19 48 81 9 47 49 -59 -13 -37 -62 -70 -63 -16 -55 -11 -3 -20 -88 -90 -39 -69 -84 -10 -86 -2 -1 -25 -34 -28 -38 -7 -61 -51 -8 -46 -32 -44 -79 0
23 87 68 50 89 54 13 45 37 46 38 75 60 16 51 11 91 -65 -53 -57 -85 -58 -78 -19 -4 -56 -55 -35 -25 -22 -17 -31 0
68 39 1 25 8 14 23 70 55 60 28 38 35 -83 -7 -43 -52 -72 -9 -69 -53 -80 -11 -2 -6 -44 -89 -47 -57 -81 0
55 89 71 59 63 12 72 83 32 6 67 68 93 49 80 53 66 4 35 60 34 13 25 -23 -84 -10 -79 -22 -21 -3 -90 -47 -43 -51 -50 -27 -29 -2 -57 0
59 21 80 90 20 66 79 78 77 81 33 28 76 6 55 52 73 53 72 24 43 -54 -2 -75 -50 -83 -49 -62 -67 -47 -12 -26 -82 -38 -89 -10 -31 -46 -1 -11 -44 -15 -71 -63 -42 -32 0
76 33 11 10 93 86 68 62 26 67 77 71 49 52 59 15 27 37 88 20 91 73 47 89 46 48 84 56 57 51 54 61 28 83 63 12 66 8 22 44 -6 -87 -40 -80 -50 -42 -2 -74 -70 -7 -60 -9 -90 -19 -24 -13 -64 -21 -55 -3 -75 -29 -14 -39 -85 -72 -25 -17 -35 0
43 30 28 37 63 40 4 46 29 86 66 54 44 47 42 60 9 89 10 6 52 39 58 75 72 84 55 18 21 25 70 -56 -12 -73 -83 -23 -80 -71 -88 -67 -90 -69 -15 -16 -13 -3 -36 -81 -82 -61 -57 -33 -62 -85 -22 -68 0
48 6 58 2 73 89 41 36 43 11 49 22 32 23 28 35 65 88 45 34 47 81 61 74 24 77 80 79 92 15 40 72 93 82 14 86 33 84 31 44 3 52 62 27 46 78 30 21 26 83 70 39 63 38 50 8 64 18 54 10 -53 -69 -25 -68 -90 -29 -87 -66 -7 -91 -85 -16 -59 -12 -67 -57 -17 -42 -20 -19 -75 -60 -37 -4 -13 -71 -5 -51 -56 -9 0
14 11 3 71 32 28 10 81 6 66 12 41 73 61 38 59 35 1 29 83 63 43 82 77 19 37 31 -17 -57 -39 -50 -44 -34 -23 -26 -54 -89 -47 -16 -70 -5 -24 -90 -46 -62 -51 -86 -42 -88 -65 -33 -45 -9 -87 -36 -21 -27 -68 -40 -15 -25 -60 -93 0
44 51 81 6 16 64 45 66 34 31 14 20 43 21 89 11 73 83 53 87 88 50 -69 -26 -8 -9 -75 -3 -85 -40 -4 -77 -12 -46 -62 -17 -86 -80 0
19 50 75 76 81 53 43 31 22 73 93 30 17 32 78 79 14 84 21 61 10 38 68 89 35 85 4 9 -86 -55 -1 -8 -26 -40 -57 -45 -80 -59 -39 -87 -18 -2 -70 -28 -5 -47 -88 -44 -7 -11 -74 -49 -15 0
50 88 75 31 23 20 84 39 6 58 15 43 49 8 83 82 25 -81 -30 -42 -65 -62 -86 -59 -9 -63 -56 -32 0
22 69 38 49 -75 -73 -60 -72 -79 -80 -3 -18 -42 -21 -55 -67 -47 0
89 -48 -56 -91 0
37 51 58 72 83 74 22 68 80 91 76 65 85 29 89 6 25 46 32 43 2 23 92 41 19 77 59 53 26 61 36 62 40 38 -47 -34 -35 -18 -86 -39 -88 -87 -1 -93 -57 -79 -84 -60 -48 -8 -27 -64 -21 -13 -66 -52 -69 -56 -10 -70 -33 -81 -82 -24 -54 -78 -50 -3 -12 -5 0
24 53 21 59 8 36 86 51 28 10 11 50 65 55 -19 -38 -79 -1 -67 -49 -17 -69 0
14 23 48 84 5 38 32 46 54 41 60 55 52 26 68 79 93 63 37 25 16 47 1 29 24 92 15 62 90 89 80 71 61 66 78 20 74 88 49 70 43 -76 -40 -33 -22 -39 -87 -72 -85 -4 -86 -34 -11 -21 -53 -35 -3 -58 -50 -51 -91 -7 -10 -19 -67 -18 -2 -73 -6 -12 -9 -75 -36 -77 -56 -69 -57 -64 -27 -8 -59 -65 -83 -82 -31 -13 0
23 61 62 85 37 7 81 59 57 15 76 47 69 -93 -29 -8 -10 -86 -3 -31 -84 -2 -20 -87 -39 -43 -17 -26 -11 -88 -74 -36 -51 -50 0
38 1 78 41 22 56 17 46 45 7 88 33 52 54 75 89 35 37 60 12 34 5 30 90 73 50 65 4 18 92 72 13 3 44 58 11 29 25 42 77 91 83 74 76 86 -32 -70 -79 -16 -87 -63 -26 -10 -67 -23 -39 -68 -69 -59 -9 -36 -21 -49 -19 -6 -15 -85 -2 -8 -64 -43 -14 -31 -20 -47 -62 -53 -24 -93 -71 -27 -84 -55 -61 -51 -81 -48 0
21 57 25 17 33 34 45 29 23 55 15 68 69 75 58 67 84 2 37 44 7 6 49 80 41 85 54 78 64 83 93 65 59 35 92 73 62 26 38 81 8 74 32 90 13 53 39 -91 -5 -71 -88 -48 -86 -46 -61 -82 -22 -4 -28 -36 -24 -3 -20 -70 -76 -63 -66 -42 -14 -77 -30 -52 -16 -18 -12 -40 -50 -60 -19 -9 -31 -89 -51 -11 -87 -56 -27 -1 0
24 19 76 49 34 57 56 51 77 43 58 73 2 6 25 69 16 84 8 48 71 50 45 21 9 -52 -31 -79 -44 -17 -28 -54 -39 -18 -10 -38 -91 -32 -12 -62 -37 -83 -22 -14 -74 -47 -80 -64 -66 -5 -88 -55 -75 -42 -63 -68 -3 -30 -78 -90 0
77 55 92 8 12 23 75 88 35 14 79 29 7 26 36 48 2 83 57 61 85 78 46 67 22 89 62 24 25 6 70 27 42 15 51 -38 -30 -28 -72 -21 -33 -82 -20 -86 -3 -76 -54 -4 -58 -16 -71 -5 -63 -18 -49 -73 -45 -74 -64 -91 -66 -60 -84 -52 -34 -40 -81 0
52 63 77 75 30 19 66 69 10 35 37 68 89 65 72 62 73 41 1 79 51 33 48 20 16 90 31 76 22 38 5 15 7 -34 -54 -93 -84 -12 -80 -59 -82 -32 -29 -8 -81 -45 -91 -28 -25 -70 -67 -23 -87 -43 -17 -71 -36 -46 -60 -3 -58 -47 -74 -49 -92 -64 -4 -57 -40 -9 -88 0
35 51 92 91 10 76 55 72 34 16 18 42 93 1 25 86 6 -39 -57 -88 -79 -48 -4 -15 -69 -43 -5 -67 -77 -85 -59 -31 -37 -81 -45 -23 -29 -13 -46 -27 -52 -64 -82 -12 -75 -47 -50 -26 -71 -78 0
85 4 20 93 27 71 7 77 91 18 47 72 51 90 12 31 33 3 9 30 78 58 65 34 80 63 28 68 92 61 79 70 69 48 43 -55 -66 -35 -32 -40 -87 -23 -67 -6 -22 -82 -36 -52 -24 -60 -46 -62 -53 -81 -42 -56 -16 -64 -15 -75 -59 -57 -11 -37 -45 -21 -13 -10 0
89 73 12 20 19 49 42 34 90 46 30 6 -22 -33 -32 -92 -57 -37 -64 0
20 55 62 78 90 87 79 50 54 10 65 22 24 18 85 93 39 23 51 38 33 84 70 45 -4 -41 -40 -25 -69 -60 -47 -2 -31 -1 -12 -82 -36 -15 -61 -8 -71 -59 -83 -3 -49 -66 0
45 76 19 90 23 74 20 67 75 34 61 17 78 49 80 -58 -11 -77 -25 -21 -48 -6 -47 -62 -33 -82 -73 -66 -54 -36 -5 -56 -8 -65 -55 -63 -22 -40 -79 -44 -10 -9 -3 -7 -81 -32 -13 0
27 30 88 84 63 87 -50 -19 -67 -5 -58 -72 -68 -53 -23 -20 -16 -12 -14 -77 -40 -1 -33 0
82 87 49 80 68 48 13 10 59 21 37 76 16 40 29 43 70 47 55 9 26 23 56 74 57 77 31 60 27 36 58 62 -30 -51 -54 -44 -32 -50 -11 -4 -3 -45 -84 -88 -64 -78 -90 -5 -19 -41 -33 -34 -66 -15 -20 -83 -72 -81 -75 -63 -35 -93 -25 -53 -24 -67 -7 -39 0
1 61 72 -24 -83 0
22 92 14 91 62 67 4 48 12 73 93 7 1 10 52 54 81 -64 -42 -26 -50 -80 -46 -31 -65 -84 -29 -70 0
40 85 11 21 9 78 57 74 12 30 82 92 25 8 45 54 52 15 22 61 20 -24 -83 -27 -77 -70 -64 -37 -90 -68 -46 -48 -71 -50 -26 -4 -56 -35 -42 -2 -17 -33 -89 -18 -10 -31 -67 -79 -59 -60 -62 -32 -47 -39 -84 0
25 43 92 61 29 87 26 10 21 51 76 69 13 80 58 70 64 32 82 42 38 36 74 15 35 83 19 23 37 17 59 31 86 71 14 9 27 24 52 66 84 73 7 75 -12 -33 -50 -6 -54 -16 -78 -89 -72 -88 -1 -8 -65 -2 -85 -60 -46 -93 -81 -79 -11 -55 -45 -18 -48 -68 -47 -39 -57 -62 -5 -49 -40 -4 -28 -3 -44 -90 0
70 76 5 26 67 46 78 72 49 91 62 27 17 84 45 48 22 15 40 29 9 87 13 8 19 85 30 35 93 21 58 -3 -59 -47 -43 -33 -63 -73 -39 -55 -6 -2 -92 -32 -38 -10 -34 -61 -28 -31 -69 -79 -86 -18 -51 -44 -7 0
51 71 60 48 14 45 40 57 2 82 38 59 30 56 37 69 49 23 18 52 -88 -17 -84 -64 -27 -66 -53 -73 -58 -36 -47 -79 -16 -77 0
50 26 5 43 31 23 36 16 79 45 64 53 42 38 17 61 11 80 6 73 92 46 56 48 3 52 60 88 20 63 19 91 34 77 8 82 58 1 25 27 -86 -72 -67 -2 -54 -18 -84 -75 -83 -47 -85 -28 -66 -78 -71 -39 -93 -14 -10 -29 -59 -44 -30 -32 -74 -81 -9 -87 -57 -7 -90 -65 -33 -40 -70 -13 -76 -49 -41 -21 -4 -12 -24 -55 -15 -35 -22 0
16 87 81 8 42 44 86 2 -88 -55 -89 -28 -43 -32 0
79 17 68 18 72 54 14 80 50 40 73 69 90 57 3 59 30 76 61 87 29 -88 -27 -52 -74 -44 -26 -37 -53 -63 -86 -11 -5 -15 -81 -71 -65 -6 -36 0
84 67 31 3 86 63 70 11 47 87 15 57 68 85 8 90 58 21 83 30 39 52 36 60 38 65 42 6 75 2 12 7 -49 -72 -74 -45 -4 -25 -91 -5 -40 -48 -24 -51 -13 -17 -37 -64 -16 -55 -88 -35 -20 -50 -33 -79 -18 -76 -78 -69 -54 -46 0
39 48 81 15 54 46 89 36 66 88 19 60 68 65 70 69 8 72 45 63 17 44 23 3 85 21 13 86 24 42 9 5 18 59 74 73 11 51 34 92 58 37 -76 -50 -83 -91 -27 -75 -38 -78 -82 -7 -29 -30 -16 -32 -79 -53 -2 -67 -43 -31 -6 -55 -62 -40 -57 -25 -49 -28 -33 -61 -84 -22 -80 -10 -26 -35 0
45 1 12 80 91 39 32 69 17 61 27 9 59 33 -76 -66 -51 -18 -75 -81 -50 -20 -56 -58 -65 -35 -13 -43 -89 -23 -15 -14 -57 0
83 29 84 39 26 13 31 24 61 41 22 91 73 40 25 78 17 37 71 23 86 43 44 28 38 9 90 89 11 82 -14 -6 -80 -64 -45 -65 -15 -81 -21 -67 -75 -33 -51 -20 -93 -68 -19 -18 -54 -34 -52 -62 -60 -76 -92 -27 -42 -63 -46 -85 -47 0
69 63 44 61 4 68 14 57 -26 -86 -71 -18 -22 -73 -29 -77 -6 -92 -81 0
35 45 39 58 2 63 82 14 43 83 52 31 26 11 56 30 54 10 84 61 20 42 -88 -93 -37 -87 -59 -32 -74 -16 -19 -23 -25 -67 -69 -27 -78 -76 -34 -5 0
20 87 26 63 78 6 90 19 91 56 -64 -25 -16 -53 -71 -68 -48 -57 -33 0
90 55 -26 -47 0
84 45 91 74 85 15 53 58 19 50 37 48 73 34 12 83 20 69 16 81 40 46 -17 -59 -51 -90 -49 -33 -4 -38 -60 -54 -55 -26 -62 -43 -35 -31 -61 -87 0
53 27 38 62 44 -23 -85 -49 0
5 85 6 61 12 14 34 88 2 37 3 24 22 9 51 36 68 31 30 65 86 57 53 69 20 80 40 62 47 54 32 -17 -26 -15 -93 -90 -79 -72 -29 -50 -92 -23 -74 -4 -27 -59 -83 -63 -78 -28 -70 -55 -45 -1 -76 -66 -39 -52 -60 -58 0
62 54 65 75 27 84 43 67 89 21 64 58 48 80 73 2 24 40 79 71 69 31 66 32 53 25 16 15 -68 -28 -56 -12 -90 -38 -61 -49 -93 -29 -35 -5 -88 -92 -60 -57 -37 -8 -91 -39 -7 -55 -86 0
60 58 65 56 61 7 89 38 76 29 12 51 46 53 23 70 86 69 17 26 14 40 80 92 57 2 45 24 71 63 42 72 30 81 50 64 79 90 -18 -27 -20 -9 -67 -37 -4 -87 -5 -62 -19 -3 -84 -75 -43 -52 -88 -33 -54 -93 -8 -59 -91 -49 -83 -6 -11 -68 -78 -28 -15 0
61 92 20 65 57 40 69 39 70 11 13 91 25 64 54 32 2 77 35 42 87 50 18 10 53 86 27 63 28 -36 -73 -83 -47 -89 -46 -93 -44 -79 -33 -19 -30 -55 -52 -84 -5 -78 -15 -74 -12 -51 -6 -76 -8 -23 -4 -56 -1 -26 -31 -59 -66 -72 -88 -7 -67 -3 -58 -22 -80 -41 0
76 84 0
51 85 23 18 38 92 91 53 16 56 -8 -69 -42 -45 -27 -9 -77 -67 -73 -61 -52 -88 0
85 60 87 64 4 25 86 74 68 50 2 -47 -70 -65 -28 -24 -49 -8 -37 -84 -77 -71 -13 0
33 66 40 35 29 46 38 39 80 56 78 57 91 12 23 59 -53 -34 -55 -42 -11 -17 -89 -37 -22 -9 -6 -20 -88 -21 -60 0
15 66 32 44 70 54 43 47 83 42 57 24 9 49 38 11 8 13 67 79 16 87 45 27 3 91 62 28 12 68 89 41 40 34 58 35 59 60 17 90 82 92 81 56 -84 -52 -77 -22 -76 -72 -55 -2 -86 -93 -10 -71 -74 -26 -33 -19 -18 -1 -25 -65 -80 -75 -7 -88 -20 -53 -39 -64 -61 -73 -37 -21 -36 -31 -46 -5 -4 -51 -14 -69 -23 -85 -48 0
4 77 63 12 79 71 72 50 9 20 33 88 17 15 39 38 66 51 74 21 61 60 24 55 84 29 54 28 2 -92 -7 -82 -47 -93 -34 -11 -1 -80 -81 -35 -76 -62 -26 -14 -90 -67 -37 -31 -57 -85 -69 -18 0
59 26 89 52 49 50 80 3 61 10 76 42 63 92 74 58 45 91 72 43 62 82 19 51 1 85 21 30 77 33 20 54 12 90 47 88 4 73 17 57 36 6 56 31 -9 -60 -28 -84 -11 -64 -79 -71 -75 -37 -70 -22 -7 -67 -25 -48 -83 -24 -29 -66 -93 -32 -53 -16 -5 -14 -40 -34 -13 -87 -23 -68 -78 -39 -18 -46 -86 -2 -38 -8 -55 -15 -69 0
14 69 64 70 1 58 53 63 87 51 47 83 19 23 28 21 2 5 93 55 42 78 3 40 57 91 7 22 89 59 34 74 61 20 11 54 31 45 71 73 30 29 76 48 -33 -90 -92 -13 -10 -32 -41 -72 -86 -39 -6 -8 -81 -27 -12 -37 -60 -80 -84 -36 -25 -75 -68 -88 -50 -38 -56 -66 -79 -26 -16 -77 -82 -43 -9 -17 -15 -44 -67 -35 -46 0
93 68 70 -36 -50 -12 -63 -26 -65 -67 -1 0
85 76 20 40 45 32 74 47 5 52 75 61 8 42 3 35 48 68 43 39 36 19 50 82 59 91 4 86 27 72 1 88 44 66 56 12 69 11 70 81 84 34 7 21 -6 -57 -62 -53 -13 -92 -60 -2 -90 -51 -25 -54 -80 -55 -41 -24 -28 -29 -37 -38 -46 -93 -64 -18 -33 -78 -10 -22 -65 -16 -71 -58 -83 -73 -77 -31 -17 -87 -49 -9 -79 0
67 16 12 52 81 44 39 72 1 64 4 7 40 54 60 38 34 9 24 51 58 68 31 69 63 33 61 50 30 86 23 11 36 83 56 37 90 15 41 42 17 88 35 27 -26 -74 -3 -92 -25 -43 -47 -2 -89 -70 -76 -80 -65 -78 -73 -28 -8 -45 -13 -93 -79 -53 -48 -75 -77 -49 -32 -82 -21 -6 -59 -91 -62 -84 -14 -71 -10 -66 -20 -46 -55 -57 -19 -87 -18 -29 -85 -22 0
60 47 71 56 74 1 5 8 86 4 55 53 32 92 6 31 7 18 54 -27 -87 -40 -58 -68 -39 -48 -50 -76 -10 -34 -72 -62 -61 -19 -17 -37 -84 -67 -22 -30 -90 -75 -79 -93 -80 -59 -26 -16 -46 -65 -33 -35 -42 0
48 3 23 81 9 5 89 21 54 87 63 26 76 55 10 42 72 85 73 80 33 22 59 11 35 14 34 58 61 28 27 92 30 31 15 78 40 71 39 25 -44 -1 -83 -74 -69 -57 -84 -62 -90 -46 -4 -64 -79 -7 -82 -91 -38 -41 -19 -24 -43 -20 -51 -12 -67 -88 -16 -52 -75 -50 -13 -86 -17 -29 -70 -6 -8 -32 -77 -18 -2 -53 -45 -60 -56 -47 0
69 35 10 61 23 17 75 87 26 34 28 89 85 44 55 50 18 83 25 48 64 19 90 54 8 46 20 27 15 78 82 59 43 92 33 51 57 30 81 65 66 24 12 70 36 -72 -6 -62 -76 -4 -32 -74 -21 -38 -42 -67 -31 -40 -9 -88 -7 -2 -1 -56 -52 -49 -60 -68 -14 -16 -71 -80 -39 -77 -22 -63 -45 -93 -84 -53 -91 -29 -41 -11 0
32 24 27 64 39 14 50 22 75 65 59 67 62 81 55 61 46 8 76 43 42 69 6 38 11 52 37 -71 -40 -5 -34 -23 -88 -51 -79 -77 -9 -18 -89 -85 -49 -15 -82 -56 0
61 47 1 10 87 88 86 24 62 84 5 18 2 80 55 11 68 28 78 66 16 89 31 83 12 90 44 8 42 4 22 35 57 20 39 34 17 29 48 15 71 14 63 77 58 74 -67 -49 -56 -41 -72 -53 -7 -73 -51 -76 -54 -46 -93 -64 -92 -30 -65 -27 -81 -52 -69 -50 -59 -70 -45 -23 -40 -21 -43 -19 -60 -36 -75 -3 -85 -38 -13 -6 -25 -32 -79 0
68 75 55 64 17 16 51 29 89 39 83 87 8 22 84 73 -66 -90 -40 -5 -65 -50 -19 -62 -32 -79 -72 -36 -78 -13 -26 -82 -59 -61 -37 -81 -35 -43 -7 -77 -15 -30 0
38 46 49 79 12 2 65 26 1 76 89 86 27 10 59 92 32 74 44 40 17 91 51 -82 -90 -42 -58 -36 -53 -67 -13 -60 -81 -78 -37 -52 -8 -72 -68 -30 -54 -16 -25 -7 -48 -35 -11 -21 -62 -28 -93 -56 0
76 50 64 84 34 73 18 88 43 60 68 8 16 25 47 9 19 40 28 69 80 1 71 -39 -4 -46 -30 -33 -24 -15 -53 -92 -38 -32 -10 -79 -82 -37 -57 -41 -49 -67 -23 -52 -89 -20 -6 -11 -12 -51 -22 -35 -62 -7 -70 -2 -78 0
50 34 9 7 84 13 40 75 47 1 42 2 67 29 24 70 26 32 49 69 6 36 85 86 77 73 72 44 87 79 -89 -21 -33 -81 -31 -16 -90 -64 -62 -92 -11 -83 -19 -78 -5 -17 -52 -45 -18 -3 -65 -93 -4 -68 -56 0
13 59 22 56 26 64 75 34 28 93 76 36 60 35 4 73 21 43 33 18 42 71 44 7 23 15 45 48 90 40 70 87 67 62 46 49 37 72 84 82 -91 -53 -27 -83 -65 -17 -85 -14 -51 -77 -47 -20 -79 -16 -5 -6 -11 -61 -74 -32 -41 -10 -52 -2 -63 -88 -3 -89 -68 -50 -12 -66 -80 -54 -55 -8 -57 -39 -19 -31 -92 -30 -25 -9 -81 -58 -78 -38 0
86 44 7 62 10 69 63 71 22 55 58 49 70 40 20 13 76 48 83 42 9 65 -16 -66 -78 -67 -74 -51 -52 -11 -31 -72 -28 -25 -1 -45 -93 -77 -92 -41 -30 0
83 9 88 23 7 91 69 51 64 89 62 87 80 71 14 41 67 59 31 35 81 72 2 46 24 5 73 58 68 76 26 8 21 38 37 90 92 63 -79 -45 -61 -25 -3 -39 -33 -55 -43 -49 -42 -36 -86 -44 -84 -4 -47 -11 -27 -82 -32 -12 -50 -48 -19 -17 -52 -60 -6 -78 -77 -18 0
11 56 53 8 19 58 57 42 18 72 70 32 50 7 55 81 20 52 24 83 29 89 6 26 61 2 92 4 41 43 1 14 69 87 77 33 36 86 21 91 -85 -49 -34 -80 -40 -78 -84 -17 -31 -73 -65 -10 -51 -25 -12 -90 -48 -27 -15 -74 -75 -5 -30 -71 -68 -39 -59 0
44 53 92 64 4 67 84 68 17 33 71 12 57 36 2 87 35 26 5 66 34 24 79 22 41 51 76 86 60 52 8 74 77 29 1 13 50 69 65 -49 -90 -91 -75 -62 -30 -25 -15 -63 -83 -47 -48 -10 -43 -73 -21 -14 -89 -28 -20 -70 -81 -46 -61 -27 -58 -9 -85 -39 -16 -54 -56 -72 -93 -6 -59 -55 -31 -82 -19 -88 -18 -38 -45 -78 -40 0
72 89 12 15 66 -81 -41 -78 -68 -25 -54 -55 0
32 31 86 60 54 7 33 83 58 72 4 89 27 71 80 51 17 82 63 22 52 41 48 39 -50 -20 -11 -8 -3 -30 -40 -64 -76 -79 -74 -70 -55 -37 -2 -21 -13 -47 0
67 14 90 68 76 77 83 31 11 17 32 23 84 9 65 22 16 8 60 5 51 78 80 93 73 29 25 38 40 3 42 15 21 28 75 47 79 46 89 36 54 43 57 -33 -66 -19 -49 -92 -61 -12 -71 -56 -87 -30 -50 -52 -35 -64 -37 -69 -82 -10 -62 -24 -63 -59 -91 -39 -13 -48 -74 -88 -1 -81 -55 -20 -34 -85 -41 -18 -4 -2 -7 0
5 85 64 88 53 44 11 63 70 86 52 -81 -36 -30 -59 -47 -25 -3 -84 -45 0
41 5 48 63 16 81 52 67 90 45 37 62 75 3 20 22 18 34 86 92 36 89 59 12 33 31 83 58 -39 -91 -60 -49 -8 -87 -79 -72 -68 -25 -80 -17 -78 -44 -10 -4 -42 -26 -66 -6 -9 -82 -30 -28 -40 -24 -77 -23 -70 -55 -56 -64 -14 -43 -46 -7 -27 -57 -35 0
72 85 78 70 57 30 54 59 33 76 4 61 93 36 16 77 48 65 49 23 14 46 66 26 25 45 64 60 42 21 80 1 -56 -51 -38 -68 -62 -67 -17 -81 -29 -12 -79 -41 -53 -84 -73 -31 -24 -20 -18 -13 -92 -75 -10 -7 -11 -74 -32 0
-42 0
77 2 43 55 88 13 28 18 91 53 72 61 49 48 34 25 67 -60 -30 -17 -65 -27 -92 -50 -84 -86 -66 -52 -59 -21 -87 -11 -15 -7 -69 -20 -73 -12 -41 -16 -40 -29 0
47 30 14 44 53 64 56 67 18 52 -39 -76 -69 -78 -13 -65 -27 -92 -8 -19 -85 -58 -20 -31 -46 0
39 8 21 36 -91 -75 -58 -46 -41 -67 -48 -74 0
90 42 47 33 3 79 68 56 64 87 91 63 69 17 52 1 76 85 10 29 50 86 53 34 7 66 31 6 -58 -4 -73 -38 -23 -80 -61 -11 -67 -54 -74 -13 -30 -92 -22 -84 -39 -20 -82 -27 -81 -44 -88 -9 -49 -75 0
58 72 74 46 90 18 52 70 9 34 20 4 30 89 78 8 15 87 5 63 56 26 77 86 59 -84 -27 -40 -38 -71 -2 -31 -17 -22 -41 -62 -47 -45 -55 -65 -48 -29 -61 -43 -10 -12 -75 -7 -6 -67 -37 -92 -23 -81 -50 -28 -91 -80 0
8 91 87 73 38 39 63 13 40 83 47 21 -33 -59 -32 -43 -29 -61 -60 -6 -75 -62 -82 -23 -88 -30 -14 0
43 27 91 10 55 31 58 2 38 5 42 54 23 -13 -86 -76 -62 -32 -88 -7 -69 -85 -56 -21 0
41 6 66 78 27 49 35 38 43 85 21 67 4 36 83 76 81 93 29 17 73 8 7 33 25 60 47 71 32 88 69 18 2 54 50 77 45 37 75 28 89 14 56 58 9 -82 -46 -57 -1 -74 -87 -90 -64 -59 -92 -91 -16 -22 -53 -12 -55 -62 -44 -31 -51 -23 -48 -79 -86 -52 -30 -65 -11 -84 -26 -61 -34 -39 -63 -3 -19 -42 -70 0
70 39 64 1 6 10 90 35 61 49 83 78 58 59 50 22 14 16 12 84 67 4 -91 -60 -29 -17 -76 -8 -5 -44 -48 -23 -45 -62 -18 -77 -71 -36 -31 -40 -81 -33 -63 -79 -38 -24 -68 0
89 45 2 46 68 63 70 -56 -48 -24 -14 -87 -19 -13 -12 -73 -32 -47 -91 0
71 65 70 13 9 50 11 18 67 53 93 81 74 91 41 56 88 42 54 59 90 -43 -76 -36 -21 -27 -33 -58 -62 -49 -78 -89 -57 -55 -60 -63 -2 -48 0
43 75 87 42 82 51 23 34 88 63 57 68 9 81 36 35 93 56 50 26 -14 -44 -47 -28 -48 -86 -24 -84 -60 -37 -13 -8 -72 -70 -32 -3 -49 -31 -4 -66 -69 -38 -71 -12 -58 -46 -22 0
68 53 85 10 2 80 -31 -72 -89 -69 -62 -86 0
59 76 -35 -34 -20 -25 -93 -64 -54 0
52 90 42 58 73 4 60 47 40 50 46 77 25 2 28 62 43 64 85 79 69 31 22 20 27 -19 -83 -23 -56 -80 -38 -26 -45 -75 -6 -8 -49 -18 -3 -39 -84 -71 -87 -24 -51 -33 -30 -16 0
78 36 20 74 72 70 19 -27 -15 -45 -3 -54 -86 0
85 32 13 77 0
22 6 74 81 67 65 15 16 19 46 89 83 38 59 7 14 3 56 72 45 4 42 20 69 23 64 36 34 51 32 66 27 50 77 54 84 11 75 -62 -63 -5 -76 -31 -13 -78 -47 -40 -10 -25 -80 -8 -41 -86 -39 -60 -2 -93 -30 -21 -44 -33 -57 -85 -82 -70 -28 -68 -55 -29 -9 -88 -37 -49 -71 -35 -52 -91 -87 -90 0
34 84 47 83 25 1 53 91 52 72 40 46 73 -27 -4 -18 -8 -51 -68 -65 -80 -71 -61 -66 -36 -79 -9 -85 -33 -16 0
60 57 89 67 6 48 11 52 92 74 62 7 18 9 2 61 13 1 93 40 81 24 84 76 -78 -45 -10 -32 -31 -91 -35 -50 -25 -4 -43 -8 -22 -77 -17 -86 -90 -70 -20 -34 -82 0
9 84 44 83 89 85 29 25 88 20 4 90 72 66 67 10 24 16 75 11 59 73 21 51 14 56 81 65 26 50 12 35 -22 -46 -61 -63 -41 -19 -80 -62 -87 -82 -18 -30 -64 -55 -40 -79 -69 -15 -49 -36 -71 -77 -1 -43 0
87 65 49 45 85 77 15 93 84 35 27 53 2 5 88 48 21 31 8 25 63 41 20 16 14 76 13 6 61 50 73 92 62 24 10 43 32 90 89 40 75 67 12 23 91 47 19 71 26 36 56 34 -68 -17 -54 -46 -82 -52 -42 -72 -1 -7 -11 -55 -74 -80 -3 -59 -60 -69 -28 -57 -38 -9 -79 -29 -66 -39 -37 -18 -64 -58 -70 -86 -30 -78 -81 -44 -83 -33 -22 0
54 66 43 39 70 17 42 33 77 26 83 6 57 16 74 63 4 72 47 81 29 51 23 21 75 15 8 80 82 60 46 56 86 38 34 37 71 27 -85 -68 -3 -55 -76 -35 -61 -1 -13 -90 -59 -89 -52 -79 -69 -32 -24 -62 -93 -20 -5 -88 -9 -73 -30 -58 -53 -19 -48 -44 -10 -91 -45 -14 -92 -65 -67 -50 -18 -22 -41 -36 -7 -49 -78 0
-20 0
74 89 32 51 93 87 58 82 57 80 41 5 16 67 29 76 9 2 68 21 55 54 25 4 46 39 44 30 62 42 15 61 40 77 -12 -85 -52 -8 -59 -56 -38 -91 -18 -11 -27 -34 -84 -64 -53 -86 -10 -88 -35 -7 -6 -23 -81 -83 -50 -24 -31 -71 -49 -65 -1 -75 -69 -79 -66 -70 0
73 41 18 55 43 9 19 50 25 74 82 17 63 39 45 90 85 -61 -10 -71 -65 -88 -32 -38 -21 -40 -49 -66 -89 -23 -3 -67 -56 -42 -79 0
73 64 43 18 68 89 33 63 37 35 20 71 40 60 58 29 66 42 15 30 -92 -39 -13 -80 -1 -93 -10 -31 -55 -46 -34 -3 -56 -38 -14 -79 -16 -2 0
55 87 17 10 35 61 76 58 91 16 89 9 59 75 73 28 65 3 60 40 84 74 56 48 31 18 43 72 26 5 37 1 13 49 52 45 22 63 42 4 -25 -66 -80 -82 -47 -20 -8 -21 -92 -90 -36 -68 -64 -54 -29 -69 -46 -67 -77 -51 -39 -86 -33 -50 -93 -14 -7 -6 -44 -53 -62 -2 -78 -38 -34 -27 -71 -81 -23 -11 0
32 33 65 10 29 54 55 60 5 57 20 64 76 26 84 41 59 58 91 52 46 21 93 14 61 35 -18 -36 -85 -78 -4 -74 -13 -71 -87 -25 -37 -30 -22 -73 -83 -49 -63 -67 -53 -82 -90 -16 -39 -6 -11 -66 -47 -92 -72 -56 -68 -19 -40 -43 -75 -81 -27 0
83 61 3 27 50 82 49 26 13 46 92 -90 -78 -15 -80 -79 -18 -4 -59 -25 0
93 4 8 58 50 44 39 60 13 88 3 23 17 67 27 12 64 30 66 85 78 46 68 22 47 34 41 55 53 32 91 62 -56 -72 -5 -65 -25 -75 -70 -6 -74 -18 -7 -48 -19 -80 -61 -11 -43 -29 -54 -1 -77 0
33 58 13 56 50 39 24 14 17 35 26 53 78 4 57 72 54 -1 -63 -16 -49 -92 -8 -68 -74 -31 -65 -89 -82 -84 -83 -70 -75 0
76 55 31 15 54 11 59 64 34 14 37 12 44 48 51 67 2 72 79 49 61 19 38 75 3 50 35 18 65 47 27 42 -53 -6 -77 -58 -25 -90 -86 -5 -1 -17 -21 -57 -93 -23 -30 -91 -56 -84 -29 -70 -32 -87 -7 -26 -62 -69 -16 -9 -46 -36 -74 -33 -78 -73 0
32 47 39 16 61 57 19 54 69 38 64 93 33 25 30 5 27 8 86 7 42 68 50 55 10 88 58 74 3 43 83 89 18 66 17 85 49 78 -79 -21 -4 -20 -26 -53 -23 -40 -36 -76 -87 -45 -80 -2 -92 -6 -34 -90 -44 -62 -73 -31 -35 -60 -77 -29 -24 -52 -75 -22 -91 -67 -48 -46 -51 -84 -28 -56 -9 -65 0
82 92 25 21 7 50 78 33 49 93 63 30 -76 -91 -23 -70 -12 -20 -18 -56 -19 -3 -14 -32 -27 -77 -67 -6 -87 0
37 41 1 20 67 61 81 4 63 47 68 23 28 34 21 48 77 57 22 79 6 2 51 49 84 86 70 80 30 64 16 52 72 35 -9 -13 -14 -3 -44 -7 -71 -89 -55 -60 -27 -36 -91 -12 -40 -24 -58 -66 -85 -78 -56 -15 -42 -74 -32 -39 -93 -92 -53 -83 -65 -50 -73 0
82 9 37 92 -87 -32 -11 0
50 82 24 89 92 29 68 61 86 47 52 57 32 10 93 43 20 73 40 12 81 19 53 48 15 71 28 36 34 49 -74 -39 -9 -4 -8 -91 -16 -56 -37 -51 -77 -13 -54 -2 -46 -88 -1 -38 -75 -25 -79 -42 -83 -60 -17 -78 -85 -7 0
17 81 57 21 5 51 93 55 75 70 12 49 38 67 46 64 33 11 20 63 7 18 31 91 59 74 84 77 43 32 -42 -68 -45 -19 -89 -35 -54 -80 -6 -86 -44 -61 -15 -73 -62 -88 -50 -53 -13 -10 -8 -22 -27 -58 -14 -82 -23 -48 -69 -26 -72 -28 -87 -60 0
-34 0
30 6 75 32 42 43 88 68 44 64 8 45 78 5 27 76 35 62 65 26 83 82 61 47 24 84 51 19 63 55 22 31 56 12 73 38 66 71 41 85 2 67 7 -80 -25 -92 -14 -9 -53 -18 -90 -81 -37 -86 -52 -50 -40 -70 -36 -13 -93 -15 -33 -48 -20 -17 -1 -34 -87 -79 -28 -10 -49 -4 -57 -72 -54 -58 -21 -74 -59 -91 0
90 82 11 87 49 73 80 67 88 71 26 44 19 28 39 77 78 25 58 66 6 18 83 59 46 61 40 13 65 81 54 76 10 48 8 -57 -15 -37 -53 -64 -85 -72 -68 -32 -34 -91 -86 -16 -41 -38 -12 -56 -29 -79 -5 -14 -31 -75 -52 -51 -92 -62 -24 -23 -89 -7 -27 -22 -21 -60 -63 -47 -69 -70 -33 -45 0
54 4 63 28 14 12 47 -21 -67 -53 -79 -87 -32 -75 0
92 68 5 76 67 73 12 26 40 46 -7 -17 -70 -50 -72 -23 -56 -71 0
32 54 43 66 2 88 14 83 39 35 67 33 50 15 20 28 58 60 46 63 13 11 18 -5 -84 -21 -65 -34 -68 -29 -72 -90 -38 -55 -52 -16 -73 -93 -40 -56 -70 -22 -42 -17 -85 -75 -47 -44 -37 0
72 76 81 13 23 22 60 37 3 34 20 9 11 71 -74 -41 -31 -28 -18 -91 -36 -70 -16 -83 -62 -66 -48 -29 -17 -63 -57 -24 0
9 84 82 72 36 57 70 54 90 48 24 37 45 55 81 62 63 71 86 11 91 43 79 64 83 13 29 51 40 59 78 92 50 19 20 28 56 66 38 65 18 30 8 -21 -80 -32 -42 -69 -73 -88 -39 -26 -52 -61 -77 -58 -93 -16 -1 -85 -46 -14 -35 -75 -2 -53 -41 -4 -3 -23 -76 -74 -87 -31 -47 -44 -49 -27 -17 -5 -89 -10 -6 -34 -25 -33 0
27 9 10 13 82 52 78 90 41 24 30 85 81 18 83 68 57 51 -5 -40 -2 -71 -42 -33 -66 -77 -37 -46 -34 -92 -11 -61 -31 -87 -58 -21 -20 -7 0
10 29 65 35 8 38 53 47 39 12 30 16 44 68 64 83 46 32 31 51 57 11 63 14 41 85 55 33 26 91 5 60 93 81 75 50 59 80 90 27 -36 -19 -66 -76 -48 -49 -7 -71 -28 -25 -21 -54 -62 -42 -43 -84 -58 -70 -79 -34 -18 -24 -56 -45 -17 0
71 84 48 72 -32 0
86 69 30 57 79 6 71 58 47 88 74 24 48 54 91 84 11 15 61 78 18 37 9 76 13 50 80 81 10 14 32 52 1 59 -31 -43 -21 -35 -56 -85 -42 -8 -75 -49 -70 -72 -46 -41 -66 -65 -17 -60 -23 -87 -67 -38 -2 -40 -36 -83 -51 -89 -82 -16 -45 -26 -63 -77 -33 -73 -53 -29 -34 -92 -28 -55 -68 -62 0
84 46 78 74 11 91 51 70 42 16 26 40 79 7 12 49 64 43 75 88 8 68 69 66 81 76 36 60 72 19 23 -18 -58 -45 -39 -32 -59 -83 -62 -24 -77 -85 -55 -30 -67 -6 -50 -17 -14 -80 -29 -89 -13 -28 -2 -15 -47 -86 -52 -56 -37 -61 -3 -54 -4 -34 -87 -10 -31 -71 0
55 93 -45 -2 -14 -64 -37 -67 -74 0
61 48 67 11 51 33 50 71 46 36 81 49 5 1 38 56 6 86 29 22 2 -92 -15 -16 -37 -17 -82 -26 -41 -24 -88 -19 -68 -89 -58 -31 -90 -69 -79 -70 -63 -76 -84 -3 -42 -74 -12 -85 -57 -21 -55 0
77 67 27 74 28 71 89 35 39 66 8 63 34 50 53 37 -12 -19 -57 -49 -9 -93 -60 -22 -33 -92 -43 -78 -44 -84 -41 -24 -73 -81 -13 -15 -14 0
93 58 39 62 10 27 78 41 52 89 49 5 13 56 26 71 35 83 86 90 43 7 -69 -16 -37 -74 -87 -79 -21 -4 -60 -19 -75 -76 -68 -73 -77 -65 -85 -63 -44 0
18 26 20 52 75 85 89 31 57 32 48 46 69 13 47 58 16 76 65 38 64 35 44 73 61 37 17 3 60 -88 -33 -72 -45 -24 -87 -81 -30 -80 -43 -19 -91 -34 -22 -15 -6 -63 -4 -36 -40 -41 -51 -55 -1 -93 -23 -53 -83 -68 -79 -10 0
75 57 16 92 78 74 56 91 43 80 65 23 60 83 44 9 36 33 17 77 54 37 50 35 58 32 49 55 29 68 41 39 10 61 52 87 85 71 -82 -34 -42 -8 -45 -72 -1 -46 -70 -73 -89 -53 -7 -69 -64 -48 -51 -18 -20 -24 -13 -19 -12 -40 -84 -11 -47 -2 -59 -26 -63 -86 -62 -66 -5 -6 -15 -3 -38 -14 -88 -93 0
69 72 45 17 24 9 26 59 15 8 34 6 20 -13 -61 -71 -18 -64 -5 -66 -67 -62 -48 -87 -79 -92 0
10 12 25 38 74 27 56 22 62 67 73 77 33 75 21 68 57 11 93 36 14 2 49 32 31 84 83 87 88 17 -69 -34 -47 -19 -43 -58 -42 -44 -92 -39 -9 -3 -46 -8 -50 -48 -15 -86 -90 -51 -64 -45 -30 -13 0
27 87 28 65 6 78 49 21 17 72 62 19 18 15 90 26 25 32 59 53 74 29 89 86 54 33 -83 -64 -7 -77 -58 -23 -31 -68 -4 -16 -40 -22 -9 -50 -43 -1 -57 -35 -44 -5 -76 -47 -92 -36 0
80 56 39 15 21 89 27 57 51 42 38 -85 -67 -84 -24 -45 -93 -62 -91 -32 -90 0
78 88 42 -30 -63 -54 -85 -44 0
92 57 18 70 48 67 15 72 93 7 8 24 14 47 -13 -52 -27 -29 -6 -81 -16 -50 -25 -28 -83 -4 -33 0
87 9 21 76 65 31 27 28 24 73 70 86 69 82 60 85 45 50 6 91 3 52 35 89 74 53 23 5 -90 -54 -22 -71 -10 -93 -83 -18 -63 -72 -15 -26 -68 -16 -67 -29 -1 -79 -7 -77 -14 -78 -48 -13 -80 -62 -61 -56 -20 -19 -66 -44 0
32 43 79 88 52 50 58 71 33 44 38 65 75 4 76 13 67 30 93 48 31 68 3 10 70 54 80 34 7 46 55 14 49 41 64 60 -28 -17 -16 -26 -6 -29 -89 -51 -8 -78 -19 -22 -20 -45 -61 -57 -83 -27 -66 -77 -62 -53 -37 -86 -5 -12 -24 -84 -2 -35 -73 -72 -25 -91 -87 -56 -23 -63 -47 -42 -69 -40 0
56 62 92 1 34 27 25 70 8 63 33 51 40 36 86 78 61 74 39 7 35 26 64 44 19 83 6 13 52 47 54 50 42 69 73 12 -82 -71 -24 -37 -91 -57 -60 -14 -5 -58 -23 -59 -17 -81 -76 -48 -15 -87 -30 -89 -45 -20 -90 -80 -84 -88 -16 -28 -85 -11 -67 -29 -18 -79 -38 -43 -22 -55 -75 -9 -4 -93 -49 -21 -68 -65 0
11 16 89 84 86 38 46 12 63 69 32 17 85 43 26 41 47 4 61 19 33 18 10 80 24 75 76 6 2 79 28 83 67 68 88 70 -51 -13 -78 -49 -57 -40 -52 -25 -54 -1 -21 -53 -59 -73 -42 -71 -90 -20 -23 -60 -56 -31 -65 -77 -29 -36 -87 -44 -45 -64 -7 -22 -92 -62 -27 -39 -74 -35 -91 -3 -93 0
18 44 3 41 38 36 14 85 25 70 50 11 27 49 39 43 55 58 83 77 22 51 74 34 48 24 52 80 15 88 62 64 69 5 78 31 30 57 63 16 4 12 37 93 90 21 2 79 6 42 87 59 17 -29 -54 -73 -53 -86 -23 -67 -46 -60 -32 -9 -91 -72 -71 -28 -13 -56 -89 -7 -61 -33 -75 -35 -1 -82 -45 -47 -40 -10 -92 -26 -66 -84 -19 -65 0
90 2 21 75 38 78 64 72 26 85 34 68 35 70 81 86 57 43 76 79 11 16 66 88 27 93 47 6 61 63 30 39 58 36 55 71 73 10 56 -54 -53 -7 -46 -1 -59 -13 -52 -4 -17 -87 -80 -67 -83 -89 -22 -32 -20 -69 -41 -31 -12 -28 -65 -8 -62 -33 -45 -9 -24 -5 -15 -82 -50 -19 -60 -74 -3 -51 -91 -29 -42 -77 -25 -92 -84 -49 -44 0
34 20 48 78 46 72 74 55 14 23 82 27 64 90 58 45 91 57 61 68 93 11 88 49 30 21 80 39 51 89 40 56 22 5 16 3 47 12 66 85 50 -59 -37 -69 -43 -81 -28 -26 -32 -38 -35 -83 -54 -17 -79 -86 -29 -41 -92 -6 -77 -52 -70 -65 -2 -84 -10 -4 -18 -36 -31 -9 -87 -73 -15 -62 -42 -24 -67 -76 -75 -19 -71 -44 -8 0
33 77 29 38 44 70 49 34 82 91 9 88 42 45 43 84 25 59 62 15 22 37 87 78 28 39 31 51 36 19 8 11 35 6 92 66 68 89 90 17 23 -18 -79 -47 -13 -69 -32 -81 -24 -71 -58 -48 -20 -74 -64 -3 -55 -86 -63 -2 -65 -83 -61 -53 -10 -50 -4 -1 0
50 64 4 45 16 43 92 1 26 70 27 60 36 91 62 3 58 49 40 68 34 44 82 9 41 10 8 7 65 19 69 12 66 53 2 73 39 71 35 42 31 55 79 80 -13 -38 -56 -46 -78 -20 -87 -47 -52 -15 -63 -61 -5 -24 -57 -74 -23 -18 -48 -21 -88 -37 -11 -22 -28 -33 -84 -76 -32 -72 -51 -83 -29 -89 -85 -77 -25 -17 0
87 14 73 85 31 9 -45 -62 -4 -41 -82 -70 -51 -88 -13 -71 -56 -19 -3 -81 -16 -67 -90 -37 0
52 18 75 46 49 50 93 62 55 34 88 42 59 68 -57 -91 -44 -66 -72 -69 -78 -89 -64 -22 -8 -82 0
10 40 14 82 17 51 23 7 2 93 8 84 90 29 78 22 88 12 38 19 63 80 37 60 53 64 65 -25 -73 -18 -20 -86 -52 -74 -26 -5 -68 -43 -85 -24 -28 -70 -66 -6 -44 -35 -50 -91 -16 -39 -92 -79 0
83 61 7 42 41 89 29 84 69 1 6 58 39 88 57 80 13 45 51 33 70 43 66 76 44 34 56 30 -86 -10 -64 -9 -40 -17 -3 -50 -46 -21 -60 -27 -24 -82 -8 -49 -93 -26 -75 -4 -11 -31 -14 -81 -67 -25 -5 -71 -32 0
73 72 25 43 37 35 42 28 77 78 36 10 91 48 -7 -57 -18 -49 -56 -82 -55 -41 -92 -11 -39 -47 -21 -45 -2 0
13 75 42 18 53 85 82 46 61 76 66 9 7 90 -16 -38 -28 -27 -50 -68 -92 -5 -47 -52 0
72 -17 -25 -47 0
90 12 39 47 62 43 51 42 61 91 5 19 87 -84 -74 -63 -80 -68 -16 -59 -56 -79 -11 0
73 34 66 1 8 58 40 77 71 90 37 75 12 33 35 57 44 18 92 -16 -36 -28 -21 -60 -29 -39 -59 -72 -4 -53 -5 0
45 37 32 18 52 80 22 39 27 85 53 55 61 50 -86 -24 -58 -75 -82 -14 -47 -73 -31 -34 -59 -90 -38 -51 -69 -89 -66 -67 -92 -62 -12 -21 -46 -71 -30 -78 0
60 47 80 63 53 48 92 67 29 71 23 93 6 88 13 49 14 43 51 25 89 62 4 -24 -91 -46 -73 -54 -17 -5 -31 -82 -42 -12 -56 -81 -2 -58 0
19 13 68 71 69 44 -75 -45 -30 -36 -60 -87 -89 -59 0
2 35 53 30 1 12 93 7 -50 -82 0
6 74 28 87 22 59 34 57 51 37 86 3 -40 -16 -1 -20 -41 -11 -42 -88 0
85 57 61 13 31 90 69 6 9 59 63 25 16 50 58 8 47 54 81 51 34 42 64 24 73 29 74 10 48 38 76 -92 -83 -44 -3 -27 -65 -21 -40 -70 -75 -86 -88 -1 -82 -53 -17 -15 -11 -20 -93 -46 -2 -45 -14 -72 -36 -12 -22 -43 -41 -49 0
78 59 13 64 93 61 22 66 81 43 16 19 23 12 76 86 34 28 74 47 -26 -38 -82 -45 -5 -48 -52 -9 -30 -57 -51 -21 -68 -46 0
27 53 80 82 34 6 50 64 7 52 26 31 24 49 45 38 8 40 -65 -85 -55 -90 -83 -15 -23 -51 -88 -4 -46 -56 -77 -76 -44 0
3 56 35 2 26 70 38 84 4 59 47 43 29 11 46 86 1 19 75 25 30 12 90 45 32 62 57 51 13 40 17 72 55 22 16 71 85 7 73 58 49 83 41 36 -24 -21 -15 -66 -54 -93 -28 -69 -91 -76 -65 -87 -48 -33 -9 -78 -8 -14 -74 -88 -20 -61 -81 -42 -52 -34 -23 -92 -6 -31 -10 -67 -79 -50 -82 -27 -89 -5 -18 -39 -53 -44 -63 -60 -68 -64 -37 -80 0
92 21 27 1 65 75 -58 -83 -7 -9 -36 -13 0
88 40 2 9 75 66 58 68 17 31 10 62 -22 -6 -19 -45 -32 -37 -61 -90 -78 -73 -70 -42 0
87 71 84 42 46 91 45 37 38 59 22 74 29 53 88 28 54 33 8 70 83 65 43 72 34 76 1 32 36 52 39 90 -6 -69 -77 -82 -24 -12 -27 -16 -63 -18 -44 -31 -7 -19 -89 -4 -57 -23 -35 -10 -79 -50 -66 -41 -78 -25 -73 -56 0
17 66 24 61 39 85 77 43 50 5 33 28 22 69 37 11 73 48 9 55 56 41 60 46 35 81 31 34 71 -1 -51 -6 -32 -72 -14 -42 -75 -67 -2 -12 -36 -87 -65 -78 -76 -59 -23 -10 0
30 4 79 46 -26 -15 -36 0
60 43 5 73 41 25 1 65 71 54 57 6 16 77 87 90 34 7 86 35 9 74 8 78 48 33 58 63 56 52 28 51 20 31 59 64 -15 -75 -76 -12 -37 -53 -47 -42 -83 -72 -21 -91 -38 -66 -36 -17 -44 -4 -18 -70 -2 -79 -39 -62 -24 -13 -45 0
83 31 47 51 20 52 70 -3 -32 -72 -30 -91 -48 -42 -84 -82 -40 -54 -69 -67 -46 -71 -33 -43 -23 -27 -64 -45 -63 -35 -85 0
27 14 49 73 45 5 32 93 90 58 21 -44 -43 -3 -91 -63 -86 -54 -28 -11 -66 0
57 9 24 64 5 14 40 83 54 48 59 1 7 30 45 69 35 41 85 78 3 17 58 -6 -2 -53 -70 -25 -92 -61 -27 -44 -91 -11 -90 -56 -10 -20 -33 -26 -86 -4 -8 -39 -43 -52 -89 0
75 92 26 65 41 25 56 53 87 83 15 71 40 93 18 69 29 82 48 7 68 33 84 90 59 28 27 78 19 66 52 61 -74 -77 -42 -37 -73 -16 -6 -14 -62 -4 -85 -22 -91 -60 -86 -13 -55 -88 -39 -67 -35 -3 -34 -8 -10 -5 -24 -17 -9 -81 -58 0
57 64 71 48 85 91 10 77 16 24 13 86 90 60 72 68 19 50 22 3 88 7 -17 -67 -41 -81 -29 -59 -75 -52 -42 -11 -54 -51 -46 -93 -28 -63 0
92 19 11 62 28 59 26 52 42 43 3 -32 -40 -13 -4 -39 -71 -38 -33 -14 -44 -31 -66 -50 -46 -91 -68 -73 -83 -54 -67 0
43 69 47 64 15 42 65 31 87 25 22 4 82 39 52 73 88 10 85 75 7 90 27 86 18 30 19 29 68 5 67 60 91 79 35 70 41 -84 -59 -34 -81 -6 -71 -55 -53 -89 -56 -24 -14 -78 -21 -36 -57 -44 -83 -37 -32 -46 -1 -72 -51 -28 -8 -16 -50 -92 -45 -13 -54 -61 -2 -63 -48 0
77 71 26 5 86 83 28 67 11 63 19 36 60 7 40 90 58 85 32 76 21 81 50 69 3 51 87 17 27 46 2 78 75 38 39 16 1 33 84 47 18 6 65 62 48 44 20 -66 -23 -82 -15 -13 -45 -29 -31 -55 -56 -9 -59 -10 -54 -61 -70 -22 -12 -41 -24 -43 -64 -49 -42 -91 -52 -34 -4 -37 -74 -68 -72 -89 -30 -8 -92 -14 0
57 42 45 -56 0
1 61 59 29 47 35 25 32 2 92 13 65 42 57 83 31 55 88 20 21 41 3 37 40 30 60 7 43 19 38 -8 -17 -15 -11 -70 -36 -80 -44 -91 -12 -24 -77 -56 -49 -46 -9 -72 -66 -71 -69 -79 -28 -67 -54 0
11 53 36 51 31 6 56 67 18 69 92 35 13 12 87 22 59 29 26 30 -62 -1 -90 -78 -68 -2 -27 -86 -5 0
12 1 25 17 16 71 67 61 13 11 85 24 39 72 27 35 69 75 50 40 34 76 14 31 90 26 92 41 70 36 88 20 51 66 65 56 -8 -62 -53 -44 -6 -54 -32 -89 -49 -18 -47 -81 -63 -10 -15 -45 -83 -4 -73 -64 -52 -7 -48 -29 -80 -60 -3 -21 -23 -38 -58 -77 -28 -87 -46 -59 -91 -42 0
1 59 73 87 60 7 27 49 21 67 64 28 40 6 51 22 34 53 85 43 55 86 11 19 93 44 16 -69 -38 -68 -76 -48 -50 -5 -78 -58 -17 -2 -12 -83 -36 -77 -8 -24 -70 -63 -45 -26 0
6 89 20 61 28 76 9 32 46 54 16 48 45 33 52 43 90 85 57 58 7 66 24 92 50 93 83 17 25 3 30 40 31 71 36 42 51 -13 -23 -39 -82 -47 -4 -59 -79 -60 -34 -53 -14 -12 -67 -88 -29 -19 -87 -91 -37 -55 -78 -68 -72 -18 -5 -81 -2 -8 -10 -75 -1 -11 -77 -56 -49 0
45 0
62 23 79 -92 -48 -16 -29 0
