c NeuroCodeBench 2.0 CNF formula with verdict Sat
p cnf 71 565
68 4 49 -40 -6 -43 -33 0
34 38 13 66 28 57 32 61 41 70 42 37 27 68 67 -60 -33 -4 -12 -43 -21 -36 -35 -46 -22 -51 -20 -55 -47 -3 -71 -53 -17 -50 -39 0
60 37 40 34 6 14 29 20 62 68 18 7 45 43 69 50 38 16 -30 -33 -49 -10 -52 -35 -4 -26 -56 -39 -13 -54 -1 -9 -42 -17 -61 -46 0
63 40 51 15 49 6 18 37 70 21 58 38 10 39 16 11 57 54 32 33 52 23 59 44 2 64 43 -62 -55 -69 -9 -25 -14 -48 -45 -36 -7 -35 -34 -17 -13 -50 -46 0
25 37 48 35 36 40 24 61 14 28 60 46 5 70 56 55 67 65 -39 -22 -45 -33 -19 -11 -26 -10 -15 -17 -34 -54 -3 -62 -13 -2 -6 -30 -42 -68 -64 -16 0
51 30 52 65 62 11 17 37 36 47 43 35 29 19 6 71 53 14 56 27 45 31 49 22 -59 -12 -63 -34 -9 -28 -24 -2 -39 -13 -21 -44 -70 -46 -55 -48 -10 -54 -68 -23 -67 -69 -1 -42 -25 -64 -60 -8 -16 -40 0
48 58 2 25 36 68 7 17 34 39 27 62 42 22 51 24 56 1 13 40 23 -45 -32 -19 -46 -66 -18 -15 -31 -71 -59 -61 -3 -43 -37 -69 -29 -28 -4 -9 -64 -50 -10 0
47 17 42 7 59 22 40 -37 -3 -43 -45 -35 -67 -18 0
35 1 63 46 64 43 68 29 -33 -42 -70 -25 -17 0
52 65 28 37 70 61 23 55 7 5 66 40 14 56 32 4 9 58 -12 -27 -25 -17 -35 -41 -29 -67 -13 -8 -44 -57 -34 -11 -22 -24 -38 -18 -47 -30 0
47 69 63 34 51 29 13 46 2 21 53 37 6 67 3 56 52 26 24 28 10 20 54 55 25 40 43 38 59 -66 -45 -9 -30 -11 -16 -39 -42 -17 -31 -15 -71 -41 -8 -68 -70 -57 -27 -4 -65 -18 -1 -7 -22 -5 -64 -44 -58 -49 -61 -48 -50 -36 -14 -32 -12 0
30 25 38 7 29 17 35 71 15 20 57 39 23 11 28 59 22 46 18 6 67 62 42 12 8 19 60 54 4 9 51 61 32 -13 -26 -1 -31 -69 -50 -21 -56 -70 -10 -49 -53 -16 -64 -48 -44 -24 -47 -66 -52 -14 -65 -27 -34 -37 -45 -43 -2 -40 -5 -33 -3 -68 0
16 42 62 1 52 31 27 -10 -18 -65 -7 -23 -56 0
45 20 25 54 15 62 3 41 13 39 48 50 38 30 -65 -1 -52 -12 -55 -53 -59 -4 -56 -60 -33 -34 -71 -46 -10 -19 -66 -11 -40 -35 -69 -67 0
42 68 65 7 53 6 -38 -11 -18 -3 0
52 48 11 8 67 14 27 28 4 47 23 46 32 36 2 21 69 34 33 5 37 18 56 24 38 17 25 -57 -19 -10 -50 -1 -66 -64 -41 -6 -70 -53 -26 -30 -55 -16 -22 -68 -63 -65 -12 -9 -3 -43 -31 -40 -59 -29 -35 -44 -51 -7 0
2 23 51 14 47 13 68 29 71 22 60 54 16 15 -8 -66 -25 -45 -24 -41 -36 -31 -58 -61 -56 -52 -48 -33 -6 -1 -55 -3 -59 -34 -5 -44 -39 -53 0
46 70 44 7 23 31 37 66 67 64 49 39 53 8 65 41 32 18 29 10 12 4 27 -34 -20 -59 -58 -1 -54 -15 -13 -60 -5 -47 -28 -71 -68 -14 -24 -33 -9 -17 -16 -42 -50 -61 -2 -40 -52 -55 -57 -51 -62 -6 -69 -22 -36 0
33 34 67 3 65 59 61 42 53 54 49 60 24 14 56 43 70 62 28 64 18 69 16 41 11 25 66 9 35 10 68 -29 -8 -71 -39 -38 -27 -5 -21 -1 -63 -2 -4 -19 -6 -46 -45 -26 -36 -55 -22 -31 -30 -23 0
14 38 68 -25 -6 -2 -13 0
48 56 70 61 57 50 43 44 34 51 49 40 7 31 41 63 27 58 12 39 46 13 3 45 42 16 59 4 20 53 65 35 2 69 5 6 -24 -17 -66 -33 -23 -22 -18 -14 -11 -52 -60 -67 -32 -68 -47 -55 -64 -9 -19 -8 -29 -62 -1 -54 -26 -10 -21 -30 -15 -25 -28 -37 -38 0
42 34 52 20 49 11 31 36 59 65 19 13 23 47 -3 -45 -43 -62 -26 -12 -39 -38 -29 -14 -22 0
51 55 54 33 34 40 21 2 16 64 3 50 10 29 60 37 19 42 41 27 47 66 14 35 49 56 20 57 30 9 -69 -45 -70 -68 -6 -12 -39 -36 -5 -44 -71 -26 -22 -13 -8 -7 -23 -31 -46 -62 -11 -61 -24 -59 -48 -43 -18 -63 -1 -15 -58 -53 -52 -65 -17 -38 0
13 65 46 58 63 30 53 36 18 61 54 4 23 17 45 1 71 43 -20 -50 -51 -66 -34 -5 -14 -27 -57 -39 -62 -33 -32 -64 -26 -35 -37 -19 -59 -42 -8 -10 -69 -47 -60 -16 -49 -9 -24 -70 -38 0
57 48 39 8 37 1 28 44 -54 -10 -47 -22 -17 -69 -41 0
17 43 1 30 7 33 20 38 15 41 19 65 46 42 58 25 64 18 50 53 22 39 36 12 47 63 67 6 10 69 9 -21 -32 -14 -45 -48 -55 -5 -37 -11 -27 -44 -34 -62 -28 -57 -59 -60 -51 -66 -56 -68 -3 -4 0
22 20 25 29 39 63 68 44 69 45 40 66 -11 -31 -38 -7 -18 -32 -23 -60 -54 -50 -14 0
17 7 54 29 -31 -64 -46 -21 0
37 25 51 30 62 4 -68 -3 -27 -23 -18 0
7 37 52 39 5 27 65 58 63 33 70 54 59 41 36 12 20 42 11 6 9 4 15 3 60 44 40 -49 -25 -43 -53 -16 -26 -51 -19 -32 -13 -57 -64 -21 -35 -62 -38 -61 -18 0
34 23 64 21 39 20 8 27 4 40 65 61 44 43 48 5 35 17 28 47 32 -25 -24 -18 -31 -52 -15 -49 -13 -66 -3 -56 -46 -54 -22 -2 -38 -7 -69 -70 -29 -45 -53 -26 -14 -42 -10 -67 -6 -1 -19 -37 -16 -68 -59 -55 -33 -12 -58 -50 -11 -51 -63 -62 -9 0
69 59 -41 -2 -61 -48 0
37 33 47 15 61 18 57 14 22 23 21 12 51 62 34 66 70 -59 -49 -32 -7 -10 -54 -60 -28 -2 0
66 45 47 22 7 30 20 60 19 44 21 12 28 61 17 67 38 29 58 69 57 62 5 -51 -68 -63 -3 -37 -13 -16 -36 -33 -64 -1 -6 -50 -32 -14 -27 -56 -53 -49 -26 0
69 -56 -62 0
68 50 29 15 21 36 7 53 59 62 48 31 13 67 64 23 47 71 69 8 65 57 26 28 46 34 12 19 -60 -17 -66 -14 -33 -18 -61 -35 -38 -3 -20 -37 -9 -24 -1 -41 -56 -70 -6 -58 -5 -42 -63 0
69 8 57 12 20 62 33 50 16 60 26 7 34 55 63 45 65 22 54 30 -9 -39 -31 -71 -56 -19 -49 -29 -37 -28 -1 -47 -35 -58 -2 -23 -17 -18 -32 -40 -64 -67 0
60 66 61 1 36 11 42 63 56 33 21 -9 -51 -7 -57 -69 -71 -29 -28 -39 -10 -31 -32 -13 0
37 55 43 63 23 19 30 48 71 9 60 34 16 66 61 18 8 33 6 38 56 69 65 50 44 15 10 17 29 58 59 68 54 27 28 11 64 5 4 -36 -62 -31 -57 -20 -25 -35 -32 -13 -40 -1 -41 -7 -46 -47 -49 -52 -26 -42 -24 -39 -21 -22 -70 -67 -53 0
16 30 13 52 28 71 39 5 31 60 68 9 70 56 -45 -37 -34 -61 -40 -21 -50 -54 -63 0
51 8 5 43 28 13 31 6 -26 -12 -35 -46 -45 -30 -16 -1 -11 -61 -40 -19 -14 -18 -58 0
26 0
34 5 27 57 71 35 55 29 43 68 32 60 7 39 46 52 12 42 63 25 65 49 14 66 -56 -21 -62 -45 -1 -17 -15 -24 -37 -10 -69 -9 -20 -59 -64 -70 -31 -61 -40 -2 -53 -26 -6 -13 -23 -54 -3 -38 0
8 64 19 67 22 68 47 61 10 11 -2 -39 -4 -69 -31 -38 -34 -27 -25 -26 -48 -21 -43 -9 0
44 0
70 25 57 33 41 3 68 -42 -29 -32 0
50 60 29 -4 -67 -63 -52 0
27 17 7 41 57 6 40 52 50 62 60 4 69 58 66 19 70 49 55 -22 -21 -56 -54 -14 -12 -38 -24 -64 -9 -1 -35 -28 -39 -44 -45 -20 -15 -3 -33 -16 -29 -68 -31 -53 -47 -11 -63 0
30 43 53 23 49 9 39 21 48 41 37 66 13 64 29 57 69 27 1 70 67 54 42 6 11 12 2 40 62 65 68 71 8 38 59 3 -46 -36 -24 -32 -61 -34 -4 -58 -18 -26 -50 -44 -60 -5 -45 -22 -52 -63 -56 -17 -15 -28 -47 -19 -20 -55 -25 -7 -35 -14 -51 -16 -31 -33 0
48 62 15 27 -12 -71 -45 -49 -70 -21 -2 0
19 20 9 64 7 59 44 33 27 8 22 46 39 11 47 50 25 43 55 18 71 66 31 38 3 51 17 57 1 -36 -65 -52 -49 -60 -23 -54 -70 -30 -68 -45 -32 -15 -53 -56 -12 -13 -14 -4 -58 -10 -42 -26 -6 -28 -5 -2 -41 -67 -69 -62 -35 -21 0
10 39 30 38 65 67 19 64 50 61 29 11 37 12 32 3 6 -35 -34 -46 -59 -18 -9 -1 -41 -57 -13 -15 -53 -16 0
27 10 16 53 30 50 42 23 24 3 52 38 7 41 54 28 9 21 45 62 57 61 22 69 66 17 60 2 43 8 63 18 -49 -68 -59 -39 -25 -29 -11 -47 -65 -55 -4 -48 -36 -64 -58 -51 -67 -35 -12 -70 -40 -13 -1 -46 -32 -15 -44 -14 0
1 -68 0
5 65 50 10 51 2 60 37 19 71 49 -68 -36 -16 -61 -6 -47 0
24 37 59 68 43 41 25 57 66 38 69 55 67 65 45 29 2 20 6 46 34 22 23 53 64 15 9 63 16 13 12 -33 -26 -49 -19 -48 -47 -7 -42 -60 -44 -21 -30 -27 -28 -10 -11 -5 -32 -70 -8 -17 -62 -40 -50 -3 -61 -51 -58 0
44 20 4 9 7 33 14 34 23 56 65 30 51 6 10 40 -19 -39 -37 -59 -52 -67 -71 -2 -64 -11 -25 -3 -58 -49 -63 -60 -17 -50 -21 -45 -54 -70 0
6 20 37 39 65 60 -63 -62 -61 -23 -52 -19 -8 0
20 62 70 58 38 25 35 46 14 8 15 40 5 7 61 30 41 18 49 34 22 23 -57 -28 -47 -33 -32 -66 -16 -56 -64 -50 -17 -54 -53 -37 -65 -13 -63 -43 -44 -21 0
64 29 28 54 11 47 37 15 49 55 53 5 56 48 50 68 36 38 62 19 4 -59 -26 -18 -66 -17 -35 -33 -63 -58 -41 -31 -27 -46 -52 -57 -14 -9 -13 -39 0
14 10 48 21 49 59 46 42 47 9 57 44 2 70 -16 -56 -4 -71 -67 -35 -60 -17 -24 0
2 60 32 33 27 68 -42 -48 -9 -54 -1 -58 -14 -4 -28 -51 0
5 68 34 58 50 69 26 10 19 44 56 65 27 15 16 7 48 49 33 25 37 1 57 47 22 3 67 31 52 21 41 24 35 71 12 20 -40 -53 -13 -55 -17 -8 -43 -64 -51 -28 -62 -66 -59 -30 -11 -2 -61 -14 -29 -23 -39 -32 -36 -4 -70 -46 -6 -60 -63 0
50 -16 -27 -24 -70 -42 -13 -26 -54 -32 -15 0
63 26 55 65 41 46 19 28 2 47 58 35 24 39 56 4 -68 -14 -69 -50 -11 -25 -27 -70 -62 -37 -61 -32 -52 0
55 42 43 33 -70 -23 -41 -54 0
60 26 9 32 52 70 53 22 36 51 15 42 54 43 40 20 47 8 21 34 27 24 44 -2 -12 -64 -13 -37 -11 -66 -3 -57 -19 -39 -28 -23 -35 -71 -67 -17 -41 -49 -55 -25 -50 -56 -68 -4 -30 -59 -16 -58 -61 -18 -33 -63 -14 -45 -48 -65 -6 -5 -1 -10 -69 -29 -38 -46 0
11 3 31 51 71 46 33 9 16 14 43 60 54 4 18 25 15 44 52 48 53 62 22 66 -20 -17 -34 -40 -30 -39 -6 -19 -68 -7 -61 -63 -13 -45 -5 -41 -8 -23 -49 -29 -24 -35 -21 -38 -12 -42 -37 -28 -36 -70 -1 -32 -57 -58 -10 -64 -59 -27 -55 -47 -2 -50 -65 -26 -67 0
33 1 66 38 52 67 30 16 29 -19 -32 -12 -70 -54 -6 -8 -56 -20 -57 -59 -31 -65 -49 -28 -44 0
36 45 -67 -11 0
47 4 36 54 26 15 6 31 8 40 69 16 22 12 48 65 43 55 37 38 68 62 9 -71 -25 -61 -52 -56 -3 -57 -23 -5 -32 -20 -7 -59 -18 -39 -21 -11 -49 -2 -42 -45 0
66 45 47 42 -59 -26 -17 0
69 38 57 45 16 52 63 67 3 17 61 30 31 49 32 55 41 62 10 24 19 25 66 15 21 71 26 46 9 43 12 -34 -60 -53 -50 -4 -11 -48 -1 -56 -35 -33 -70 -54 -44 -65 -8 -68 -7 -51 -37 -58 -23 -36 -18 -39 -5 -29 0
28 29 27 62 40 22 51 11 34 8 61 36 47 4 26 35 71 17 31 25 6 21 67 5 20 16 43 64 3 65 38 60 19 33 -37 -14 -70 -54 -41 -39 -58 -12 -10 -59 -53 -18 -13 -24 -48 -42 -52 -7 -1 -15 -46 -55 -69 -9 -66 -44 -49 -68 0
24 31 26 50 62 65 71 39 64 35 17 29 52 34 33 6 43 30 70 9 15 14 49 45 19 10 63 55 -54 -28 -67 -5 -40 -32 -53 -68 -36 -56 -18 -1 -21 -69 -16 -23 -46 -8 -47 -37 -22 -59 -38 -48 -11 -61 -13 -51 -27 -66 -7 -41 0
15 30 59 29 9 69 45 55 71 56 20 48 38 28 12 54 21 44 65 26 34 -49 -37 -2 -7 -5 -46 -39 -60 -31 -27 -58 0
21 1 63 54 41 10 32 28 2 69 14 48 15 71 11 52 57 56 42 49 64 13 16 29 -20 -55 -19 -12 -23 -9 -58 -6 -27 -66 -62 -8 -46 -53 -60 -43 -7 -65 -68 -61 -44 -50 -17 -47 -3 0
10 8 48 70 16 15 29 34 13 35 52 32 1 7 68 66 65 37 64 67 42 58 60 19 63 28 23 18 -9 -22 -12 -14 -6 -45 -59 -54 -47 -26 -38 -53 -31 -33 -62 -44 -11 -46 -21 -41 -2 -20 -27 -36 -50 -57 -51 -25 -61 -5 0
56 35 11 18 50 64 17 60 20 15 47 67 29 32 66 -4 -2 -48 -12 -59 -63 -1 -31 -34 -61 0
58 30 49 70 24 15 -14 -68 -6 -26 -21 -62 -33 -37 -57 0
26 32 18 55 9 8 35 7 44 47 62 3 17 65 21 19 14 38 31 23 10 46 63 24 61 30 25 12 68 -34 -56 -52 -2 -69 -57 -41 -48 -37 -13 -11 -51 -60 -50 -71 -49 -64 -39 -66 -70 -43 -59 -1 -28 -27 -16 -45 -40 -53 -36 -54 -22 -4 -6 -15 -33 -58 -67 -20 0
50 57 15 67 42 14 53 31 26 22 12 8 36 60 55 39 -13 -68 -17 -58 -4 -40 -63 -24 -37 -48 -65 -69 0
40 55 4 68 18 43 71 65 45 6 58 27 10 51 54 64 38 23 44 24 35 1 41 52 13 28 36 33 32 -2 -63 -7 -3 -39 -60 -29 -26 -66 -25 -47 -42 -20 -11 -9 -21 -37 -8 -46 -62 -31 -49 -30 -61 -70 -19 0
68 34 35 32 18 1 58 6 27 42 24 7 56 31 39 37 23 38 22 8 28 30 12 45 4 36 20 65 19 55 33 49 -25 -13 -46 -47 -2 -48 -9 -29 -5 -41 -16 -15 -44 -21 -40 -61 -17 -71 -64 -62 -63 -66 -43 -57 -60 -59 -69 -67 -26 -11 0
1 3 24 8 51 64 38 46 39 41 45 18 57 54 7 56 16 48 71 22 37 19 29 -31 -65 -17 -21 -47 -15 -14 -68 -61 -49 -23 -69 -53 -55 -6 -36 -2 -44 -10 -43 -30 -4 -28 -59 -34 -25 -32 -27 -12 -66 -67 -35 -42 -70 -50 -26 0
62 17 60 64 59 58 48 15 25 55 49 66 8 -13 -32 -11 -12 -69 -65 -16 -67 -6 -38 -45 -26 0
10 22 58 39 65 27 70 1 15 47 62 5 67 51 55 7 13 25 61 -24 -37 -17 -54 -34 -16 -42 -56 -40 -60 -43 -33 -49 0
53 15 24 28 33 30 51 41 45 50 68 20 2 -7 -59 -8 -19 -62 -67 -21 -39 -34 -54 -61 0
34 22 3 12 43 54 1 52 28 21 42 41 17 67 8 55 51 -48 -61 -65 -45 -16 -32 -49 -64 -57 -20 -59 -71 -27 -50 -46 -6 -25 -39 -18 -26 -56 -30 -70 -29 -60 -36 -2 -11 0
29 36 37 19 -18 -64 -41 -68 -15 0
31 21 51 -49 -58 -50 -3 0
68 52 33 31 70 42 16 50 30 2 59 5 35 23 65 34 66 49 61 27 9 29 55 37 54 26 7 -21 -45 -19 -56 -6 -38 -63 -22 -11 -58 -67 -10 -39 -71 -8 -14 -53 -51 -12 -32 -41 0
50 58 42 25 63 15 6 56 71 1 32 65 27 66 39 54 46 31 8 41 62 45 40 12 20 36 35 43 17 44 4 22 59 -23 -21 -11 -5 -28 -34 -37 -24 -57 -2 -18 -30 -68 -61 -9 -33 -52 -10 -49 -64 -3 -7 -14 -67 -47 -51 -69 -48 0
33 46 -9 -32 -38 -65 0
62 67 52 58 5 48 29 11 8 25 13 45 -2 -70 -6 -39 -32 -51 -33 -19 -18 0
7 60 3 18 42 66 39 57 20 50 54 6 49 1 31 5 34 2 13 12 16 28 36 14 -71 -62 -22 -70 -63 -46 -26 -35 -45 -21 -8 -24 -58 -56 -61 -15 -32 -41 -4 -55 -68 -9 -38 -51 -65 -23 -19 -11 -37 -48 -29 -52 -10 0
20 67 9 48 44 -34 -56 -22 -30 -46 -64 -49 0
61 67 18 62 15 56 33 42 29 10 5 14 28 4 64 36 66 38 7 -26 -2 -44 -58 -52 -24 -46 -16 -31 -71 -59 -17 -40 -48 -41 -9 -22 -50 -45 0
14 68 32 59 35 6 63 26 13 22 65 50 7 61 46 15 53 -54 -19 -34 -21 -67 0
70 55 36 24 45 68 32 34 52 48 56 26 22 62 5 18 47 29 10 66 12 25 19 31 40 20 6 -27 -37 -46 -58 -9 -41 -54 -64 -65 -50 -35 -23 -49 -13 -14 -16 -38 -42 -11 -57 -71 -4 -53 -2 -43 -51 -33 -8 0
39 27 21 14 37 6 47 35 8 56 62 49 34 68 20 17 30 12 9 48 64 -3 -55 -15 -40 -67 -57 -41 -5 -60 -23 -45 -22 -43 -63 -18 -46 -58 -25 -50 -44 -1 0
32 51 20 24 67 19 49 3 -13 -47 -43 -1 -41 -64 -29 -62 -46 -26 -15 -70 -48 -57 0
30 18 64 47 68 -2 -61 -19 -70 -58 -32 -56 0
64 41 58 40 38 68 2 -29 -60 -55 -33 -6 -37 -45 -12 -20 0
63 30 43 19 16 10 7 70 29 54 39 24 44 17 14 51 9 8 33 65 22 66 -47 -60 -27 -36 -56 -46 -28 -38 -37 -42 -53 -52 -12 -34 -67 -41 -48 -61 -5 -26 -68 -20 -49 -50 -23 -2 -21 -62 -32 -58 -6 -15 -4 -40 0
49 50 69 1 43 22 19 12 68 39 -66 -67 -34 -53 -71 -4 -30 -9 -14 -33 -70 -6 -54 -42 -2 -20 -26 -57 -10 -63 0
51 37 44 15 25 67 4 63 2 41 65 50 40 22 21 31 3 30 33 69 47 46 11 70 57 52 39 28 36 58 64 5 -53 -60 -29 -48 -9 -59 -17 -71 -43 -18 -27 -20 -34 -35 -23 -12 -1 -32 -19 -13 -8 -61 -7 -68 -16 -54 -38 -66 -55 -45 -56 -10 -26 -62 0
9 15 54 55 8 28 19 12 60 34 7 58 5 30 68 39 14 13 50 44 37 26 46 56 17 71 40 16 61 48 32 -38 -18 -57 -51 -29 -42 -63 -59 -45 -43 -49 -41 -31 -62 -35 -23 -70 -3 -20 -36 -24 -53 -65 -52 -64 -11 -22 -10 -69 -25 -6 -66 -67 -27 -1 -47 -33 0
68 26 8 -43 -29 -69 0
20 -68 -34 -26 0
11 65 30 13 67 33 58 42 37 28 12 21 66 6 61 70 -59 -64 -40 -71 -29 -51 -45 -9 -50 -3 -2 -57 -48 -47 -63 -34 -32 -62 -41 -49 -25 -56 -68 -53 -15 -7 0
55 21 31 53 50 20 60 11 64 43 10 32 41 70 35 49 39 25 26 8 3 16 30 -42 -69 -62 -57 -15 -40 -67 -71 -47 -59 -6 -5 -4 -33 -13 -14 -52 -68 -28 -38 -44 -22 -36 -46 -34 -65 -27 -48 0
32 57 40 28 48 42 55 -8 -1 -2 -16 -38 -29 -25 -34 -62 0
52 43 60 13 64 34 56 -18 -5 -45 -61 -39 0
38 49 9 37 23 59 11 63 70 13 42 24 15 44 67 -6 -55 -4 -34 -47 -33 -60 -61 -30 -5 -54 -52 -17 -43 -28 -21 -3 -8 -16 -39 -7 -58 0
15 67 10 31 39 8 46 53 49 29 59 9 62 64 19 61 34 55 41 30 63 26 71 6 20 45 54 5 36 27 2 4 57 7 32 68 33 -65 -35 -12 -24 -23 -60 -3 -38 -16 -40 -50 -37 -69 -28 -1 -22 -52 -47 -18 -66 -58 -42 -11 -14 -44 -13 -21 -48 -51 -43 -70 -25 0
9 36 21 -10 -49 -4 -43 0
46 47 52 10 48 25 51 14 44 27 45 38 56 22 26 40 62 33 4 66 7 65 17 70 59 68 29 43 8 57 2 67 19 -5 -49 -16 -12 -36 -1 -64 -53 -50 -13 -39 -32 -61 -54 -3 -35 -11 -60 -37 -42 -58 -20 -18 -6 -34 -23 -9 -71 -63 -28 -69 -31 0
57 41 66 33 68 4 25 19 12 60 26 42 -24 -48 -29 -3 -52 -10 -23 -45 -50 -43 0
55 68 44 58 29 7 20 11 66 59 51 67 12 31 19 2 -40 -10 -33 -6 -8 -70 -46 -4 -32 -41 -13 -42 -9 -24 -38 -27 -71 -17 -16 -30 0
62 68 -50 -32 -11 0
49 22 5 42 50 37 17 39 26 52 -40 -20 -16 -33 -60 -43 -2 -46 -34 -23 0
55 71 59 6 41 47 40 17 62 68 36 13 1 18 35 44 39 51 65 2 32 42 56 26 -67 -20 -69 -45 -8 -14 -4 -50 -54 -37 -10 -19 -11 -57 -12 -3 -21 -58 -23 -27 -52 0
22 70 50 63 67 43 4 65 9 52 17 11 25 45 49 68 56 15 47 57 71 54 19 58 29 53 -62 -42 -36 -48 -21 -55 -51 -30 -34 -60 -12 -8 -18 -28 -24 -6 -2 -44 -3 0
25 12 44 26 69 47 56 27 32 18 70 16 40 59 19 2 67 39 30 48 45 24 50 42 34 21 10 28 64 46 68 6 -65 -54 -36 -15 -43 -14 -49 -11 -7 -55 -3 -9 -22 -35 -52 -13 -41 -53 -58 -8 -63 -1 -29 -31 -57 -20 -60 -51 -61 -37 -5 -4 -38 -62 -66 -23 -17 0
63 5 48 6 34 39 40 35 -33 -9 -19 -28 -43 0
60 20 62 2 26 -10 -7 -69 -50 -42 -34 0
57 45 55 23 15 19 30 16 26 33 64 18 39 48 1 46 35 9 54 28 65 50 -61 -47 -41 -2 -42 -21 -70 -51 -62 -60 -5 -56 -53 -58 -66 -44 -24 -52 -43 -7 -8 -71 -34 -27 -37 -25 0
27 16 35 69 23 68 8 30 55 14 38 5 52 36 21 31 29 70 33 17 63 34 39 58 67 60 -51 -6 -47 -53 -40 -18 -57 -32 -71 -9 -24 -11 -13 -61 -4 -59 -7 -10 -44 -26 -28 -43 -25 -2 -12 -54 -15 -41 -64 -37 0
53 27 26 70 48 32 60 42 8 45 47 58 57 18 10 39 14 9 34 56 65 68 66 49 52 59 13 3 35 16 64 44 20 71 23 50 -11 -21 -24 -46 -51 -55 -25 -54 -33 -38 -62 -36 -30 -40 -4 -17 -41 -37 -28 -67 -43 -12 -69 -19 -1 0
26 39 27 55 22 67 25 24 -14 -63 -23 -52 -62 -33 -43 -38 -31 -20 -17 -42 -61 -37 0
29 69 8 48 6 27 7 36 31 37 26 58 63 57 12 59 13 21 56 51 71 39 23 68 11 32 43 24 41 15 9 25 1 47 17 40 -60 -10 -53 -28 -33 -70 -49 -30 -5 -64 -22 -2 -4 -44 -66 -34 -42 -38 -3 -20 -50 -65 -16 -61 -67 -14 -35 -55 -54 -46 0
1 22 12 40 51 61 -65 -17 -70 -39 -36 -33 -34 -63 -62 -18 -45 -42 -35 0
5 44 0
19 30 64 -69 -12 -57 -61 -13 0
62 42 66 29 22 30 7 47 1 31 -61 -5 -6 -63 -53 -20 -50 -11 -8 0
15 57 50 31 3 53 64 71 46 1 22 9 52 42 61 36 25 21 5 11 -37 -10 -41 -45 -66 -69 -39 -20 -68 -17 -30 -63 -43 -29 -55 -13 -56 -14 -54 -23 -26 0
26 11 53 66 31 32 60 46 -63 -28 -20 -12 -65 -37 -57 -54 -19 -23 -38 0
56 65 66 15 22 52 24 51 44 37 12 47 58 19 4 42 49 16 -27 -63 -21 -40 -45 -13 -14 -20 -7 -17 -50 -54 -71 -3 -41 -48 -1 0
37 14 31 2 1 -4 0
63 61 19 17 64 53 9 11 30 56 39 42 45 -65 -34 -52 -31 -62 -10 -51 -16 -22 -67 -24 -4 -43 0
16 32 28 42 35 43 20 25 13 9 22 59 31 52 54 21 8 47 57 50 24 29 70 40 -67 -12 -51 -55 -36 -4 -69 -71 -26 -10 -41 -48 -56 -37 -6 -17 -44 -19 0
44 27 1 40 67 20 36 10 60 49 48 21 68 6 -34 -7 -57 0
24 41 28 46 14 57 6 15 43 9 -4 -48 -37 -17 -8 -42 -68 -18 -49 -12 -25 -63 -10 -65 -2 -26 -29 -1 -71 -30 -45 -31 -33 -64 -5 -69 -13 -27 -40 -62 -61 -38 0
4 17 65 54 10 69 71 -27 -2 -32 -13 -7 -28 -31 -3 -22 -37 -24 -44 0
59 44 19 47 62 29 43 12 18 3 27 67 21 48 4 42 7 51 22 31 32 40 1 36 71 68 26 41 39 60 -6 -10 -65 -13 -58 -56 -14 -9 -24 -69 -66 -16 -45 -25 -52 -28 -8 -30 -50 -57 -49 -33 -17 -38 -5 -70 -2 -64 -37 -23 -54 -63 -11 0
3 13 9 51 25 11 29 5 23 10 6 21 12 36 44 15 37 14 24 17 42 46 20 48 69 8 40 35 65 61 28 -4 -62 -38 -1 -22 -59 -2 -43 -47 -63 -26 -27 -39 -16 -66 -53 -19 -57 -31 -45 -58 -56 0
37 50 22 47 44 58 19 55 5 62 18 1 65 33 68 29 38 6 70 21 49 9 -52 -45 -41 -10 -25 -56 -67 -23 -54 -11 -2 -31 -66 -63 -28 -42 -20 -64 -3 -39 -8 0
13 55 63 49 20 52 8 53 17 65 50 51 5 26 25 45 21 64 70 -57 -7 -24 -3 -35 -34 -59 -22 -12 -68 -66 -56 -14 -41 -42 -30 0
5 36 43 10 22 18 23 33 -62 -65 -67 -17 0
57 41 0
26 37 21 22 36 4 19 30 10 15 20 69 -2 -3 -70 -65 -44 -31 -64 -28 -58 -61 -46 -13 -34 -62 -1 -55 -24 0
60 37 1 57 4 36 13 2 44 47 51 10 43 26 41 46 49 8 63 19 65 20 18 71 55 24 42 3 50 62 21 54 -53 -29 -34 -40 -25 -16 -23 -48 -33 -22 -56 -66 -12 -14 -27 -59 -58 -38 -31 -67 -39 -52 -15 -45 -69 -28 -70 -61 -68 -35 0
54 53 55 69 19 12 43 29 40 -64 -20 -13 -58 -9 -22 -21 -50 -24 -56 -34 -30 -66 -68 -6 -48 -49 0
52 38 57 25 66 54 64 6 65 46 18 35 36 42 16 14 30 55 44 20 24 50 43 15 13 47 34 10 4 45 1 26 61 12 23 27 -33 -56 -63 -67 -3 -53 -60 -21 -29 -22 -68 -70 -59 -37 -58 -28 -39 -51 -62 -9 -7 -5 -32 -48 -40 0
44 49 45 22 34 3 36 15 12 39 14 35 -7 -53 -66 -60 -30 -67 -70 -37 -51 -41 -63 -61 -57 -58 -9 -65 -56 0
41 11 12 8 70 60 19 59 31 45 27 68 69 66 52 61 67 18 2 -24 -28 -4 -44 -53 -9 -25 -35 -55 -30 -51 -48 -13 -64 -57 -29 -15 -39 -3 -38 -16 -22 -1 -7 -20 -26 0
6 69 56 26 61 19 27 66 24 22 17 7 12 43 33 47 38 34 52 65 15 16 10 58 62 49 45 25 4 41 3 48 36 51 30 37 63 20 -40 -55 -54 -18 -50 -42 -67 -8 -9 -32 -29 -53 -31 -28 -71 -21 -23 -5 -59 -57 -14 -1 -11 -2 -39 -64 -44 -35 -60 -70 -46 -68 0
15 34 27 54 60 57 67 8 63 29 11 19 47 49 2 56 20 16 21 58 -70 -13 -59 -65 -55 -4 -68 -44 -62 -53 -43 -71 -64 -51 -17 -33 -14 -69 -37 -10 -39 -25 -5 -24 -40 -45 0
31 17 51 61 7 11 45 64 25 30 49 50 39 9 62 46 71 3 28 60 44 69 66 43 65 57 63 -8 -15 -55 -2 -6 -37 -13 -21 -4 -47 -10 -1 -70 -33 -20 -26 -27 -41 -38 0
6 68 44 57 36 21 -28 0
42 31 16 69 -30 -37 -17 -71 -15 -14 -62 -58 0
70 3 49 45 61 62 36 57 2 71 29 17 23 64 56 28 22 41 34 15 53 47 4 60 6 10 39 37 55 58 -51 -19 -1 -18 -63 -21 -46 -7 -14 -38 -67 -5 -68 -11 -9 -48 -50 -35 -25 -59 -20 -65 -44 -32 -54 -12 -27 -43 -26 -42 -52 -24 -69 -31 -16 -66 -8 -13 -33 0
11 50 39 19 46 30 53 59 66 7 29 12 18 48 54 28 41 26 65 20 -4 -70 -63 -47 -13 -42 -17 -35 -40 -56 -43 -33 -24 -16 -5 -60 0
17 1 35 29 37 45 61 33 53 6 24 71 8 64 9 41 63 22 43 16 67 28 3 -13 -42 -12 -20 -23 -54 -5 -25 -66 0
11 45 40 39 3 42 58 64 71 61 22 57 4 50 -26 -53 -63 -69 -36 -67 -30 -56 -44 -7 -47 -48 -46 -49 -34 -23 0
23 4 70 43 34 -15 -27 -53 0
2 16 61 67 39 32 51 4 18 5 30 22 38 41 54 56 62 52 57 6 66 44 49 36 42 50 35 63 29 21 -65 -40 -19 -24 -43 -12 -23 -71 -27 -10 -8 -31 -34 -69 -64 -7 -48 -14 -46 -13 -70 -45 -33 -68 -20 -3 -53 -59 -15 -60 0
69 12 65 68 11 17 14 58 51 9 63 18 71 55 40 45 62 16 31 47 46 33 7 20 -27 -29 -23 -57 -61 -44 -30 -53 -10 -4 -41 -37 -60 -50 -26 -5 -59 -54 -3 -32 0
46 55 33 54 71 17 60 -22 -70 -38 -14 -68 -37 0
7 43 69 41 17 44 1 5 64 34 36 45 32 14 20 53 -9 -71 -11 -37 -49 -40 -3 -58 -46 -67 -66 -19 -18 -33 -57 -47 -22 -55 -52 -68 -42 -23 -56 -38 -51 -24 -48 0
65 31 29 57 13 68 1 59 34 58 4 41 49 52 47 7 53 44 12 51 22 25 43 16 -69 -55 -35 -26 -45 -11 -40 -24 -3 -5 -36 -70 -56 -50 0
27 23 9 58 32 57 4 -25 -55 -70 -47 -56 -20 0
3 71 44 15 38 21 61 31 63 10 57 54 1 6 -27 -51 -5 -26 -52 -46 -65 -8 -48 -7 -30 -39 -60 -35 -40 -43 -69 -68 -22 -50 0
15 5 11 70 19 63 69 4 41 8 32 42 56 27 28 40 14 64 68 30 61 20 52 50 16 9 49 54 33 43 26 10 21 7 2 39 66 48 -62 -35 -51 -25 -31 -34 -17 -29 -1 -3 -58 -71 -67 -24 -55 -44 -23 -59 -13 -57 -36 -12 -60 -53 -45 -47 -22 -46 -65 -6 0
2 51 12 49 54 28 56 48 13 31 64 34 65 37 8 32 36 61 52 9 26 15 71 19 45 59 41 3 62 -50 -21 -43 -68 -58 -53 -14 -4 -44 -46 -38 -23 -66 -16 -57 -40 -55 -25 -7 -70 -18 -1 -67 -11 -27 -69 -5 0
60 14 26 36 56 62 57 23 69 6 52 49 44 9 46 68 43 20 41 19 -35 -5 -30 -70 -48 -25 -21 -61 -13 -17 -54 -50 -27 -15 -11 -4 -22 -8 -71 0
1 12 9 37 60 11 8 13 42 23 61 16 27 41 69 26 29 62 66 5 64 49 67 68 28 4 71 43 -25 -56 -65 -24 -55 -2 -31 -35 -6 -59 -14 -52 -32 -15 -58 -17 -36 -47 -50 -48 -39 -20 -53 -18 -30 -7 -63 -10 -57 -54 -44 -40 -22 -34 -51 -70 -33 -21 -3 -46 -38 -45 0
45 10 31 32 55 59 37 19 3 39 52 61 38 -26 -22 -29 -70 -35 -6 -28 -60 -62 -44 -53 -69 -15 -66 -7 -67 -21 -71 -16 0
66 18 15 16 -9 -41 -59 -42 -3 0
30 35 27 65 24 26 20 29 -12 -37 -25 -54 -60 -45 -58 -48 -28 -15 -1 -13 0
42 40 13 12 38 29 7 5 18 3 -66 -31 -24 -6 -70 -19 -22 -21 -20 -68 0
13 1 54 -57 -4 -65 -34 0
2 60 56 42 51 -5 -36 -57 -3 -34 -66 -55 0
29 31 3 26 27 32 7 21 15 62 34 65 64 41 52 54 69 46 33 -51 -59 -20 -38 -6 -70 -58 -67 -28 0
22 64 10 2 46 28 35 38 53 67 23 6 42 5 9 26 56 48 19 8 41 33 3 11 57 59 45 -15 -27 -55 -20 -68 -36 -63 -43 -52 -34 -13 -18 -61 -17 -37 -25 -65 -1 -47 -44 0
3 50 25 27 33 57 63 66 58 35 40 12 70 18 38 43 7 2 13 39 46 4 64 22 55 20 14 59 41 71 -34 -52 -69 -1 -23 -31 -37 -44 -30 -65 -21 -26 -5 -9 -19 -48 -28 -11 -36 -56 -62 -54 -10 -42 -6 -51 -49 -32 0
23 3 43 34 70 57 26 36 30 18 17 54 -47 -24 -49 -16 -60 0
38 60 19 47 27 61 37 48 43 22 50 44 45 57 40 42 26 8 66 10 7 17 62 70 58 -14 -30 -41 -52 -25 -31 -65 -34 -54 -18 -3 -1 -29 -32 -36 -33 -16 -6 -12 -20 -21 -9 -49 -69 -5 -71 -68 -24 -4 -63 -53 0
24 7 39 65 28 -55 -18 -37 -54 -6 0
10 39 50 7 12 31 68 52 19 21 44 37 3 25 48 23 70 64 14 71 6 18 54 33 53 66 16 9 29 47 49 34 26 55 -56 -15 -5 -20 -35 -40 -2 -22 -60 -69 -8 -46 -11 -4 -41 -24 -32 -63 -28 -27 -65 0
48 44 70 7 42 64 -67 -54 -16 -71 -68 -34 -13 0
8 16 35 69 9 10 6 -19 0
51 50 45 41 16 20 44 27 64 12 -54 -52 -3 -59 -11 -43 -19 0
57 6 37 64 61 9 -15 -14 -22 -7 -71 -48 -42 -1 0
30 53 58 41 27 59 51 18 60 10 19 7 5 62 17 35 66 71 33 25 38 13 40 36 24 14 6 45 29 12 42 11 8 4 57 2 61 65 -64 -31 -39 -32 -69 -34 -49 -67 -37 -21 -56 -9 -50 -23 -52 -54 -46 -44 -15 -26 -1 -47 -43 -63 -22 -55 -28 -68 -3 0
68 7 45 12 51 67 22 49 20 48 27 3 26 43 24 14 9 35 -18 -61 -21 -64 -38 -30 -40 -1 -63 -15 -58 -42 -8 -34 -44 -62 -19 -31 -41 -50 -53 0
6 31 2 1 47 46 32 37 38 52 -25 -36 -33 -65 -68 -51 -27 -16 -8 0
16 53 67 45 17 29 34 35 61 14 19 69 25 2 15 68 38 26 18 9 71 24 -5 -41 -46 -42 -50 -6 -23 -28 -21 -10 -40 -47 -8 -13 -30 -4 -1 -12 -27 -51 -52 -36 -57 -3 -60 -7 -62 0
57 34 48 4 61 22 14 45 38 6 7 -27 -43 -70 -18 -30 -19 -37 -50 -39 -40 -20 -2 0
27 68 69 65 54 19 23 58 1 64 44 41 37 56 20 6 13 48 26 10 21 51 43 50 70 40 66 67 16 5 36 3 63 -55 -34 -38 -33 -24 -28 -17 -25 -9 -45 -14 -39 -47 -42 -22 -35 -31 -60 -32 -59 -4 -53 -62 -11 -15 -49 0
23 61 32 10 30 21 52 18 26 -45 -4 -24 -37 -44 -6 -2 -13 -1 -38 -56 0
64 45 23 24 16 47 43 15 34 35 29 14 1 17 3 59 6 4 25 63 49 -12 -60 -42 -22 -55 -56 -70 -68 -50 -31 -37 -48 -2 -5 -46 -71 -44 -10 -52 -20 -11 -67 0
11 48 49 13 12 26 56 7 36 5 59 46 64 37 68 65 20 54 9 23 16 62 41 27 30 34 21 45 51 69 40 15 47 2 50 19 10 -61 -63 -39 -28 -60 -35 -6 -8 -14 -25 -4 -38 -55 -42 -31 -57 -22 -52 -1 -18 -32 -29 -70 -66 -17 -67 -44 -43 -33 0
6 53 12 67 64 1 37 15 22 42 41 18 17 58 -65 -34 -70 -63 -66 -59 -68 -13 -55 -60 -20 -31 -51 -62 -71 -52 -9 -11 0
6 44 5 37 3 40 70 36 23 42 35 18 57 -54 -22 -21 -24 -8 -60 -52 -28 -38 -47 -19 -43 -27 -14 -34 -30 -61 -25 -15 -67 0
11 32 48 47 69 4 7 45 9 8 55 34 58 70 29 37 62 30 40 57 54 5 49 42 66 20 38 14 1 50 71 22 18 -31 -67 -39 -3 -33 -63 -35 -46 -44 -65 -28 -12 -52 -60 -61 -51 -53 -2 -26 -43 -25 -23 -68 -24 -56 -59 -13 -15 0
40 24 47 60 12 49 43 46 -5 -45 -65 -18 -34 -27 -28 -71 -66 -54 0
29 50 71 51 35 15 66 47 57 62 40 68 27 58 1 -12 -13 -53 -25 -54 -4 -26 -8 -52 -34 -18 -39 -48 -37 -21 -36 -7 -28 -24 -38 0
60 26 11 44 30 12 8 54 1 62 33 47 7 27 39 50 9 28 55 68 53 -6 -38 -67 -46 -40 -10 -66 -64 -49 -4 -19 -31 -56 -41 -57 -58 -52 -16 0
47 31 2 64 36 27 56 41 34 39 3 40 30 11 52 33 71 62 10 45 20 38 24 65 17 1 18 12 60 -49 -59 -58 -43 -21 -13 -23 -35 -16 -44 -46 -66 -57 -42 -7 -15 -51 -48 -14 -37 -8 -61 -26 -55 -53 -63 -29 -25 -4 -5 -50 -6 -68 -19 -22 -9 0
17 54 68 38 56 43 33 27 31 2 7 23 10 14 69 3 39 5 6 50 1 -57 -24 -65 -12 -44 -25 -47 -48 -46 -62 -13 0
2 30 7 64 25 11 43 60 68 46 28 9 47 67 10 54 45 49 55 23 57 6 53 41 19 70 37 69 48 32 61 22 66 24 3 18 20 -38 -31 -13 -34 -52 -16 -40 -58 -51 -8 -59 -39 -29 -44 -65 -63 -5 -1 -71 -21 -36 -56 -62 -27 0
62 47 25 6 44 63 36 60 34 27 19 16 4 57 26 54 66 42 13 28 48 23 53 71 32 1 33 -10 -20 -56 -30 -31 -45 -38 -29 -52 -46 -69 -35 -61 -55 -21 -67 -43 -24 -70 -40 -2 -5 -68 0
6 11 45 39 36 27 63 31 13 66 58 44 17 22 56 12 1 -62 -48 -18 -52 -32 -7 -60 -37 -5 -68 -53 -25 -41 -20 -8 -14 -9 -3 -42 -64 -54 0
45 17 49 25 43 59 39 62 7 60 48 -56 -66 -26 -16 -54 -22 -18 -3 -24 -28 0
2 -31 0
70 54 14 56 -41 -37 -49 -6 -32 0
49 67 37 38 8 55 -63 -6 -53 0
29 14 68 44 48 37 30 69 62 11 71 35 1 5 22 12 57 45 56 -67 -50 -32 -58 -9 -7 -20 -52 -41 -25 -38 -27 -31 -40 -70 -3 -4 -46 0
26 29 9 70 24 7 28 52 43 34 41 31 21 48 38 45 55 27 32 65 10 30 18 11 49 66 71 68 47 39 25 16 40 -69 -54 -1 -44 -37 -5 -62 -15 -64 -14 -61 -63 -2 -6 -60 -57 -3 -33 -20 -46 -58 -35 -50 -67 -4 -8 -53 0
28 57 70 -66 -54 -43 0
36 16 22 28 41 18 10 5 11 66 9 39 25 45 44 52 42 2 60 17 13 53 35 37 -30 -55 -19 -57 -8 -32 -14 -29 -21 -67 -20 -70 -62 -54 -38 -6 -65 -31 -15 -7 -23 -63 -69 -12 -27 -40 -33 -48 -34 -56 -68 -49 -46 -61 -58 0
44 54 60 58 16 27 33 5 64 9 41 25 13 62 49 61 6 71 24 29 -35 -39 -19 -59 -57 -56 -40 -12 -17 -7 -1 -46 -66 -70 -31 -47 -48 0
52 54 21 6 9 60 63 4 64 19 29 69 70 65 59 20 61 10 57 -15 -16 -39 -12 -36 -26 -48 -33 -58 -41 -1 -14 -18 -28 -24 -44 -7 -25 -17 -30 -51 -38 0
20 56 57 52 9 59 64 41 43 27 67 32 26 17 16 30 11 22 -3 -48 -51 -15 -13 -24 -61 -29 -34 -6 -25 -38 -18 -71 -66 -68 -19 -23 -55 -40 -45 -50 -49 -33 0
12 51 30 40 68 37 36 28 38 32 57 17 26 54 29 31 65 60 71 56 44 4 46 9 10 35 -58 -41 -16 -50 -70 -19 -15 -20 -61 -11 -18 -42 -49 -55 -48 -34 -22 -21 -69 -53 -7 -25 -67 -63 -39 -6 0
6 69 66 17 70 35 38 48 18 37 2 59 39 -64 -55 -16 -42 -3 -60 -36 -44 -14 -13 -41 -54 -9 -7 -49 0
17 13 29 35 9 43 38 22 56 69 58 55 53 37 36 46 34 -24 -68 -62 -40 -54 -30 -65 -47 -6 -50 -70 -5 -31 -42 -7 -4 -1 -18 -60 -59 -11 -57 -71 -25 -8 -2 -27 -51 0
5 28 70 7 52 29 54 71 19 64 15 57 56 17 3 32 44 38 49 53 -21 -26 -62 -42 -24 -1 -43 -68 -35 -41 -25 -39 -36 -45 -65 -50 -27 -23 -51 -16 -11 -61 -10 -60 -46 -59 -14 0
28 20 18 24 50 49 38 42 66 34 19 59 53 14 55 -36 -25 -21 -40 -8 -15 -37 -7 -63 -64 -48 -23 -35 0
55 40 3 13 33 53 36 62 12 2 5 32 9 22 68 65 24 19 50 18 63 46 -47 -1 -28 -16 -71 -66 -21 -38 -37 -59 -25 -60 -20 -54 -49 -44 -56 -31 -29 -27 -52 -51 -14 -70 -39 -69 -4 -48 -64 -17 0
-3 -46 -1 -8 -18 0
68 66 57 21 65 22 56 10 53 19 63 13 8 42 9 12 43 24 49 45 51 18 47 -6 -28 -52 -59 -33 -5 -62 -44 -2 -31 -27 -29 -41 -16 -61 -64 -40 -67 -32 -37 -35 -36 -54 -7 -60 -58 -4 -38 -50 0
15 16 62 9 21 71 6 67 68 63 19 56 65 2 7 48 14 29 1 4 24 -61 -23 -42 -59 -55 -28 -53 -39 -31 -66 -34 -35 -37 -32 -22 -43 -69 -41 -64 -8 -38 -45 -50 -11 -57 0
11 70 13 26 58 44 31 23 65 1 -63 -61 -33 -7 -12 -6 -62 -68 -9 -64 -48 0
33 19 3 8 13 6 14 41 52 69 61 24 31 62 39 7 -57 -42 -18 -56 -20 -27 -15 -36 -1 -5 -70 -63 -10 -34 -11 -49 -30 -50 -44 0
38 8 14 62 31 66 53 50 61 10 54 -65 -71 -36 -24 -13 -48 0
12 71 65 61 25 54 40 66 27 36 58 55 56 5 4 33 60 17 15 14 18 -16 -22 -46 -37 -24 -9 -38 -42 -44 -13 -45 -3 0
59 63 45 65 60 33 48 -16 -62 -55 -29 -52 -53 -27 -38 0
45 22 39 69 31 25 46 55 49 52 54 24 66 41 6 38 4 48 29 20 7 58 -59 -14 -50 -63 -56 -17 -27 -43 -71 -47 -15 -37 -21 -44 -10 -64 0
32 65 53 5 26 20 51 3 28 35 49 37 2 39 46 -10 -31 -54 -1 -21 -44 -24 -30 -63 -64 -55 -67 -9 -58 -50 -6 0
52 69 19 53 32 25 68 44 47 63 57 33 56 61 5 9 50 24 26 31 8 13 59 65 10 71 11 35 67 29 40 -60 -28 -45 -38 -55 -46 -15 -42 -2 -4 -37 -16 -43 -64 -3 -54 -14 -58 -48 -66 -18 -51 -49 -39 -70 -34 -21 -22 -23 -17 0
2 22 28 31 38 64 46 52 7 47 23 71 17 12 49 1 39 14 15 20 57 25 9 40 -63 -41 -6 -30 -56 -26 -54 -27 -44 -51 -8 -43 -70 -10 -68 -29 -42 -45 -69 -18 -5 -13 -65 -62 -35 -58 -32 -37 -34 -53 -61 -60 -67 -16 -11 -50 -48 -59 0
64 31 9 17 63 13 -46 -71 -14 -42 -53 -38 -65 0
40 46 50 19 4 22 17 45 7 15 3 34 47 23 9 71 28 52 1 26 43 56 66 63 68 39 64 14 48 6 13 25 12 57 29 37 -30 -70 -65 -67 -11 -27 -60 -35 -53 -49 -59 -62 -5 -32 -41 -31 -16 -38 -24 -2 -42 -54 -33 -20 -44 -58 -61 -55 -51 -69 -8 0
12 32 8 59 25 66 46 -7 -64 -39 -56 -38 -31 -37 -18 -9 0
27 64 9 -7 -66 -5 -35 0
15 56 10 68 49 38 52 43 11 12 57 55 71 2 9 26 -16 -54 -53 -41 -5 -14 -59 -18 -25 0
34 54 21 42 13 65 55 -52 -31 -37 -51 -5 -19 -30 -45 -39 -43 -71 0
39 0
30 5 2 34 64 19 15 6 29 71 63 39 13 44 21 40 28 59 70 55 24 60 36 25 66 48 49 37 26 27 7 23 -67 -10 -46 -33 -57 -51 -22 -16 -41 -20 -69 -62 -54 -52 -4 -17 -58 -32 -43 -3 0
48 44 26 40 31 61 51 9 19 64 60 71 62 50 11 43 34 15 14 67 1 33 68 35 20 -66 -58 -24 -30 -8 -39 -32 -23 -3 -37 -46 -52 -38 -22 -63 -47 -21 -29 -45 -10 -54 -6 -5 -16 0
52 8 69 68 55 34 64 6 22 3 7 31 19 56 21 37 28 45 48 16 10 5 67 -44 -14 -41 -53 -38 -1 -61 -66 -58 -17 -24 -49 -4 -15 -35 -20 -47 -33 -9 -39 -60 -12 -32 -18 -27 -57 -30 -29 -71 0
10 60 37 28 41 -48 -44 -69 -50 -65 -40 0
66 0
63 6 36 32 66 15 39 9 13 16 49 52 -67 -43 -28 -35 -29 -40 -51 -31 -2 -8 -17 -38 0
49 3 63 40 22 16 46 4 6 25 2 36 48 19 64 54 71 10 7 15 35 37 70 31 24 26 65 66 11 -47 -5 -60 -68 -57 -28 -61 -59 -69 -52 -38 -23 -18 -41 -17 -33 -58 0
71 23 65 25 13 43 22 54 -20 -33 -4 -57 -8 -6 -59 -7 -15 -67 -36 0
17 29 18 9 30 37 15 35 36 34 52 38 -2 -58 -25 -21 -59 -32 0
70 1 19 25 15 54 7 43 6 69 12 8 16 51 9 66 29 52 56 3 22 44 61 63 27 42 2 48 23 53 -58 -24 -60 -55 -39 -17 -28 -34 -4 -45 -5 -46 -18 -50 -21 -30 -40 -26 -71 -14 -38 -10 0
71 25 10 57 4 12 60 53 24 38 40 66 -26 -61 -14 -32 -2 -68 -69 -47 -18 -62 -42 -46 -13 0
32 7 61 11 46 2 70 28 -49 -67 -14 -12 -24 -36 -43 0
35 69 19 60 62 47 26 57 18 63 39 14 59 42 25 1 21 11 -52 -45 -32 -41 -28 -7 -43 -23 -65 -3 -20 -37 -2 -6 -12 -13 -53 -10 -5 -4 -9 0
66 44 1 8 18 26 54 63 41 23 30 71 70 29 57 15 5 14 38 67 52 46 11 36 48 27 39 9 -64 -24 -25 -33 -16 -59 -37 -35 -17 -3 -22 -47 -56 -58 -12 -43 -32 -65 -60 -13 -7 -28 0
25 47 11 10 61 64 17 39 13 -15 -16 -42 -52 -12 -60 -6 0
38 54 41 49 -17 -69 0
47 67 16 65 46 42 21 20 8 11 39 23 54 12 -44 -48 -1 -27 -25 -5 -51 -58 0
1 25 66 70 27 57 3 19 16 52 53 14 12 68 13 44 37 4 23 46 33 15 -6 -7 -26 -54 -24 -17 -64 -71 -29 -8 -35 -47 -36 -40 -31 -43 -10 -63 -61 0
71 18 2 32 48 68 57 27 62 49 45 10 24 55 35 14 16 17 41 47 64 37 43 22 6 59 36 40 -13 -3 -66 -54 -63 -67 -33 -52 -5 -4 -9 -34 -39 -1 -28 -15 -44 -30 -46 -23 -53 -69 -50 -8 -21 -70 -25 -65 -38 -20 -58 -12 0
38 50 47 46 6 9 57 49 15 45 40 2 5 24 13 54 67 28 -11 -18 -8 -33 -14 -37 -29 -55 -19 -68 -25 -12 -16 -65 -52 -58 -70 -20 0
27 5 9 2 30 20 62 40 29 38 21 57 52 51 39 15 61 55 35 67 1 3 65 23 6 45 36 16 -56 -48 -68 -69 -42 -10 -14 -32 -7 -66 -49 -8 -70 -60 -28 -11 -41 -53 -34 -47 -19 -33 -12 -13 -58 -22 -17 -18 -31 -44 -24 0
43 17 62 37 2 55 8 56 10 51 57 30 36 20 65 19 48 7 32 46 26 34 18 25 31 53 39 1 -9 -52 -50 -70 -12 -28 -59 -6 -61 -4 -45 -22 -58 -13 -60 -29 -64 -42 -15 -69 -41 -63 -23 -38 -49 -11 -5 -67 -66 -35 -27 -71 -44 -40 0
69 71 64 56 11 5 49 43 15 68 45 46 31 42 40 33 -48 -17 -62 -10 -21 -24 -67 -14 -2 -66 -36 -61 -34 -6 -23 -39 -57 -38 -4 -8 0
45 43 57 12 37 50 49 2 52 54 62 53 42 7 -15 -56 -4 -29 -67 -71 -44 -41 -18 -35 -28 -59 -64 -34 -26 -58 0
11 57 34 54 21 2 46 33 32 6 69 7 49 5 8 17 71 55 1 53 66 27 15 62 58 -18 -59 -29 -4 -22 -63 -67 -24 -26 -41 -56 -50 -42 -65 -28 -13 -43 -35 -30 -12 -39 -31 -64 -36 -25 -20 -60 -10 -52 -16 -37 -44 0
8 58 62 66 44 52 29 -47 -15 -14 -25 -24 -30 -65 -35 -20 -7 -50 -16 -53 -67 -21 -59 0
6 28 38 17 16 60 30 67 49 57 62 19 64 24 3 15 61 65 69 43 58 7 40 70 45 25 -9 -48 -12 -21 -26 -36 -34 -63 -22 -56 -41 -8 -13 -10 -1 -50 -2 -27 -29 -4 -37 -44 -54 -47 -66 -35 0
-41 -42 -47 0
69 63 57 21 10 38 42 39 67 7 34 17 13 44 52 5 64 15 65 6 25 18 61 8 16 9 48 27 47 41 36 12 -31 -45 -51 -14 -2 -1 -50 -37 -59 -62 -28 -32 -53 -68 -55 -46 -29 -40 -4 -49 -24 -56 -23 -26 -35 -11 -70 -71 -22 -3 -30 -19 -20 -43 0
67 47 12 23 28 45 6 68 27 71 24 61 35 64 39 26 8 30 50 57 43 34 70 20 60 46 52 38 14 37 49 36 44 1 9 -2 -40 -3 -7 -51 -33 -25 -69 -10 -58 -22 -66 -55 -17 -62 -13 -63 -19 -41 -32 -65 -4 -56 -42 -48 -15 -53 -54 -21 -16 -29 -31 -11 -18 -5 0
31 69 34 64 19 40 14 43 53 44 24 20 16 23 4 65 61 -7 -10 -3 -2 -52 -30 -49 -46 -67 -68 -35 -5 -11 -45 -21 -60 -51 -32 0
50 52 47 46 11 39 -61 -51 -33 -63 -4 -58 0
45 41 54 11 -57 -31 -66 -69 -40 -15 0
21 66 51 25 42 23 48 30 8 52 41 45 46 7 65 54 40 55 71 34 47 11 63 59 5 9 70 10 37 -31 -27 -13 -32 -20 -12 -62 -18 -36 -3 -19 -1 -28 -60 -64 -33 -2 -53 -56 -67 -22 0
42 -56 -8 -2 0
36 49 63 61 37 69 66 3 24 17 7 38 58 27 68 59 25 39 14 46 70 55 41 56 52 51 30 47 57 64 18 34 48 -53 -50 -31 -4 -13 -5 -29 -2 -6 -35 -32 -19 -9 -60 -33 -67 -15 -43 -26 -54 -20 -71 -1 -28 -16 -21 -8 -42 -40 0
30 31 63 61 32 15 18 9 38 12 68 56 -22 -70 -13 -71 -46 -14 -7 -24 -17 -65 -4 -3 -35 -53 0
9 37 13 47 -41 -70 -15 0
2 8 49 23 54 40 6 25 65 33 70 32 24 18 20 -59 -22 -47 -46 -45 -67 -5 -71 -39 -50 -1 -14 -58 -9 -38 -7 0
12 59 1 66 40 27 58 53 33 -23 -22 -20 0
3 51 69 10 20 71 46 50 35 45 65 64 36 55 30 4 37 7 27 15 -59 -11 -26 -53 -39 -34 -2 -58 -21 -41 -1 -32 -40 -33 -16 -67 -28 -66 -61 -18 0
37 6 59 65 64 39 18 20 34 14 28 13 63 2 3 30 47 26 -44 -23 -55 -51 -54 -41 -52 -1 -66 -43 -49 0
56 0
8 56 2 12 60 11 70 37 50 22 38 68 51 47 18 61 21 39 49 55 25 36 10 17 42 33 54 7 19 6 64 46 29 -3 -35 -27 -5 -16 -23 -32 -15 -44 -1 -40 -62 -57 -4 -26 -65 -48 -30 -66 -69 -13 -52 -14 -67 -9 -71 -24 -58 -41 -34 -45 -28 0
21 32 24 49 29 37 68 61 8 59 26 7 15 35 60 65 20 2 43 39 46 33 -12 -42 -62 -45 -48 -1 -3 -25 -31 0
2 11 54 64 24 13 29 62 57 6 30 48 33 1 43 38 25 71 42 -31 -44 -3 -35 -59 -39 -41 -15 -9 -58 -52 -46 -27 -37 -19 -14 -53 -16 0
28 61 68 51 13 59 46 42 -66 -16 -49 -9 -5 -3 -44 -53 -64 -35 -41 0
58 33 69 63 8 46 35 1 40 51 -60 -62 -29 -61 -67 -37 -6 0
24 32 25 41 7 19 53 63 43 16 44 20 2 49 14 -66 -18 -9 -33 -1 -17 -58 -8 -54 0
38 60 42 50 29 67 47 31 11 69 70 35 25 -14 -13 -44 -32 -39 -27 -34 -4 -10 -24 -48 -30 -36 -41 0
9 60 28 31 17 53 13 44 48 24 69 34 27 19 43 29 30 5 47 41 42 71 -20 -3 -62 -25 -55 -39 -15 -70 -1 -61 -65 -37 -4 -68 -67 -58 -32 -50 -2 -52 -12 -45 -57 -22 -8 -26 -21 -40 -54 -59 -18 -66 -46 -6 -56 -14 -35 0
19 29 58 8 1 5 3 4 34 12 13 55 68 52 36 2 46 37 16 57 59 62 -28 -42 -39 -9 -17 -24 -45 -21 -32 -71 -47 -10 -25 -26 -22 -38 -61 -44 -53 -35 -6 0
42 57 7 53 -52 -20 -23 0
47 39 13 50 48 49 26 69 64 40 71 70 27 9 52 45 6 33 30 24 1 7 61 23 2 -62 -66 -37 -35 -15 -44 -22 -5 -53 -46 -54 -14 -43 -8 -42 -32 -68 -65 -31 -63 -36 -17 -12 -10 0
12 21 37 28 2 60 67 30 50 52 26 34 68 -1 -51 -55 -32 -53 -48 -23 -70 -29 -39 -17 -42 -25 -71 0
5 47 31 11 14 2 27 35 30 51 12 6 22 70 10 40 26 61 43 48 63 45 28 -62 -25 -58 -54 -59 -67 -8 -68 -57 -42 -56 -23 -15 -53 -18 -46 -3 -16 -9 -41 -38 -64 -19 -44 -36 -34 -21 -1 -49 -37 -4 0
33 48 29 26 5 4 55 10 1 46 44 30 16 24 3 65 15 6 41 28 8 13 19 63 47 64 57 31 20 53 66 42 18 54 22 -11 -58 -17 -9 -62 -52 -12 -70 -50 -36 -32 -37 -49 -23 -61 -21 -38 -7 -39 -59 -14 -51 -69 -25 -68 -34 -27 -43 -60 -40 0
39 20 2 -66 -21 -6 -63 -42 0
61 -37 -55 0
37 48 43 49 66 17 60 9 16 59 -70 -6 -1 -20 -35 -30 -25 -47 -64 -2 0
7 17 26 66 54 61 50 -18 -70 -23 -68 -36 -60 -63 0
17 8 61 55 71 38 12 45 27 50 4 33 51 68 43 67 60 30 29 37 39 44 40 46 32 -1 -48 -23 -57 -47 -20 -24 -21 -62 -16 -22 -42 -11 -3 -18 -7 -41 -5 -56 -65 -66 -2 -9 -64 -28 -25 -54 -15 -13 -35 -69 -58 -19 -14 0
10 22 -3 -52 0
32 55 59 44 54 60 71 28 45 58 47 29 39 22 -17 -4 -27 -51 -11 -64 -15 -23 -36 -62 -52 -16 -18 -46 -21 -5 -10 0
37 27 18 69 28 71 66 63 2 56 50 8 39 15 30 36 -11 -4 -24 -38 -32 -3 -6 -62 -47 -46 -61 -54 -10 -13 -51 -14 -48 -9 -5 -45 -17 0
-6 -41 0
42 22 57 47 2 19 6 41 5 66 -44 -64 -63 -53 -58 -25 -28 -38 -62 -31 -1 -17 -39 0
15 60 58 66 -7 -48 -34 0
28 14 69 24 37 7 13 8 61 54 27 2 65 26 31 17 10 34 21 64 48 33 6 60 45 55 51 38 52 58 18 -19 -43 -15 -25 -30 -20 -23 -12 -39 -9 -11 -16 -70 -29 -41 -4 -71 -62 -42 -35 -1 -53 -36 -40 -67 -5 -22 -44 -66 -63 -32 -46 -57 0
28 56 51 45 7 35 69 17 34 41 10 16 46 2 58 9 71 1 -67 -64 -59 -21 -20 -30 -60 -48 -43 0
31 69 17 15 50 64 10 25 30 24 51 8 46 18 19 4 44 55 53 43 11 41 35 48 57 26 22 45 32 61 29 62 -3 -2 -52 -37 -34 -56 -67 -68 -5 -12 -16 -66 -59 -70 -7 -36 -33 -60 -1 -47 -14 0
30 28 31 66 24 68 35 62 -60 -44 -1 -27 -69 -39 0
47 62 53 13 24 17 48 66 21 12 51 -11 -59 -25 -2 -52 -8 -28 -57 -22 -10 -65 -26 -18 -58 -63 -55 -9 -6 0
36 66 24 25 21 46 29 2 68 17 6 32 42 4 53 13 56 65 44 22 60 26 30 10 31 52 23 11 12 49 3 71 -69 -45 -47 -1 -28 -14 -51 -64 -48 -67 -27 -34 -50 -35 -20 -18 -16 -62 -7 -43 -70 -19 -40 -9 -5 -37 -61 -57 -41 -59 -38 -55 -8 -33 -15 -39 -54 -58 0
36 17 23 54 6 68 46 19 20 7 43 64 50 10 24 49 1 8 5 11 9 -27 -15 -37 -69 -63 -28 -52 -62 -34 -26 0
10 35 13 69 57 19 66 34 9 3 33 24 22 62 -29 -6 -18 -52 -1 -47 -54 -28 -11 -7 -37 -60 -4 -56 -43 -70 -67 -48 -51 -17 -63 -49 -64 -8 -12 -23 -38 -14 -31 -39 0
59 27 3 44 29 71 22 26 15 14 6 38 35 64 19 -40 -58 -39 -4 -24 -63 -42 -1 -51 -18 0
19 48 9 70 25 37 64 54 14 44 34 41 65 68 7 51 16 39 5 42 36 52 30 38 60 6 35 33 31 59 62 -13 -26 -53 -11 -15 -50 -56 -2 -8 -17 -21 -40 -45 -66 -69 -63 -20 -24 -55 -58 -46 -29 -4 -10 -22 -23 -12 -61 -32 0
67 3 64 21 63 24 9 27 44 57 16 60 -20 -68 -45 -29 -10 0
50 65 2 70 39 8 22 68 6 -11 -41 -25 -31 -20 -18 -13 -5 -57 -37 -59 -58 0
33 58 14 16 2 70 51 31 39 -20 -17 -15 -22 -10 -66 -9 -11 -43 -60 -48 -64 -68 -35 -27 0
59 10 56 65 53 43 29 37 6 -44 -51 -3 -27 -39 -30 -41 -25 -21 -61 -45 -18 -57 -32 0
7 14 63 46 55 29 65 40 34 47 -12 -35 -58 -28 -53 -2 -10 -22 -5 -9 0
5 37 62 65 18 41 19 9 28 40 52 43 63 38 14 56 8 20 61 25 71 21 50 26 -48 -46 -33 -17 -44 -23 -15 -57 -16 -7 -12 -22 -49 -36 -4 -2 -42 -1 -67 -53 -3 -13 -69 0
28 22 9 23 67 51 55 15 69 49 17 56 64 40 21 61 5 32 19 70 48 39 -71 -4 -36 -31 -37 -66 -13 -33 -59 -45 -14 -46 -62 -65 -47 -38 -68 -26 -41 -8 -44 -58 -60 -1 -16 -57 0
49 23 39 11 33 22 54 20 5 21 12 42 61 16 14 58 62 67 43 24 1 36 40 64 -63 -70 -28 -41 -71 -38 -18 -2 -32 -37 -45 -6 -26 -31 -51 -3 -60 -48 -47 -44 -7 -34 -69 -35 -13 0
42 40 68 19 9 46 26 8 17 15 62 23 -20 -6 -60 -31 -47 -67 -53 -13 -41 -52 -59 0
34 64 1 27 63 4 47 37 2 66 40 20 36 46 23 42 71 43 58 8 69 59 65 26 39 16 5 19 -32 -13 -7 -3 -25 -17 -18 -24 -62 -51 -68 -52 -53 -21 -55 -35 -60 -48 -12 -45 -29 -9 -57 -11 -6 -15 -14 -10 -56 -38 -70 -49 0
17 6 7 21 3 26 38 65 1 4 60 54 64 52 53 40 -58 -32 -43 -41 -46 -30 -31 -59 -10 -61 -44 -24 -55 -16 -45 -23 0
25 14 46 67 13 48 55 52 23 -37 -15 -34 -11 -50 -30 -40 -32 -65 0
45 12 38 53 5 19 15 65 17 18 55 52 58 10 16 64 25 71 4 41 54 28 66 3 56 20 29 33 49 -6 -35 -36 -40 -69 -7 -23 -68 -44 -22 -63 -47 -32 -13 -62 -1 -30 -9 -34 -57 -50 -42 -14 -2 -61 -21 -67 -24 0
57 17 47 24 33 60 22 15 69 64 32 20 37 16 1 25 51 29 26 3 70 27 -48 -10 -7 -2 -59 -9 -45 -53 -52 -21 -61 -38 -63 -44 -58 -56 -31 -68 -11 -40 -42 -4 -49 -39 -41 -14 -28 -65 -30 -50 -35 -66 0
46 7 42 41 1 66 31 19 29 22 -18 -39 -56 -70 -61 -51 -34 -24 -28 0
59 5 44 10 32 3 34 40 62 70 48 28 37 19 7 11 27 65 21 35 4 38 49 9 8 60 1 25 -39 -36 -55 -15 -67 -66 -58 -20 -54 -46 -43 -52 -47 -16 -51 -41 -22 -69 -23 -17 -53 -18 -13 -64 -30 -6 0
48 12 25 64 5 16 51 28 49 47 26 38 13 56 31 29 14 30 67 4 8 11 54 59 6 45 24 -69 -68 -63 -36 -65 -39 -18 -61 -33 -42 -27 -70 -34 -17 -7 -46 -3 -55 0
54 36 64 41 28 44 71 56 14 31 35 38 25 58 19 57 13 10 49 -16 -65 -40 -26 -63 -17 -12 -11 -29 -43 -70 -24 -45 -53 -55 -68 -46 -50 -6 0
55 70 12 58 68 13 60 16 35 57 25 5 21 52 31 56 45 30 29 1 9 36 -50 -34 -47 -39 -4 -6 -22 -49 -48 -20 -3 -67 -23 -14 -26 -69 -33 -32 -43 -44 -17 -71 -40 -62 -65 -66 -27 -28 -24 -41 -18 -37 -61 0
69 67 66 57 3 19 40 62 4 26 58 45 17 15 39 59 21 -37 -41 -38 -42 -25 -63 -51 -6 -29 -64 -14 -22 -16 -50 -65 -55 -53 -56 -54 -23 -35 0
37 0
57 18 49 35 21 13 56 9 30 38 62 44 48 14 39 19 29 31 -28 -10 -8 -55 -17 -64 -12 -45 -47 -15 -66 -11 -34 -27 -42 -16 -32 -50 -24 -3 -53 -69 -65 -5 -4 -59 -61 -58 -26 -46 -60 0
17 6 65 38 39 36 47 22 9 45 53 5 64 40 1 31 37 51 59 25 61 7 67 71 57 48 13 34 63 30 33 62 32 69 -14 -27 -4 -3 -35 -52 -56 -12 -68 -19 -26 -21 -20 -44 -8 -55 -70 -10 -41 -58 -18 -15 -23 -60 -46 -16 -50 -11 0
66 31 14 38 67 42 24 27 48 59 53 55 68 37 71 26 61 11 34 43 28 23 32 44 56 4 12 13 52 -9 -58 -10 -49 -35 -64 -39 -15 -18 -8 -65 -57 -51 -7 -21 -25 -17 -63 -30 -22 -6 -2 -16 -29 -40 -1 -60 -20 -50 0
36 41 54 71 2 22 24 27 13 61 35 68 23 40 10 70 6 34 47 51 58 65 64 66 15 44 48 67 46 39 32 19 50 1 29 9 57 43 69 -11 -30 -3 -56 -4 -59 -5 -26 -55 -12 -20 -16 -62 -53 -60 -14 -8 -31 -21 -63 -49 -42 -17 -33 -25 0
40 1 45 47 39 51 8 4 64 38 17 66 27 32 -25 -36 -53 -41 -22 -20 -68 -55 -31 -23 -12 -26 -60 -43 -16 0
52 2 13 49 46 71 9 60 19 62 57 33 12 40 26 17 50 -16 -58 -41 -23 -10 -59 -42 -61 -67 -65 -66 -44 0
36 63 34 52 15 69 16 44 40 17 58 35 53 41 2 60 11 55 30 48 28 4 50 26 14 19 -51 -23 -47 -64 -62 -56 -39 -12 -3 -8 -42 -67 -54 -32 -61 -71 -1 -45 -18 0
36 16 61 41 10 5 42 47 71 52 68 7 4 38 49 70 44 13 45 53 -22 -6 -64 -35 -3 -9 -69 -8 -31 -18 -11 -24 -58 -46 -26 -2 -59 -54 -19 -50 -51 -56 -37 -21 -65 -57 -27 -20 -55 -40 -25 -34 -28 0
3 32 8 66 23 44 60 58 59 39 26 16 36 71 62 30 6 17 5 20 -38 -24 -51 -47 -4 -28 -13 -57 -67 -34 -49 -63 -18 -64 -2 -19 -12 -53 -69 -42 -40 -46 -10 -56 0
38 4 41 8 70 5 44 23 9 -45 -42 -24 -53 -33 -60 -57 0
12 15 19 21 -71 -39 0
47 68 69 31 46 62 23 26 18 16 10 43 27 25 7 1 70 -41 -36 -39 -52 -14 -65 -9 -67 -40 -21 -66 0
45 62 23 68 57 64 9 2 53 25 54 7 59 32 51 -13 -20 -58 -36 -17 -39 -31 -27 -55 -44 -21 -3 -49 -33 -1 -46 -35 -19 0
2 29 22 49 55 42 63 16 13 51 6 -1 -31 -54 -12 -27 -15 -11 -64 -61 -38 -36 -14 -40 -3 -44 0
33 29 31 7 46 57 11 26 69 21 48 65 1 2 4 52 64 45 42 30 66 10 41 59 32 24 -44 -28 -18 -56 -36 -62 -20 -53 -13 -40 -71 -34 -12 -19 -37 -68 -6 -22 -67 -54 -39 -51 -27 -8 -25 0
6 20 64 30 44 49 71 8 15 29 57 58 63 70 41 34 43 40 45 53 -69 -27 -56 -1 -33 -62 -7 -19 -48 -36 -39 -16 -51 0
23 2 11 22 20 12 1 56 69 33 46 60 62 28 8 16 48 31 -66 -4 -61 -63 -59 -47 -6 -51 -49 -52 -70 -68 -32 -40 -25 -43 -55 -38 -17 -10 -39 -34 0
61 -54 -43 -63 -15 0
28 25 11 18 44 -49 -48 -27 -40 0
49 40 17 7 12 67 46 43 56 30 36 9 54 71 60 31 -16 -19 -4 -45 -33 -41 -65 -25 -1 -68 -42 -22 -18 -66 0
37 54 60 40 65 49 24 7 6 46 4 30 11 31 43 45 64 -1 -35 -20 -23 -25 -12 -2 -13 -22 -9 -59 -41 -51 -33 -19 -66 -27 -36 -42 -10 -5 -55 -44 -18 -50 -29 -14 0
10 66 63 5 69 11 58 34 23 35 28 53 48 21 43 18 45 4 70 25 44 60 -49 -55 -32 -42 -8 -64 -40 -59 -19 -13 -46 -12 -20 -67 -1 -38 -62 -2 -61 -9 0
34 60 19 57 6 15 37 36 5 65 45 11 26 2 13 51 3 39 46 38 22 71 18 50 14 47 -69 -7 -17 -20 -31 -55 -24 -66 -27 -10 -41 -8 -43 -64 -62 -40 -4 -63 -52 -44 -58 -16 -29 -23 -61 0
68 67 44 64 12 32 40 20 11 13 53 52 70 50 60 48 19 51 66 24 8 3 56 71 1 9 46 28 6 63 65 15 -61 -23 -62 -26 -42 -27 -5 -10 -37 -30 -29 -69 -58 -43 -55 -22 -31 -54 -4 -14 -36 -47 -45 -41 -39 -38 -18 0
59 11 28 60 7 38 32 19 6 26 45 5 54 61 64 -4 -49 -3 -31 -37 -71 -27 -63 -22 -39 -35 -16 -43 -47 -20 -9 -34 -50 -13 -57 -53 -68 -52 -62 -67 -18 0
16 13 3 23 62 50 26 38 55 66 68 12 36 -70 -61 -45 -56 -44 -7 -32 -25 -52 -53 -40 -14 -8 -10 -4 -64 -67 -58 -17 -20 -18 -9 -47 -2 -59 0
43 58 51 10 30 26 13 19 61 39 17 34 25 60 54 16 46 49 66 62 28 65 50 70 14 53 48 64 56 5 47 63 55 -11 -68 -27 -37 -32 -31 -42 -22 -57 -38 -24 -1 -3 -71 -52 -67 -45 -35 -29 -36 -23 -33 -12 -7 -15 -8 -40 -6 -20 -18 -9 -69 -2 -41 -59 -44 0
62 47 21 13 41 -44 -10 -11 -54 -40 -56 -58 0
32 38 4 66 6 64 10 40 51 46 41 11 55 19 61 27 -48 -71 -36 -8 -7 -35 -26 -70 -68 -25 -63 -28 -54 -69 -37 -1 -67 -18 -42 -60 0
38 25 35 55 5 62 8 3 12 57 11 2 44 64 45 68 30 -56 -4 -6 -46 -14 -71 -40 -20 -22 -19 -63 -23 -17 -67 0
35 5 54 14 8 -1 -2 -62 -9 -24 -69 -17 -48 -55 -38 -70 0
41 3 52 2 9 42 30 59 5 23 28 64 51 61 39 47 6 70 11 -18 -8 -27 -54 -49 -26 -7 -19 -55 -14 -44 -69 -31 -12 -36 -62 -32 -68 -50 -1 -60 -56 -38 -34 -53 -35 0
12 54 55 19 37 9 52 69 23 70 27 71 42 59 61 48 50 62 35 63 22 8 6 64 -2 -47 -46 -68 -18 -26 -7 -67 -57 -15 -28 -14 -40 -21 -58 -51 -44 -16 -24 0
69 22 60 58 30 34 1 54 31 -67 -38 -66 -25 -36 -37 -35 -19 -55 0
5 60 59 8 49 36 68 12 41 44 30 27 21 2 54 58 62 33 63 67 11 29 19 18 55 43 1 52 -20 -35 -24 -53 -34 -14 -66 -9 -64 -69 -28 -4 -25 -26 -47 -50 -40 -15 -45 -61 -38 -32 -13 -48 -22 -23 -16 -57 -17 -31 -3 -39 -70 -71 -37 0
58 71 37 23 61 36 5 46 65 14 57 -17 -15 -24 -11 -1 -60 -25 -33 -34 -20 -41 -9 -18 -66 -68 -55 -6 -45 -28 -38 -63 -48 -21 -30 -52 -59 -53 -27 0
54 46 22 13 18 44 25 49 12 14 70 31 8 10 65 39 55 26 27 19 51 56 45 41 24 -53 -36 -61 -69 -2 -50 -6 -64 -63 -11 -35 -3 -71 -38 -68 -42 -40 -4 -17 -66 -43 -52 -48 -29 -37 -60 -5 -32 0
5 32 70 61 11 53 38 15 40 43 30 52 19 20 2 7 33 62 9 56 4 45 50 42 54 -3 -60 -8 -58 -29 -12 -63 -41 -17 -21 -49 -24 -71 -26 -34 -6 -48 -55 -1 -68 -47 -27 -46 -59 0
42 15 32 41 16 -47 -26 -61 -27 0
21 26 33 45 60 24 15 13 37 51 35 69 36 2 19 67 48 27 54 18 55 8 56 58 12 22 71 9 7 70 29 59 -38 -61 -11 -31 -57 -42 -50 -20 -25 -23 -10 -52 -41 -65 -43 -62 -39 -49 -1 -53 -44 -16 0
55 66 32 31 9 69 28 63 2 50 26 35 33 65 8 59 3 61 22 52 5 68 42 47 51 23 1 19 44 36 -60 -10 -70 -16 -45 -13 -15 -41 -53 -39 -24 -49 -57 -71 -6 -56 -17 0
47 27 38 24 35 15 9 53 21 12 66 44 55 23 56 18 31 37 36 8 22 54 2 49 17 29 46 26 63 69 68 16 62 -25 -10 -61 -13 -51 -34 -6 -70 -19 -33 -28 -59 -41 -4 -65 -43 -45 -11 -5 -32 -30 -67 -48 -64 -40 0
33 12 44 22 13 46 8 14 71 18 35 39 1 4 55 38 57 11 25 15 27 52 17 36 65 5 10 48 64 -42 -70 -66 -58 -31 -47 -28 -60 -40 -50 -26 -51 -2 -32 -45 -6 -21 -56 0
41 65 5 55 13 38 49 46 10 21 27 29 2 56 61 68 40 16 45 7 47 32 42 64 50 25 -30 -69 -53 -8 -28 -9 -71 -20 -67 -33 -54 -18 -3 -17 -4 -23 -52 -31 -24 -15 -6 -63 -44 -1 0
63 25 23 31 1 30 18 14 26 20 70 33 37 2 53 66 34 27 57 28 17 6 -43 -38 -40 -69 -50 -58 -41 -7 -46 -24 -19 -29 -15 0
28 31 37 11 19 63 30 45 53 33 -35 -7 -3 -62 -38 -14 -70 -22 -13 -51 -64 -67 -40 -29 -17 -52 -16 0
7 5 21 64 17 42 20 30 27 60 70 3 68 34 29 1 33 45 26 52 32 22 57 50 -43 -9 -65 -38 -56 -24 -41 -16 -53 -2 -19 -46 -44 -39 -47 -11 -35 -37 -49 -6 -8 -71 -12 -18 0
71 37 68 22 48 19 50 13 24 64 18 14 67 -66 -47 -10 -61 -53 -58 -5 -40 -69 -23 -65 -9 -28 -46 -62 -38 -7 -39 -31 -63 -11 0
53 49 22 9 46 59 25 1 21 33 29 42 -26 -71 -62 -70 -39 -37 -40 -67 -66 -2 -69 -45 -15 -43 -10 -5 -16 0
29 51 54 34 9 58 28 46 27 48 15 3 42 30 5 56 44 36 49 31 25 65 43 10 55 64 21 40 18 63 68 2 -47 -35 -37 -1 -32 -16 -8 -53 -7 -20 -61 -13 -62 -52 -6 -50 -23 -38 -41 -39 -26 -66 -69 -4 -17 -19 -71 -33 -24 -57 -12 -60 0
45 52 6 67 66 26 30 46 10 63 14 49 40 20 48 5 35 55 69 12 3 36 70 56 54 -16 -42 -51 -15 -37 -47 -2 -60 -32 -33 -9 -13 -68 -50 -44 -11 -8 -57 -58 -62 -23 -7 -17 0
54 38 22 17 14 45 65 4 39 69 5 31 26 50 53 61 56 41 62 48 42 67 51 47 57 7 1 -60 -34 -3 -18 -55 -27 -49 -66 -2 -19 -36 -8 -11 -40 -25 -9 -46 -28 -44 -63 -20 -35 -32 0
68 -47 -39 -44 0
46 30 69 50 27 38 36 8 29 15 -14 -31 -51 -47 -25 -24 -19 -63 -7 -4 -10 -16 0
1 21 43 8 14 45 12 57 67 30 7 32 63 51 40 31 64 15 65 28 23 56 -4 -2 -37 -42 -3 -27 -44 -29 -9 -11 -18 -5 -22 -48 -55 -52 -66 -69 -33 -38 -68 -61 -19 -10 -49 0
31 44 64 43 70 38 17 63 28 4 16 61 27 41 35 66 1 11 71 9 57 46 59 69 22 -45 -62 -48 -65 -34 -37 -5 -54 -39 -20 -47 -49 -33 -19 -42 -23 -25 -7 -55 -26 -68 -29 -67 -13 -15 -12 0
42 22 68 69 -31 -12 -14 -3 -41 -20 -33 -39 -53 -50 0
52 48 67 29 23 35 40 57 27 18 62 4 46 43 60 -25 -32 -55 -17 -5 -7 -6 -54 -1 -13 -65 -64 -47 -28 0
68 11 4 51 39 40 42 5 60 18 62 49 45 44 36 24 48 34 12 21 58 2 14 -52 -41 -19 -25 -10 -59 -66 -63 -57 -61 -55 -64 -46 -47 -56 -54 -26 -30 -13 0
59 65 12 35 31 37 20 52 3 63 -6 -56 -67 -40 -18 -53 -17 -69 -60 -54 -51 -29 0
10 1 59 25 53 41 47 24 15 40 23 46 -56 -69 -26 -52 0
22 44 55 49 53 58 19 26 23 63 47 67 45 -27 -9 -43 -25 -35 -28 -64 -31 -14 -33 -5 -41 -66 -30 0
60 42 2 38 -32 -54 -10 -46 -40 -3 -51 -66 0
26 14 56 18 49 9 3 34 5 16 36 69 17 1 51 20 30 25 6 28 71 -2 -60 -27 -45 -61 -58 -63 -23 -39 -55 -52 -48 -64 -7 -37 -54 -70 -24 -32 -8 0
12 35 11 24 7 38 58 56 17 63 33 66 4 10 -29 -59 -3 -22 -61 -52 -8 -65 -9 -51 -25 0
62 59 15 32 65 29 19 55 10 66 3 21 44 42 1 20 40 58 18 54 25 57 46 33 16 28 26 30 67 13 7 48 8 56 69 64 -60 -47 -34 -52 -2 -71 -68 -37 -41 -24 -38 -31 -53 -14 -5 -61 -12 -22 -11 -36 -50 -6 -45 -43 -39 -23 -9 -4 -51 -49 -63 -17 -70 0
49 57 15 35 47 22 46 70 13 38 28 26 41 30 63 40 11 43 21 29 16 -12 -39 -20 -62 -24 -64 -61 -69 -37 -17 -2 -67 -45 -23 -34 -31 0
65 -69 0
41 61 23 1 21 71 17 -40 -9 -54 -18 -7 -14 -60 -19 -52 -2 -8 -30 0
12 51 10 25 5 59 37 58 69 49 3 62 46 21 56 67 -60 -43 -36 -2 -9 -38 -33 -1 -8 -26 -39 -71 -14 -19 -4 -11 -28 -61 -47 -18 -52 -55 -64 0
40 48 14 31 25 12 36 23 9 32 57 64 37 56 21 45 17 19 -35 -7 -33 -2 -63 -50 -66 -49 -27 -22 -69 -53 -34 -67 0
41 65 70 56 21 61 16 -26 -4 -7 -19 -25 -35 -37 -30 -13 0
10 15 56 64 28 9 2 24 44 67 57 3 59 37 19 66 16 7 71 62 65 40 38 54 21 12 43 27 -49 -68 -18 -33 -55 -36 -8 -20 -32 -42 -13 -11 -47 -69 -6 -30 -52 -41 -22 -5 -50 -34 0
50 1 34 41 8 28 64 27 3 4 59 67 33 53 66 30 22 15 37 5 47 40 17 45 31 23 16 -61 -24 -12 -39 -32 -65 -20 -42 -62 -9 -60 -25 -68 -26 -44 -43 -71 -56 -48 -36 0
24 4 21 42 50 33 43 66 5 60 28 30 25 52 67 23 64 32 68 46 62 71 41 51 48 53 3 57 -19 -11 -44 -55 -9 -65 -29 -10 -36 -6 -1 -47 -31 -14 -12 -58 -37 -40 -15 -17 -18 -49 -26 -22 -59 -13 -35 -54 0
34 31 36 12 26 33 5 -24 -9 -45 0
50 61 33 23 57 40 10 45 70 65 67 2 1 52 68 25 69 36 11 60 18 63 4 15 58 20 35 9 -16 -62 -49 -56 -3 -12 -6 -19 -28 -44 -5 -32 -48 -47 -71 -42 -43 -34 -17 -59 -31 0
34 1 65 53 67 29 52 54 47 36 27 11 70 4 8 32 58 44 17 22 56 45 42 40 61 59 37 57 6 43 30 9 -35 -2 -5 -28 -64 -50 -38 -23 -63 -71 -13 -26 -66 -31 -60 -51 -62 -33 -24 -14 -46 -10 -68 -25 -16 -48 -15 -18 -21 -55 -12 0
29 45 25 14 65 8 59 57 22 37 62 2 15 63 24 26 33 1 61 5 50 68 12 19 53 39 -9 -23 -17 -13 -20 -47 -28 -27 -58 -40 -69 -55 -3 -66 -18 -32 -70 -67 -51 -11 -64 -31 -41 -60 -38 -48 -49 -10 -34 -36 -21 -43 -4 -6 -52 -46 -56 -42 -30 -44 -71 0
14 41 35 50 55 64 59 60 48 69 15 18 49 28 2 53 1 -10 -5 -32 -30 -52 -47 -6 -3 -61 -33 -12 -37 -21 -65 -42 -71 0
32 61 57 66 15 6 44 26 19 1 59 23 4 33 2 7 10 9 58 -34 -68 -60 -53 -64 -28 -48 -22 -38 -18 -35 -52 -16 -65 -47 -36 -69 -67 -8 -43 0
51 39 49 52 10 58 47 9 50 60 21 59 26 6 62 16 22 1 13 54 33 45 3 23 68 4 8 12 -42 -41 -46 -5 -53 -66 -24 -56 -18 -48 -65 -20 -32 -31 -44 -25 -27 -61 -69 -57 -15 -70 0
28 21 0
5 17 42 25 32 33 12 26 31 19 54 34 52 60 39 -41 -45 -65 -4 -7 -40 -43 -15 -62 -11 -23 -50 -1 -20 -36 0
50 57 39 36 49 17 62 71 9 42 54 12 44 51 67 58 -46 -20 -16 -32 -69 -25 -70 -53 -23 -6 -28 0
24 59 70 54 17 18 62 15 37 68 69 60 12 45 4 2 1 16 10 33 5 58 27 -61 -71 -23 -13 -48 -65 -9 -40 -3 -50 -55 -29 -46 -43 -53 -19 -6 -32 -30 -25 -31 -22 -11 -66 -44 -63 -7 -49 -57 -8 -67 -35 -14 0
5 3 27 22 17 6 57 67 55 69 -47 -34 -23 -35 -48 -30 -21 -66 -36 -32 -58 -20 -53 0
38 8 -46 -12 -19 -29 0
71 57 17 31 40 21 41 2 68 35 46 4 37 59 -32 -38 -26 -66 -48 -23 -52 -33 0
35 33 20 65 14 11 46 52 29 41 23 64 16 7 61 25 22 45 19 6 57 18 -62 -28 -48 -2 -58 -34 -56 -8 -13 -5 -68 -31 -63 -60 -21 -50 -30 -40 -70 -9 -24 -49 -4 -12 -26 0
21 58 35 65 41 64 40 17 38 34 47 52 33 69 39 56 12 44 32 27 57 23 60 10 66 36 20 7 4 29 19 -22 -59 -5 -46 -62 -2 -49 -45 -68 -50 -30 -25 -61 -6 -16 -13 -67 -55 -70 -11 -15 0
51 2 61 9 1 42 62 32 14 47 60 29 56 16 38 48 23 20 64 67 57 19 4 15 26 31 43 45 59 30 66 35 46 52 -27 -21 -7 -58 -25 -3 -50 -18 -34 -53 -28 -70 -69 -44 -5 -63 -55 -6 -37 -8 -41 -12 -11 -71 -10 -49 -22 -36 -17 -33 -54 0
41 52 49 60 5 19 12 37 8 50 57 61 28 25 -58 -35 -45 -39 -53 -27 -13 -43 -67 -66 -40 -1 -48 -17 -15 -56 -71 0
38 27 10 70 55 25 59 14 5 32 63 11 -39 -41 -48 -18 -50 -56 -7 -21 -3 -1 -20 -69 -35 0
20 50 59 38 67 58 26 29 2 5 6 32 54 37 28 65 55 8 57 7 44 71 43 11 19 40 16 41 3 48 47 49 -63 -15 -12 -56 -61 -14 -42 -27 -23 -66 -13 -1 -9 -45 -68 -31 -35 -34 -18 -51 -52 -10 -24 -60 -33 -69 -30 -25 -39 0
43 45 37 22 61 19 67 14 63 10 71 -1 -42 -51 -25 -70 -34 -53 -35 -69 -54 -62 -7 -3 -21 -59 -55 -46 -6 -13 -41 -27 -29 -26 -65 -38 -58 -4 0
3 41 29 30 71 37 63 28 38 45 49 67 26 7 56 58 12 1 34 15 9 16 68 61 48 2 25 54 53 66 17 55 4 40 27 11 70 47 18 -21 -32 -10 -13 -8 -51 -35 -23 -59 -24 -43 -5 -52 -33 -60 -39 -62 -50 -36 -57 -14 -69 -46 -64 -31 -22 0
59 9 5 39 61 20 70 -68 -6 -12 -54 -63 -42 -23 -19 -55 -18 -69 -48 -41 -47 -49 -67 0
15 22 13 59 29 41 64 12 49 68 45 46 20 70 34 25 36 55 42 71 14 1 37 17 50 61 19 43 40 54 -23 -9 -60 -27 -4 -2 -8 -38 -21 -32 -28 -65 -51 -11 -56 -52 -18 -62 -58 -33 -67 -57 -53 -63 -66 -39 -48 -24 -44 -69 0
30 49 63 6 40 37 34 4 38 5 64 56 11 42 46 3 60 41 48 52 -28 -67 -57 -2 -70 -39 -44 -66 -55 -25 -50 -54 -58 -27 -13 -22 0
70 49 28 64 3 6 61 17 45 23 35 -24 -27 -29 -15 -5 -40 -33 -25 -38 -50 0
64 62 53 63 29 50 57 20 30 55 70 4 44 10 42 21 6 34 -43 -56 -32 -39 -54 -9 -49 -69 -51 -8 -46 -40 -23 -65 -38 -28 -52 -67 -33 -24 -16 0
32 23 51 -38 -44 0
12 40 65 20 -71 -70 -60 0
31 48 12 13 66 70 67 50 59 51 42 3 60 71 29 24 -32 -36 -40 -47 -14 -17 -56 -22 -27 -23 -1 -43 -34 -53 0
65 32 1 13 42 58 35 8 66 29 17 26 39 50 47 18 70 21 41 20 30 38 5 22 69 25 55 33 60 34 3 45 -44 -24 -16 -59 -28 -15 -40 -37 -43 -31 -14 -9 -46 -7 -48 -23 -12 -54 -53 -52 -51 -49 -63 -61 -68 -57 -64 -6 -71 -4 0
43 45 49 41 14 39 35 13 65 29 21 48 64 2 8 55 12 26 28 42 31 22 53 24 38 4 17 56 58 11 25 60 -16 -6 -32 -40 -1 -68 -5 -71 -44 -15 -20 -27 -63 -33 -61 -36 -19 -23 -66 -3 -62 -7 -30 -37 -57 -70 -9 -52 -54 0
17 36 48 53 21 23 54 56 22 32 62 64 49 43 71 13 29 -46 -16 -40 -15 -6 -11 -67 -61 -27 -47 -20 -30 -59 -52 -26 -31 -1 -8 -39 -2 -12 -14 -19 0
25 58 55 30 13 4 35 42 29 22 5 59 52 48 16 60 2 20 37 54 50 36 61 11 62 67 19 46 -34 -39 -14 -27 -45 -40 -10 -28 -57 -69 -23 -17 -44 -1 -53 -63 -49 -32 -38 -9 -43 -31 -66 -65 -51 -47 0
34 57 3 24 64 45 37 4 -48 -14 -15 -43 0
43 35 68 54 56 42 55 49 62 10 66 31 -3 -61 -2 -46 -64 -17 -25 -6 -32 -58 -23 -8 -47 -1 -52 -29 -22 -7 -5 0
5 21 7 30 41 12 11 71 54 66 9 39 8 24 6 18 35 42 23 44 60 27 43 28 -36 -67 -64 -69 -50 -65 -56 -59 -31 -25 -57 -38 -58 -14 -70 -26 -32 -61 -51 -2 -49 0
54 42 46 9 24 49 58 22 51 12 43 44 65 18 37 26 31 -55 -41 -1 -34 -68 -16 -63 -48 -6 -14 -33 -47 -25 -32 -29 -19 -27 -23 -4 -15 0
63 52 6 54 61 17 27 53 14 57 49 46 18 7 11 20 21 58 67 15 43 30 45 56 23 -28 -25 -31 -22 -62 -68 -5 -51 -10 -3 -44 -8 -36 -41 -70 -64 -40 -59 -26 -35 -37 -1 -16 -34 -39 -69 -9 -47 -2 -50 -29 -60 -48 -12 0
38 17 52 7 23 65 36 63 24 5 42 51 48 10 49 33 26 25 -30 -31 -22 -12 -57 -9 -67 -3 -27 -4 -11 -62 -13 -35 -19 -47 -55 -43 -56 -39 0
57 32 59 15 33 39 6 8 69 -30 -35 -46 -71 -65 -45 -44 -52 -4 -49 -56 -27 -38 -37 -41 0
23 66 49 52 65 13 53 17 27 58 63 33 15 71 57 48 42 8 7 32 19 34 44 39 14 16 -62 -51 -46 -43 -21 -67 -55 -25 -18 -9 -70 -37 -61 -47 -41 -31 -38 0
58 62 51 50 52 2 14 42 47 53 11 36 8 -38 -69 -64 -26 -7 -35 -70 -24 -34 -29 0
17 12 65 -66 -14 -56 -52 0
41 8 42 17 32 43 18 1 11 25 35 4 65 28 26 57 15 52 24 2 50 53 20 69 31 44 29 37 23 47 71 64 56 39 45 -36 -40 -34 -3 -14 -61 -51 -55 -63 -5 -16 -59 -27 -49 -21 -19 -6 -62 -12 -22 -13 -10 -67 -33 -7 -60 -68 -38 -46 -66 -48 -70 -58 -30 -9 0
66 16 65 69 47 7 56 18 58 6 59 14 26 49 45 43 24 20 42 1 38 8 57 36 28 12 68 11 41 51 3 -23 -17 -21 -9 -30 -46 -63 -70 -54 -25 -19 -61 -5 -52 -53 -34 -29 -32 -48 -13 -40 -50 -37 -31 -10 -44 -4 0
33 36 29 6 52 71 7 50 60 10 47 69 8 66 64 53 25 39 5 41 27 70 68 3 17 62 44 37 -38 -54 -42 -58 -14 -9 -46 -21 -24 -57 -61 -11 -16 -67 -15 -31 -56 -49 -18 -23 -2 -26 -19 -40 -45 -55 0
10 30 2 35 23 29 24 26 4 41 1 65 6 63 56 21 66 31 16 25 12 69 7 19 42 67 28 70 17 62 33 15 18 60 71 34 -58 -46 -44 -39 -40 -55 -45 -5 -43 -27 -57 -51 -14 -32 -64 -68 -13 -38 -49 -9 -20 -59 -48 -54 -3 -47 -52 -61 0
38 46 58 3 50 37 30 16 51 1 11 22 -5 -54 -25 -47 -2 0
51 18 49 22 57 59 63 37 20 60 16 28 45 10 8 41 19 55 70 9 17 61 -34 -5 -15 -6 -35 -25 -53 -14 -24 -48 -65 -12 -30 -11 -33 -27 -69 -44 -64 -66 -71 -26 -32 -1 -39 0
59 33 -11 0
12 -28 -58 -6 0
14 61 3 45 13 6 1 -71 -66 -70 -54 -24 -52 -5 -31 -10 0
48 46 17 10 64 23 50 15 18 36 33 61 9 69 35 1 28 30 37 26 25 14 11 55 21 54 -5 -4 -53 -20 -70 -24 -22 -40 -65 -31 -52 -71 -62 -68 -12 -43 -66 -56 -29 -45 0
25 23 50 46 56 4 61 1 18 2 20 10 30 31 32 42 22 71 21 28 70 12 39 19 13 40 38 48 69 26 35 -7 -64 -66 -44 -59 -60 -53 -34 -9 -68 -41 -49 -55 -57 -43 -29 -65 -17 -36 -54 -8 -47 0
55 65 56 46 47 11 17 2 50 3 59 61 13 10 62 29 41 70 42 67 4 33 60 31 71 52 8 25 53 -36 -16 -14 -45 -58 -7 -19 -63 -43 -34 -24 -15 -30 -12 -27 -38 -28 0
41 5 45 44 60 58 28 70 11 52 46 22 40 34 29 62 71 63 4 26 17 8 43 -66 -53 -51 -32 -16 -38 -21 -27 -65 -6 -31 -54 -18 0
5 39 47 20 -15 -7 -66 -6 0
56 24 1 60 15 16 52 8 70 10 9 18 57 7 5 55 28 59 61 41 3 26 -29 -21 -51 -48 -35 -67 -23 -2 -19 -22 -13 -62 -64 -37 -14 -31 -50 -34 -53 -33 -44 -30 -32 -17 0
24 54 37 60 30 41 58 36 44 13 20 55 33 59 40 63 67 31 43 7 8 49 11 28 46 61 50 21 47 34 18 32 56 -69 -48 -3 -26 -51 -68 -16 -57 -70 -29 -14 -35 -71 -1 -38 -65 -2 -6 -52 -42 -22 -39 0
50 53 18 51 71 9 36 22 67 -4 -32 -6 -63 -10 -30 -52 -21 -33 -17 -11 -23 -59 0
2 61 9 1 22 3 66 24 49 39 35 11 51 20 19 17 31 68 25 48 41 53 26 57 50 15 8 62 70 43 7 -4 -32 -47 -60 -42 -71 -58 -34 -37 -10 -46 -59 -30 -13 -12 -54 -18 -5 -29 -28 -6 -67 -55 -44 -23 -63 -38 -56 -14 -33 -65 -64 -27 -16 -21 -40 -45 -36 -52 0
62 1 47 66 -42 -18 -34 -8 -5 -48 -55 -45 -70 -67 0
48 12 71 36 3 6 70 29 21 52 56 -41 -54 -42 -38 -57 -2 -15 -35 -25 -40 -43 0
17 35 32 4 31 48 41 8 49 67 14 42 2 58 51 64 5 19 56 50 33 6 68 36 65 12 26 70 71 23 15 63 62 54 9 24 39 53 66 -20 -44 -37 -7 -45 -1 -60 -69 -34 -22 -16 -13 -46 -3 -55 -61 -40 -38 -10 -43 -29 -27 -47 -11 -28 -30 -25 -57 -21 0
8 30 37 40 51 49 50 22 35 43 28 6 23 60 -46 -45 -2 -9 -29 -65 -27 -20 -54 -14 -64 -18 -31 -39 -11 -34 -71 -16 -32 -19 0
53 58 35 39 37 17 7 61 62 34 9 29 -46 -12 -59 -2 -16 -43 -27 -64 -6 -40 -19 -70 -47 -18 -51 -21 -11 -10 -23 0
9 22 42 71 14 10 18 60 13 3 28 61 49 34 23 5 64 51 20 41 56 33 -6 -27 -36 -4 -26 -11 -38 -35 -45 -57 -43 -66 -39 -46 -15 -24 -31 -67 -1 -40 -50 0
13 64 22 25 50 59 33 2 11 36 26 66 28 19 47 31 21 10 71 55 62 39 58 6 53 18 34 54 44 42 43 -27 -15 -69 -45 -65 -14 -8 -3 -32 -67 -37 -35 -30 -48 -70 -9 -38 -56 -4 -68 -60 -17 -12 -61 -40 -1 -5 -52 -41 -57 -20 -23 -51 -46 0
9 50 5 46 47 18 21 39 45 24 68 12 65 41 27 36 25 14 44 13 29 19 38 26 60 52 70 51 43 23 17 71 66 61 63 37 55 56 4 40 -57 -49 -62 -1 -54 -64 -2 -31 -48 -30 -7 -28 -11 -33 -10 -59 -34 -67 -35 -16 -53 -22 -8 -6 -32 -20 -15 -58 -3 0
66 4 2 27 36 9 24 25 61 46 13 10 54 21 57 70 30 31 35 59 26 71 28 -52 -32 -33 -7 -40 -16 -1 -50 -49 -42 -8 -64 -12 -55 -14 -29 -47 -39 -53 -62 -22 -38 -60 0
29 67 56 8 70 42 16 11 13 66 36 54 62 46 43 71 10 33 24 59 52 15 7 -35 -48 -37 -34 -22 -47 -45 -20 -39 -3 -55 -6 -30 -68 -57 -51 0
25 39 55 6 -56 -5 0
56 38 48 71 23 31 14 26 52 46 34 41 12 25 20 33 57 65 39 63 5 61 64 35 53 42 69 27 40 13 10 51 50 28 24 19 68 18 43 -32 -44 -16 -8 -15 -59 -4 -60 -29 -70 -37 -54 -1 -67 -21 -6 -55 -62 -36 -30 -3 -2 -58 0
68 48 2 34 61 5 64 30 38 14 55 43 31 28 25 62 16 54 49 65 -63 -6 -20 -69 -37 -39 -67 -9 -35 -60 -13 -47 -58 -19 -15 -23 -53 -22 -24 -36 -42 -4 -56 -10 0
51 38 36 52 30 44 67 57 69 20 5 39 -24 -64 -11 -70 -8 -4 -60 -49 -13 -68 -12 -40 -31 -59 -3 -58 -2 -15 0
68 39 7 62 12 16 38 8 41 56 58 5 37 32 33 19 10 22 43 31 47 42 35 55 -48 -21 -40 -30 -1 -9 -69 -67 -36 -59 -18 -51 -64 -3 -29 -34 -50 -25 -57 -60 -14 -4 -63 -17 -46 -66 -61 0
58 69 13 30 12 29 48 31 57 46 9 37 33 21 15 47 3 68 56 49 20 14 22 6 66 50 -59 -23 -1 -51 -8 -19 -27 -55 -2 -39 -35 -38 -25 -63 -52 -54 -64 -44 -5 -70 -28 -40 -41 -11 -43 0
36 24 51 25 9 39 27 23 57 40 29 53 45 63 61 42 28 70 41 56 55 38 16 22 15 5 34 8 37 11 50 64 10 2 60 71 6 -1 -46 -68 -20 -31 -69 -33 -47 -21 -18 -54 -12 -17 -13 -35 -59 -49 -65 -30 -43 -44 -67 -7 -48 -14 -19 -4 -58 -66 -52 -32 -62 0
71 11 19 13 15 49 22 23 29 56 20 43 70 21 7 10 28 3 60 38 48 39 52 69 17 53 47 8 5 6 58 1 44 9 18 30 -66 -16 -37 -34 -50 -14 -27 -51 -41 -25 -55 -32 -31 -46 -61 -59 -62 -12 -68 -63 -26 -36 -33 -42 -4 -24 0
25 21 3 64 23 67 70 51 19 17 36 -29 -46 -34 -38 -43 -62 -42 -10 0
69 26 39 54 25 10 1 6 19 34 16 8 52 62 70 30 27 71 59 13 20 60 50 33 32 37 58 68 3 66 44 -14 -22 -11 -48 -67 -57 -43 -18 -15 -17 -65 -46 -36 -49 -61 -35 -51 -64 -31 -2 -53 -56 -12 -45 -42 -29 -63 -4 -40 -21 -9 0
56 1 9 7 66 25 70 49 22 58 2 52 11 -45 -21 -61 -40 -35 -31 -60 -53 -15 -27 -57 -37 -24 -65 -34 0
14 6 60 65 3 18 41 45 22 32 71 46 26 -24 -58 -52 -9 -23 -66 -10 -12 -4 -37 -47 0
62 69 61 36 -67 -18 -27 -38 -50 -32 -64 -29 -15 -4 -63 -1 -65 -6 0
13 70 22 41 34 36 1 24 50 37 23 14 27 32 46 44 67 16 42 26 49 40 6 9 12 8 64 69 65 -39 -31 -66 -54 -48 -53 -30 -19 -28 -71 -61 -56 -68 -45 -18 -17 -43 -10 -51 -25 -20 -60 -59 -2 0
46 16 60 50 21 33 35 68 6 51 70 39 42 49 57 71 17 65 24 20 69 41 19 59 9 27 45 15 36 23 58 -48 -44 -32 -37 -47 -4 -3 -28 -13 -18 -38 -12 -52 -54 -1 -43 -61 0
48 17 35 63 37 39 4 28 10 23 12 68 32 22 36 61 -43 -33 -58 -38 -71 -27 -2 -25 -15 -21 -55 -9 -19 -57 -62 0
30 31 13 28 33 29 8 44 -27 -67 -53 -57 -1 0
65 62 61 49 68 22 4 2 5 25 16 13 11 37 12 14 24 33 53 60 19 56 -7 -54 -36 -1 -42 -52 -51 -40 -26 -35 -71 -69 -48 -47 -64 -57 -18 -66 0
17 14 59 3 54 20 57 47 11 -36 -18 -5 -48 -52 -71 -4 -19 -63 -69 0
68 13 28 55 8 18 60 43 -52 -31 -14 -15 -49 -3 -19 -11 -22 -44 0
44 45 30 20 11 69 15 48 31 37 22 32 14 3 33 62 -25 -28 -39 -23 -40 -35 -38 -17 -67 -19 -65 0
69 5 68 2 37 43 51 28 19 41 16 34 -21 -26 -56 -59 -48 -33 -52 -29 -47 -44 -31 -58 -11 0
31 62 41 58 46 54 29 52 19 40 6 33 71 51 68 25 -42 -22 -70 -50 -44 -60 -36 -32 -57 -56 -53 -8 0
59 48 31 23 50 42 36 35 30 53 45 3 56 66 26 -65 -33 -40 -47 -52 -18 -41 -55 -12 -7 -57 -38 -51 -63 -10 -20 -5 -19 0
5 57 17 66 68 48 3 49 36 71 52 -8 -65 -29 -61 -60 -24 -39 -15 -54 -12 -37 -7 0
63 19 54 58 52 33 15 37 -65 -35 -18 -38 -34 -26 -31 -7 -32 0
37 46 67 70 47 27 61 21 56 52 33 28 2 42 -18 -69 -5 -14 -17 -60 -65 0
45 34 9 39 61 65 49 1 69 18 22 53 40 48 16 20 41 46 24 14 37 66 30 70 27 44 11 25 15 -55 -59 -50 -7 -64 -68 -35 -51 -28 -23 -38 -67 -6 -63 -10 -17 -32 -36 -3 -33 -56 -54 -43 -31 -12 -47 -19 -60 -42 -57 -62 -52 -13 -71 0
41 33 32 30 56 6 71 11 59 64 51 40 13 63 -70 -28 -55 -25 -12 -23 -26 -57 -60 -47 -67 -29 -18 -3 -46 -68 -34 -48 -1 -31 -39 -35 0
49 63 59 42 3 70 55 28 61 -35 -67 -2 -56 -22 -68 -21 -43 -34 -11 -52 0
36 48 62 60 27 34 32 42 35 43 8 15 38 53 51 23 -65 -29 -37 -12 -71 -25 -7 -20 -40 -3 -70 -6 -69 -13 0
53 57 65 9 47 28 15 30 37 51 17 48 35 12 26 66 25 52 32 67 4 55 5 1 64 -27 -24 -50 -38 -49 -44 -41 -13 -23 -40 -7 -56 -31 -2 -61 -62 -43 -3 -39 -46 -70 -33 -16 -36 -71 -21 0
64 54 11 37 23 5 34 18 41 6 45 -12 -2 -16 0
45 43 23 21 49 63 41 58 50 12 14 27 26 9 4 70 42 16 55 56 53 -40 -6 -62 -60 -25 -46 -15 -18 -7 -10 -67 -61 -68 -3 -69 -44 -65 -33 -54 -39 -20 -19 -38 -2 -32 -52 -29 0
20 50 51 48 38 31 1 26 16 24 35 67 30 36 49 44 19 55 53 12 56 66 3 57 10 40 21 7 2 41 9 -64 -42 -23 -33 -22 -28 -65 -34 -54 -58 -15 -59 -45 -18 -4 -63 -71 -6 -52 -46 -11 -25 -69 -62 -32 -5 -14 -47 -17 -8 -43 -68 -60 0
29 4 68 14 28 33 35 7 22 13 50 37 15 27 49 18 23 67 3 -42 -24 -60 -5 -6 -62 -45 -61 -58 -53 -17 -31 -69 -52 -16 -63 -46 -57 -65 -19 -51 -21 0
13 39 27 20 23 4 30 52 29 69 11 60 54 42 33 5 67 7 68 70 1 16 59 53 62 25 -46 -8 -57 -2 -21 -47 -17 -12 -64 -58 -61 -14 -28 -37 -15 -24 -32 -3 -48 -6 -44 -35 -65 -50 0
22 30 11 56 53 24 15 10 33 36 68 54 40 61 16 2 55 4 38 8 50 -57 -67 -60 -18 -25 -49 -14 -42 -66 -69 -44 -41 -31 -12 -37 -17 -6 -19 -71 -70 -5 -43 -58 0
24 41 54 13 6 46 61 29 50 57 58 12 70 19 17 40 5 71 -47 -8 -30 -10 -53 -2 -56 -35 -7 -1 -33 -66 -67 -51 -59 0
44 3 65 32 6 33 17 51 22 25 45 15 14 24 20 9 68 70 60 11 19 23 36 53 40 12 4 30 29 26 18 35 48 43 16 54 34 39 50 -57 -62 -71 -5 -7 -46 -59 -55 -66 -10 -27 -64 -58 -1 -47 -42 -67 -31 -21 -2 -52 -41 -28 -69 -61 -37 -38 -13 -8 0
18 11 35 26 24 4 62 12 6 21 17 70 69 20 37 64 13 2 14 1 44 19 66 10 58 51 45 5 -43 -42 -59 -29 -39 -41 -55 -8 -40 -60 -48 -16 -65 -52 -49 -15 -23 -71 -9 -25 -3 -50 -53 -56 -61 -27 -54 -47 -36 -68 -34 -63 -67 -28 -22 -46 -32 -30 -7 -31 0
14 10 31 43 23 60 9 58 39 15 30 52 37 19 25 62 61 48 21 45 71 50 3 47 55 16 6 65 32 42 -27 -35 -4 -28 -59 -29 -34 -70 -56 -68 -66 -17 -69 -8 -64 -33 -67 -46 -53 -41 -11 -49 -18 -5 -54 -2 -57 -40 -12 -51 -44 0
46 12 55 37 45 25 24 38 36 64 8 32 42 15 9 71 67 35 6 68 7 43 63 17 4 34 -47 -44 -56 -2 -27 -5 -40 -61 -10 -1 -3 -14 -22 -53 -58 -60 -62 -20 -52 -21 -18 -26 -49 -57 -30 -50 -70 0
71 27 70 32 69 30 6 58 46 2 45 -40 -20 -51 -19 -63 -9 -37 -48 -18 -59 -12 -38 -66 -24 -25 -31 -50 -4 -61 -54 -34 -47 -60 -49 -57 -23 -36 -3 0
40 48 47 44 27 24 69 35 23 62 30 66 65 71 67 28 50 43 54 36 -70 -13 -9 -26 -3 -60 -8 -19 -59 -34 -29 -64 -63 -21 -52 -31 -15 -16 -1 -25 -5 -22 -17 -45 -18 -55 -4 -68 -33 -58 -38 -46 -6 -7 -12 0
58 63 28 43 71 70 38 18 41 45 68 6 9 42 1 13 49 22 35 7 66 14 36 19 47 56 69 17 -44 -15 -5 -67 -12 -8 -61 -34 -29 -20 -4 -27 -64 -60 -48 -62 -50 -3 -40 -54 -10 -53 -55 -52 -33 -37 -46 -57 -65 -32 -16 -21 -31 -11 0
70 63 24 61 40 35 68 11 1 19 27 13 -41 -65 -33 -57 -45 -50 -59 -29 -22 -36 -34 -30 -31 -64 -39 0
9 6 50 49 21 70 15 45 27 7 42 61 58 22 51 -71 -29 -4 -33 -47 -13 -8 -25 -41 -56 -44 -3 -26 -23 -62 -68 -53 -39 -32 -2 -14 -60 -40 -10 -30 -69 0
31 43 41 11 62 38 21 50 49 14 9 28 23 58 12 13 46 47 57 24 39 27 63 34 40 52 -33 -37 -51 -32 -69 -59 -44 -10 -1 -5 -7 -25 -67 -54 -19 -42 -15 -4 -3 -48 -18 -6 -66 -22 -56 -61 -45 -53 -35 -65 -30 -70 -2 -68 -29 -64 -36 0
65 54 31 6 29 25 19 17 26 32 49 40 13 -33 -60 -45 -12 -8 -38 -67 -62 -44 -70 -22 -56 -2 0
45 34 11 40 13 -54 -38 -23 0
56 55 49 14 9 52 48 33 71 28 6 46 67 54 45 43 18 3 7 1 60 11 41 51 -36 -8 -4 -63 -53 -57 -12 -66 -40 -22 -17 -26 -39 -25 -44 -35 -62 -19 -10 -2 -47 -32 -20 0
45 68 10 40 29 54 43 14 37 5 32 13 18 1 48 46 8 20 50 69 28 56 60 25 23 58 49 17 41 11 57 35 62 9 52 15 64 -65 -71 -2 -22 -66 -36 -16 -24 -53 -34 -42 -70 -44 -30 -39 -33 -26 -6 -31 -61 -4 -55 -7 -59 -12 -19 0
5 35 60 27 11 46 13 69 36 31 50 32 47 66 29 24 57 23 58 18 44 52 -3 -71 -6 -17 -40 -39 -28 -61 -9 -16 -45 -30 -64 -7 0
23 44 11 6 35 1 -39 -36 -56 -50 -22 -38 -9 0
34 14 71 16 17 50 23 67 27 63 58 64 12 42 10 35 62 4 65 31 69 3 7 29 25 28 5 30 2 40 33 13 55 -51 -48 -32 -18 -70 -53 -57 -52 -9 -8 -47 -36 -44 -60 -26 -11 -68 -54 -24 -22 -20 -66 -38 -6 -15 -59 -41 -49 -1 0
70 65 47 21 34 33 24 59 53 1 27 41 69 28 30 66 55 14 57 19 15 -62 -2 -7 -31 -10 -43 -40 -25 -60 -44 -5 -8 -39 -16 -48 -49 -6 -61 -64 -38 -9 -22 -56 -3 -46 -42 0
47 68 56 17 37 49 21 24 61 16 9 25 30 4 65 5 3 13 64 51 62 46 69 19 10 67 58 18 48 53 31 15 14 6 -20 -59 -2 -1 -50 -71 -27 -70 -42 -45 -39 -22 -28 -57 -54 -12 -63 -23 -38 -7 -32 -66 -60 -11 -44 -43 -41 0
54 8 35 21 13 44 45 48 9 10 42 25 56 47 70 59 67 50 33 41 14 43 29 65 -53 -17 -61 -11 -5 -38 -15 -3 -16 -63 -2 -31 -20 -40 -58 -32 -6 -30 -71 -46 -23 -64 -28 -19 -36 -4 -26 -51 0
49 52 7 55 42 30 37 35 -32 -14 -61 -57 -62 0
59 36 66 41 27 51 30 47 3 -20 -24 -56 -5 -14 0
1 7 42 62 59 69 29 43 63 28 13 -53 -45 -52 -18 -48 -2 -49 -67 -10 -33 0
61 1 38 9 41 15 43 37 49 13 12 53 42 29 66 30 45 52 -69 -70 -26 -4 -27 -47 -16 -36 -21 -22 -39 -3 -68 -32 -10 -57 -50 -65 -59 -56 0
16 26 14 47 1 50 19 68 27 37 56 46 23 65 6 32 62 55 12 54 70 11 48 40 -42 -38 -25 -49 -15 -10 -64 -17 -8 -69 -2 -60 -30 -52 -29 -7 -41 -67 -13 -43 -51 0
10 37 17 47 39 4 32 36 14 15 46 9 56 26 24 48 -19 -33 -65 -52 -43 -53 -68 -69 -66 -61 -49 0
29 59 41 69 35 20 5 30 38 1 11 34 47 60 10 7 32 51 39 50 46 23 21 31 12 65 22 58 -64 -33 -18 -44 -49 -16 -55 -71 -26 -67 -27 -14 -48 -19 -54 -56 -36 -28 -53 -63 -2 -4 -15 -17 -40 -6 -61 -24 -62 -68 0
16 7 71 42 21 17 59 44 33 4 36 61 60 65 63 28 23 66 40 56 27 15 39 50 55 8 26 -24 -13 -29 -22 -25 -19 -3 -52 -2 -5 -41 -35 -31 -67 -51 -47 -46 -38 -58 -18 -11 -12 -45 -32 -53 -6 0
62 3 12 36 48 60 8 58 59 -20 -15 -24 -23 -57 -61 -19 -71 -29 -52 -9 -26 -32 0
