c NeuroCodeBench 2.0 CNF formula with verdict Sat
p cnf 99 762
69 92 -11 -46 -58 -42 -59 0
44 27 2 51 77 23 86 3 60 95 20 90 68 10 99 81 84 65 -66 -30 -54 -19 -89 -40 -91 -38 -21 -78 -39 -25 -67 -45 -53 0
80 89 76 26 63 33 9 85 16 1 13 66 27 -49 -64 -71 -52 -32 -29 -93 0
23 8 6 74 13 68 89 22 17 55 54 36 92 37 49 72 79 -10 -1 -98 -80 -96 -83 -39 -46 -33 -50 -73 -30 -81 -76 -77 0
51 86 78 76 47 62 1 91 98 95 9 37 22 27 66 82 10 42 94 49 4 60 26 87 24 17 56 30 45 33 73 55 15 80 92 6 41 70 2 63 29 74 77 85 97 3 71 18 67 -13 -36 -65 -43 -69 -79 -14 -19 -16 -25 -81 -64 -83 -72 -31 -59 -50 -84 -44 -28 -8 -23 -90 -75 -99 -40 -68 -20 -34 -52 -21 -54 -58 -96 -7 -12 -88 -32 -38 0
77 82 18 21 34 27 96 32 95 11 62 58 9 40 46 42 39 1 48 76 99 45 88 8 37 -3 -24 -85 -80 -89 -44 -60 -61 -94 -50 -73 -87 -71 -59 -55 -86 -75 -69 -67 -43 -7 -74 0
45 8 34 69 11 12 55 44 80 2 25 10 13 59 15 -21 -97 -73 -57 -70 -31 -20 -46 -28 -5 -71 -19 -14 -1 -72 -83 -33 -52 -35 -84 -54 -65 -42 -9 -94 -82 -76 -74 -63 -60 0
63 72 88 27 93 2 98 35 26 29 46 95 80 19 87 41 31 43 18 -81 -11 -76 -56 -68 -8 -69 -4 -94 -34 -21 -42 -15 -71 -20 -99 -37 -58 -65 -59 -78 -57 -49 -97 -73 -33 -62 -60 -66 -64 -44 0
69 8 21 37 53 20 90 -42 -62 -86 -64 -81 -54 -23 -67 -36 -30 -13 -97 -70 -63 -80 0
63 4 35 74 22 57 91 55 8 28 99 25 29 36 37 -71 -23 -93 -12 -31 -21 -48 -78 -61 -69 -13 -17 -67 0
46 91 59 84 80 52 4 69 62 38 66 41 47 11 56 37 31 28 68 -9 -61 -6 -58 -71 -49 -26 -3 -35 -73 -10 -24 -93 -25 -30 -8 -88 -95 -98 -32 -90 0
60 85 54 73 61 62 40 32 89 44 79 42 8 93 4 76 71 96 84 51 46 69 52 18 77 48 3 7 30 57 74 50 -63 -26 -20 -88 -97 -23 -10 -12 -6 -82 -41 -47 -83 -43 -92 -16 -45 -86 -35 -36 -59 -9 -99 -56 -58 0
95 94 60 30 79 7 61 99 35 5 88 75 49 98 87 50 47 97 80 72 29 46 22 17 8 12 1 27 77 28 36 21 24 92 23 62 43 86 31 57 85 44 15 32 16 68 33 11 18 81 -84 -3 -51 -70 -69 -89 -45 -48 -37 -58 -66 -2 -83 -56 -34 -4 -63 -96 -59 -67 -25 -13 -64 -26 -65 -14 -82 -41 -73 -42 -6 -19 -10 -76 -93 -55 -91 -74 -78 -52 -38 -39 -40 0
42 61 20 26 30 55 75 91 31 98 50 54 7 2 40 1 3 23 24 96 71 59 36 14 28 29 37 65 80 68 84 6 8 5 83 56 10 34 11 64 49 92 39 25 9 4 32 47 12 57 -73 -77 -13 -81 -52 -27 -19 -51 -48 -58 -94 -21 -90 -44 -15 -85 -33 -97 -43 -89 -82 -87 -62 -95 -79 -46 -53 -99 -74 -22 -72 -78 -93 -86 -67 -18 -17 -63 -41 -70 -88 -35 -60 0
98 91 12 53 78 28 29 17 81 34 57 4 2 68 99 16 83 43 20 49 96 23 33 55 88 46 82 84 72 21 41 25 22 61 54 56 74 52 1 90 71 36 26 -63 -79 -59 -44 -77 -64 -15 -87 -92 -85 -13 -50 -58 -27 -62 -76 -14 -40 -3 -60 -86 -30 -93 -48 -39 -80 -42 -19 -67 -8 -38 -69 -18 -45 -7 -70 -10 -75 -89 -95 0
69 77 65 81 30 1 -50 -5 -46 -76 -86 0
28 53 77 -58 -66 -42 0
14 96 75 17 69 24 95 70 11 91 58 33 34 66 98 29 97 92 64 45 62 3 35 22 88 47 7 61 99 74 23 80 51 37 -49 -2 -87 -36 -52 -15 -1 -89 -53 -26 -21 -71 -77 -41 -73 -72 -50 -93 -13 -12 -79 -67 -9 -63 -76 -4 -48 -81 -25 -84 -20 -43 -85 -44 -28 -83 0
97 56 99 98 77 49 65 91 24 55 58 54 70 45 59 67 6 46 68 11 1 35 20 61 96 15 78 51 69 29 93 60 8 12 52 76 26 64 25 -88 -62 -21 -73 -14 -33 -32 -89 -7 -37 -31 -75 -82 -71 -41 -47 -40 -2 -34 -23 -4 -19 -28 -17 -66 -43 -85 -92 -30 -44 -95 -50 -84 -48 -38 -42 -9 -27 -5 -63 -18 -16 0
43 70 35 63 33 45 80 51 65 67 25 11 62 85 92 48 50 97 16 4 17 29 61 7 69 68 82 99 78 31 8 89 28 90 -15 -24 -88 -42 -32 -44 -22 -75 -40 -96 -58 -95 -26 -19 -98 -20 -41 -71 -46 -73 -77 -59 -79 -86 -5 -56 -12 -64 -18 -13 -14 -9 -55 -38 -54 0
79 74 88 90 68 85 95 62 78 19 72 83 63 42 77 13 44 53 69 64 52 23 66 18 38 10 33 28 34 59 9 91 32 60 75 -1 -30 -21 -76 -86 -99 -12 -36 -40 -67 -37 -81 -58 -54 -22 -16 -50 -39 -73 -48 -89 -51 -97 -8 -5 -70 -47 -45 -3 -46 -35 -96 -11 -26 -24 -55 -25 -56 -94 -84 -57 -6 -98 0
11 32 92 78 7 6 16 37 40 3 66 90 76 81 38 29 85 34 8 21 20 67 83 12 27 62 26 77 75 56 17 54 -99 -71 -97 -69 -18 -63 -98 -47 -36 -55 -49 -43 -39 -72 -28 -48 -13 -5 -79 -86 -23 -2 -41 -9 0
16 33 62 65 49 46 85 95 92 38 54 -17 -72 -51 -10 -44 0
47 63 42 54 58 53 32 45 28 95 94 74 59 66 99 27 97 89 52 29 43 20 15 93 36 96 30 91 12 5 70 4 98 35 -2 -46 -10 -44 -24 -22 -8 -33 -14 -60 -81 -39 -21 -56 -17 -75 -88 -19 -26 -49 -87 -23 -76 -73 -82 -34 -11 -69 -50 -71 -77 -64 -48 0
77 76 92 75 8 89 60 10 53 82 66 42 38 11 48 81 97 27 59 1 23 71 13 57 73 47 37 84 -67 -72 -5 -28 -56 -33 -70 -43 -54 -68 -18 -21 -94 -85 -99 -86 -24 -95 -15 -29 -32 -40 -50 -16 -25 -61 -34 -36 -64 -62 -74 -65 -20 -49 -80 -63 -83 0
52 12 21 85 10 31 65 80 39 -86 -62 -47 -58 -32 -18 0
-8 -29 -47 -28 0
31 30 78 1 92 75 5 9 74 68 7 52 37 33 22 85 34 46 95 2 27 79 80 45 39 96 88 98 32 69 71 63 26 81 28 89 82 8 60 44 -47 -20 -91 -50 -42 -23 -54 -6 -40 -94 -77 -61 -48 -59 -87 -76 -13 -35 -24 -66 -4 -3 -53 -90 -38 -86 -70 -10 -16 -18 0
29 42 69 70 58 57 -49 -60 -99 -7 -61 -67 -77 -40 -78 0
48 15 12 37 8 34 42 31 98 5 80 13 93 27 86 17 39 87 19 50 96 74 94 25 26 2 20 67 90 53 45 97 77 89 83 38 21 -62 -35 -55 -30 -58 -75 -7 -16 -4 -66 -64 -40 -49 -9 -14 -10 -33 -3 -43 -18 -71 -92 -95 -44 -68 -6 -63 -72 -81 -61 -57 -60 -73 0
11 96 49 65 1 2 27 58 41 -8 -80 -71 -31 -85 0
48 87 43 80 62 45 16 46 61 5 59 54 40 23 82 18 22 26 93 17 88 24 68 36 89 41 30 29 60 21 99 8 85 35 33 42 91 15 28 3 84 31 73 71 10 -94 -34 -11 -2 -12 -96 -47 -55 -4 -19 -57 -20 -69 -74 -53 -37 -58 -95 -52 -51 -97 -90 -27 -63 -38 -9 -79 -98 -76 -25 -56 -83 -77 -49 -13 -78 -32 -7 -75 -39 -66 -64 -65 -50 -14 -70 -92 -44 -72 -81 0
9 27 52 -71 -31 0
6 17 45 3 21 -71 -38 -89 -66 -55 -94 -8 -46 -50 0
78 45 96 94 87 2 47 41 63 37 35 48 19 73 93 57 91 20 60 69 10 9 80 81 55 86 61 79 29 26 17 30 99 11 43 88 74 25 12 71 90 21 97 51 32 -22 -23 -24 -54 -1 -14 -4 -68 -95 -8 -59 -76 -44 -7 -84 -92 -39 -27 -98 -66 -36 -72 -56 -75 -82 -77 -62 -38 -34 -13 -53 -16 -70 -31 -65 -64 -6 -89 -49 -33 -85 -42 -28 0
88 64 74 7 92 29 14 34 -5 -54 -56 -78 -67 -85 -27 -9 -1 -3 -44 -31 -91 0
29 40 88 80 50 97 21 31 -30 -44 -2 -41 -4 -70 0
43 54 99 15 70 51 24 57 38 71 73 12 19 48 72 53 64 81 85 -97 -37 -89 -4 -55 -46 -21 -29 0
73 79 91 82 9 22 71 49 43 99 59 27 11 65 96 63 18 40 32 57 15 -90 -14 -47 -24 -6 -70 -30 -89 -45 -58 -66 -19 -44 -48 -34 -55 -98 -69 -3 -16 -1 -31 -10 -2 -53 -56 0
55 56 48 45 65 73 -39 -19 -90 0
68 31 39 4 82 87 91 69 57 9 13 56 10 41 60 71 40 -51 -76 -73 -66 -36 -65 -19 -83 -90 -5 -33 -92 -86 -8 -6 -88 -25 -2 -67 -54 0
78 85 86 84 57 81 18 68 56 49 76 99 72 27 87 5 -38 -89 -33 -66 -93 -52 -42 -77 -69 -67 -14 -96 -98 -48 -12 0
22 12 77 48 63 76 51 38 30 37 5 83 56 74 44 33 20 67 7 85 4 86 17 42 47 89 23 78 94 58 62 71 -84 -52 -99 -9 -92 -35 -88 -90 -68 -40 -32 -75 -70 -95 -60 -55 -96 -28 -13 -11 -16 -64 -45 -14 -98 -1 -91 -8 -81 -21 -93 -69 -80 -27 0
55 88 85 81 97 43 73 60 58 62 29 68 15 14 48 59 63 2 4 64 89 74 53 93 45 87 6 13 17 52 23 92 99 25 19 40 -41 -72 -28 -18 -16 -82 -65 -1 -66 -77 -26 -38 -61 -86 -7 -31 -36 -56 -22 -42 -11 -20 -10 -78 -76 -3 -34 -24 -32 -54 0
6 1 83 99 31 61 98 37 -73 -81 -8 -65 -19 -46 0
98 63 40 41 79 85 75 21 33 46 67 26 9 30 44 36 12 16 57 76 60 38 89 73 29 19 10 74 45 72 -32 -24 -50 -54 -55 -78 -86 -7 -27 -35 -65 -81 -56 -15 -3 -77 -6 -49 -97 -84 -22 -14 -92 -96 -31 -90 0
65 47 16 54 46 10 20 44 5 85 83 64 4 -2 -21 -12 -84 -15 -52 -82 -68 -22 -49 -98 -89 -58 -23 -13 -33 0
22 93 88 67 55 87 34 37 84 79 43 21 52 33 44 77 99 5 29 42 32 3 78 48 25 9 20 19 92 1 66 15 14 98 61 82 -69 -12 -59 -51 -70 -7 -24 -41 -64 -10 -49 -75 -90 -72 -28 -17 -97 -83 -8 -11 -53 -46 -94 -74 -38 -58 -36 -35 -85 -68 -80 -62 -91 -54 -86 -31 -30 -39 -65 -6 -45 -13 -2 0
96 19 76 22 74 85 73 28 90 35 99 70 47 10 4 36 21 14 6 57 48 50 95 23 68 2 3 -26 -91 -53 -11 -98 -12 -43 -32 -54 -17 -66 -84 -87 -64 -9 -24 -1 -58 -80 -18 -94 -65 -49 -82 -34 -42 -77 -13 -56 -7 -40 0
26 41 24 48 57 63 54 72 45 43 94 42 62 20 50 37 46 12 76 89 28 97 15 33 66 25 27 10 5 34 2 3 79 17 81 99 7 23 64 88 73 61 9 18 35 95 98 38 1 -74 -96 -22 -32 -14 -52 -8 -92 -82 -87 -67 -40 -84 -21 -69 -71 -49 -77 -65 -44 -51 -29 -83 -4 -75 -13 -39 -68 -16 -78 -30 -85 -58 -80 -90 -56 -36 -86 -59 -93 0
62 5 89 7 18 4 53 99 26 54 56 25 61 95 78 58 2 72 73 42 90 74 76 64 94 40 46 23 88 84 1 50 66 77 22 28 43 49 11 35 57 59 -79 -8 -97 -34 -33 -21 -93 -15 -71 -83 -45 -75 -47 -65 -41 -17 -32 -48 -81 -6 -70 -12 -69 -10 -52 -9 -96 -36 -82 -19 -38 -3 -55 -29 -85 -91 -16 -86 -51 -37 -27 -98 -68 -67 -44 -92 -24 -39 -14 -30 -63 0
92 40 20 87 95 98 19 71 5 55 73 15 69 74 24 54 37 82 17 81 79 36 32 56 39 60 31 70 48 94 64 77 28 78 61 65 21 33 59 85 -51 -8 -68 -38 -9 -7 -14 -44 -29 -47 -18 -97 -27 -10 -99 -90 -12 -50 -46 -84 -43 -89 -25 -34 -4 -75 -57 -58 -23 -86 -53 -62 -96 -30 -66 -22 -49 -45 -35 -63 -13 -52 -93 -2 -76 -42 -80 -1 -67 -72 -6 -91 -3 -26 0
85 33 77 72 74 5 76 18 6 7 96 59 19 68 47 14 39 82 38 17 92 99 24 28 36 61 89 67 30 84 27 16 62 3 60 -94 -95 -70 -98 -37 -79 -8 -11 -73 -31 -23 -87 -15 -53 -41 -81 -13 -45 -71 -22 -43 -75 -90 -10 -78 -65 -66 -83 -58 -26 -93 -42 -54 -40 -80 -52 -63 -4 -57 -12 -55 -9 -25 -48 0
50 4 26 -11 -16 -32 -74 -17 -89 -57 0
53 35 44 64 82 23 11 18 80 77 98 62 54 16 28 13 19 88 69 87 93 92 78 45 67 34 51 56 59 48 12 55 36 14 68 84 25 72 61 10 50 76 39 2 42 99 -79 -52 -57 -71 -75 -1 -66 -4 -73 -97 -95 -86 -43 -41 -90 -3 -46 -17 -96 -58 -74 -65 -8 -38 -24 -94 -7 -9 -27 -60 -20 -37 -89 -49 -6 -33 -21 -85 0
23 16 60 95 97 96 50 89 36 86 61 69 80 42 44 1 -9 -62 -26 -30 -8 -55 -38 -2 -39 -24 -22 0
96 16 97 48 74 9 25 10 -63 -55 -71 -34 0
41 38 42 89 53 26 48 74 69 93 7 84 68 39 49 30 58 13 77 45 34 25 82 64 17 52 80 8 91 72 99 95 61 94 55 90 3 97 27 40 96 71 18 -87 -83 -15 -28 -85 -79 -47 -73 -20 -4 -51 -10 -36 -6 -12 -19 -32 -35 -46 -75 -70 -65 -66 -2 -5 -88 -29 -67 -56 -92 -44 -22 -54 -11 -24 0
65 42 25 29 47 32 52 96 74 31 62 66 12 81 18 89 90 23 76 86 39 45 -22 -56 -49 -87 -14 -19 -60 -7 -92 -30 -93 -41 -78 -3 -71 -50 -37 -35 -69 0
6 93 98 44 42 69 61 23 59 25 83 96 13 41 19 46 49 84 10 89 31 47 -94 -18 -77 -2 -51 -82 -26 -29 -65 -52 -57 -5 -75 -4 -39 -28 -81 -24 -15 -88 -35 -3 -12 -91 -60 0
91 93 80 7 96 31 82 92 -70 -54 -10 -3 -53 -2 0
29 72 62 21 84 31 7 79 27 56 95 57 91 71 22 80 10 97 6 28 -41 -58 -12 -96 -49 -64 -14 -11 -98 -78 -73 -9 -99 -18 -54 -59 -5 -87 0
43 4 37 13 85 88 51 49 95 60 23 48 24 17 1 -39 -7 -6 -92 -16 -83 -40 -75 -12 -44 -8 -84 -77 -18 -79 0
55 51 5 38 58 87 83 12 40 67 56 97 64 11 61 92 75 34 57 31 52 73 43 77 32 44 84 63 71 39 95 50 22 21 53 -82 -42 -86 -28 -7 -81 -6 -98 -46 -1 -59 -91 -85 -96 -37 -66 -72 -65 -48 -89 -27 -8 -4 -16 -69 -15 -24 -25 -9 -23 -68 -94 -49 -17 -26 -19 -18 -99 -14 -20 -30 -3 -90 -41 -78 -33 -47 -88 -80 -74 0
36 8 84 57 47 10 79 19 18 29 53 85 5 81 28 49 37 58 73 72 92 66 59 55 94 75 65 24 23 41 31 96 40 78 1 68 87 67 -30 -45 -71 -7 -44 -64 -2 -97 -98 -14 -4 -32 -26 -95 -25 -51 -33 -63 -16 -93 -60 -77 -99 -39 -22 -70 -54 -27 -17 -3 -34 -42 -90 -74 -89 -62 -56 -61 -43 0
85 86 8 2 16 18 55 9 45 40 81 82 53 27 77 73 23 11 43 59 75 93 4 99 22 84 64 95 71 3 66 -83 -38 -63 -32 -30 -91 -28 -78 -36 -65 -70 -92 -94 -44 -50 -6 -51 -61 -72 -7 -87 -41 -34 -89 -20 -37 -54 -24 0
25 57 83 89 22 70 5 51 98 78 42 4 86 66 80 92 79 23 52 18 41 3 39 30 8 27 82 -31 -28 -88 -81 -36 -14 -53 -13 -33 -9 -75 -73 -15 -46 -20 -96 -38 -62 -26 -91 -34 -50 -43 -45 -11 -97 -19 -65 -69 -95 -29 -77 -99 -94 -44 -54 -2 -7 -47 -10 -93 -35 -6 -24 -17 -60 0
75 33 19 10 44 87 95 3 65 48 16 29 80 72 67 97 92 26 60 15 17 84 -79 -12 -74 -45 -41 -37 -70 -78 -53 -20 -8 -1 -99 -63 -82 -25 -31 -13 -57 -69 -52 -28 -50 -2 -94 -73 -38 -77 -81 -47 -54 -32 -7 -86 0
39 33 93 89 10 23 6 65 46 25 98 99 40 72 79 57 90 41 59 4 80 61 26 95 51 70 -56 -87 -3 -76 -9 -43 -7 -68 -48 -12 -8 -30 -34 -71 -44 -14 0
59 31 54 41 56 55 88 4 43 18 6 51 63 38 40 24 86 13 78 83 85 9 93 58 21 17 81 47 95 -74 -11 -61 -76 -72 -26 -15 -30 -90 -52 -44 -45 -42 -60 -34 -1 -98 -12 -14 -5 -37 -82 -70 -97 -49 -46 -65 -36 -48 -29 -99 -7 -53 -89 -62 -73 -3 -77 -2 -35 -84 -32 -57 -27 -33 0
56 15 21 18 78 44 31 48 5 66 13 69 81 70 17 9 26 41 68 -58 -20 -49 -38 -4 -29 -10 -8 -89 -87 -11 -79 -82 -37 -90 -40 -7 -93 -28 -86 -73 -24 -67 0
95 59 46 22 -55 -97 -30 -81 0
12 45 -68 0
95 39 98 94 82 99 3 32 93 80 27 1 55 13 97 20 7 77 91 12 70 19 79 40 52 76 58 48 90 31 23 34 16 56 15 -61 -8 -86 -6 -47 -75 -28 -43 -38 -53 -46 -26 -81 -18 -57 -50 -88 -74 -9 -37 -10 -5 -73 -49 -11 -96 -78 -59 -36 -60 -62 -71 -63 0
90 2 3 61 14 13 77 40 53 20 93 29 54 47 56 16 5 18 64 70 69 92 21 12 19 80 25 76 91 97 42 94 -7 -43 -99 -63 -75 -34 -26 -48 -27 -73 -55 -84 -22 -62 -52 -37 -67 -51 -30 -87 -45 -39 -86 -95 -83 -58 -17 -60 0
71 59 85 2 26 50 13 30 76 73 58 1 75 66 5 94 54 96 74 49 18 46 31 44 99 32 53 12 34 28 25 27 11 63 -21 -86 -22 -40 -81 -61 -35 -79 -23 -16 -7 -70 -36 -47 -69 -6 -87 -45 -84 -82 -78 -24 -39 -17 -51 -9 -62 -57 -80 -41 -48 -38 -33 -29 -90 -3 -42 -67 0
61 64 17 8 29 15 19 78 69 5 77 9 20 65 -34 -25 -28 -33 -1 -47 -43 -21 -72 0
88 94 56 59 18 68 99 70 44 4 61 77 23 79 25 42 19 90 26 63 72 31 62 38 36 10 84 35 13 16 11 40 2 52 97 39 5 17 28 29 91 81 78 60 47 96 21 -83 -43 -51 -48 -32 -24 -27 -69 -86 -64 -76 -54 -33 -22 -71 -87 -49 -74 -45 -6 -65 -37 -93 -34 -67 -57 -89 -80 -73 -85 -15 -7 -46 -66 -98 -75 -82 -53 -20 -14 -92 0
87 45 10 46 70 33 52 -2 -48 -32 -85 -90 0
41 83 99 44 4 2 81 95 31 22 69 87 15 8 88 55 29 50 52 76 60 42 9 61 89 77 63 80 20 96 82 13 74 64 30 38 -72 -54 -92 -79 -94 -57 -90 -35 -5 -84 -40 -39 -17 -62 -98 -24 -43 -93 -26 -70 -78 -3 -16 -85 -73 -66 -32 -18 -25 -68 -10 0
79 89 90 5 41 30 13 77 97 49 25 86 93 51 66 15 39 29 52 34 64 31 70 92 73 24 91 -72 -71 -54 -50 -17 -69 -11 -32 -84 -26 -4 -35 -18 -65 -43 -75 -55 -38 -46 -85 -42 -96 -58 -2 -44 -12 -59 -21 -27 0
81 93 52 -64 -28 -68 0
41 37 9 91 22 65 95 88 13 80 17 32 58 -6 -29 -83 -44 -27 -33 -42 -38 -34 -64 0
82 24 50 81 35 31 75 14 18 48 21 36 83 60 -34 -22 -1 -29 -17 -6 -76 0
23 28 53 18 91 92 21 59 67 40 46 81 93 30 55 26 48 69 75 74 7 -51 -34 -72 -33 -54 -76 -61 -6 -3 -79 -50 -95 -60 -19 -8 -45 -37 -68 -17 -98 -1 -2 -88 -52 -39 -47 -36 -56 -16 -10 -78 -70 -99 -41 -32 -14 -71 -58 -80 -29 -12 0
80 21 69 1 39 64 13 -83 -20 -12 -71 -74 -5 -41 0
27 90 44 2 52 74 1 14 72 50 9 86 59 28 43 29 99 67 76 54 12 10 69 34 23 3 53 71 78 40 73 56 61 20 26 16 30 62 66 77 84 35 -49 -18 -58 -96 -83 -93 -7 -33 -15 -48 -5 -46 -95 -91 -41 -89 -60 -21 -87 -79 -36 -97 -37 -81 -92 -88 -22 0
51 22 42 57 93 54 30 -48 -61 -96 -70 0
1 13 43 10 82 62 77 80 96 52 7 69 94 59 22 17 97 64 86 44 68 87 37 9 98 95 30 61 29 91 71 55 60 65 83 -90 -11 -67 -40 -46 -58 -57 -70 -76 -66 -15 -23 -27 -89 -3 -39 -35 -63 -93 -73 -85 -4 -5 -45 -72 -56 -38 -32 -20 -48 -88 -74 -79 -8 0
60 54 96 50 89 79 46 19 40 14 29 35 23 11 36 24 9 41 52 27 99 91 31 70 49 74 73 59 86 81 53 82 26 58 76 18 48 47 2 57 13 -16 -63 -78 -64 -8 -67 -32 -80 -85 -71 -39 -72 -90 -38 -65 -45 -37 -28 -17 -69 -12 -75 -61 -21 -92 -5 -43 -20 -88 -3 -22 -83 -44 -7 -62 -33 -10 -77 -42 -34 -1 -94 0
83 45 52 84 49 60 20 69 12 29 51 39 88 1 2 70 -3 -10 -63 -96 -42 -92 -5 -97 -35 -41 -66 -94 0
29 67 94 89 34 95 21 23 46 -38 -85 -6 -83 -65 -44 -49 -52 -54 -37 -63 -87 0
53 21 79 97 77 80 7 11 29 38 54 -22 -10 -46 -48 -64 -34 0
9 57 45 53 55 51 46 85 2 28 79 58 72 27 1 22 88 16 19 34 43 99 50 78 84 65 98 42 94 59 24 36 44 62 17 33 75 47 74 32 7 35 49 10 20 -38 -64 -91 -95 -89 -40 -30 -15 -11 -93 -87 -31 -81 -18 -80 -61 -13 -25 -39 -69 -23 -26 -76 -73 -60 -97 -4 -3 -66 -14 -63 -68 -6 -5 -82 -96 -77 -21 -37 -86 -70 -52 0
37 72 6 46 80 85 81 30 2 33 79 13 25 74 89 47 24 78 41 -16 -68 -94 -43 -50 -70 -53 -87 -60 -42 -19 -57 -77 -88 -26 -98 -76 -71 -28 -62 -23 -39 0
36 39 28 62 61 51 64 60 6 -21 -94 -41 -59 -3 -29 -23 -18 -84 0
50 61 47 91 55 78 63 16 38 66 8 75 57 87 84 34 81 65 10 89 82 48 12 64 7 92 2 3 94 44 28 35 43 69 25 20 41 30 60 58 56 97 83 37 -40 -11 -32 -36 -27 -21 -19 -88 -79 -18 -45 -52 -85 -31 -68 -73 -62 -96 -70 -9 -4 -14 -54 -26 -46 -72 -22 -23 -6 -74 -13 -67 -59 -51 -80 -29 -49 -42 -90 -1 0
50 89 3 42 28 -6 -8 -98 -20 -90 -83 -56 0
65 77 20 4 70 46 45 97 57 94 -96 -51 -56 -10 -29 0
8 69 84 20 12 29 78 23 30 56 40 28 98 81 13 96 11 83 67 2 41 4 73 75 77 51 -87 -3 -37 -90 -43 -18 -32 -33 -49 -66 -70 -6 -99 -27 -21 -63 -22 -31 -86 -85 -54 -52 -24 -64 -35 -95 -97 -60 0
15 6 8 18 93 40 24 34 9 47 41 67 58 45 54 49 2 83 -50 -80 -32 -51 -39 -19 -76 -12 -31 -79 -36 -62 -64 -20 -26 -21 -10 0
2 22 10 23 52 86 45 77 32 11 89 14 27 93 59 33 41 38 36 25 1 34 53 5 92 90 80 70 46 97 63 58 7 -66 -31 -28 -95 -72 -30 -67 -73 -69 -91 -81 -13 -60 -40 -51 -15 -44 -21 -88 -82 -42 -56 -12 -37 0
71 32 0
82 47 77 38 64 66 94 96 39 41 92 35 54 89 90 93 97 86 34 49 20 3 45 30 57 16 23 9 -50 -22 -99 -15 -87 -70 -88 -21 -5 -13 -17 -51 -69 -29 -63 -33 -32 0
98 11 26 31 41 12 5 87 64 66 25 71 56 75 45 27 47 -92 -76 -35 -46 -14 -39 -54 -80 -51 -3 -69 -33 -17 -73 -55 -62 -85 -13 -96 0
2 35 86 50 10 28 20 89 29 38 19 51 84 79 14 6 69 17 55 98 3 92 44 80 15 52 83 63 13 5 90 67 42 32 91 27 37 12 31 43 58 70 -23 -71 -41 -61 -72 -66 -85 -54 -1 -95 -25 -76 -77 -99 -7 -75 -33 -30 -73 -47 -34 -11 -78 -49 -48 -96 -57 -74 -36 -9 -64 -65 -24 -22 0
63 10 62 85 75 86 56 57 37 95 93 3 81 87 19 73 39 25 20 76 99 40 2 17 12 55 -1 -34 -74 -88 -64 -50 -70 -23 -79 -8 -83 -44 -90 -33 -14 -71 -9 -31 -38 -53 -98 -13 -78 -4 -94 -48 -77 -60 -42 -49 0
86 44 5 97 61 13 46 93 23 45 6 27 25 80 88 14 81 75 19 1 99 63 8 87 90 35 53 59 84 29 39 67 20 60 21 72 12 52 58 98 78 64 28 -26 -74 -48 -62 -66 -40 -31 -95 -96 -15 -22 -41 -55 -65 -54 -7 -43 -36 -70 -76 -56 -82 -16 -24 -47 -4 -34 -33 0
41 90 31 91 26 29 63 45 10 43 74 36 14 77 85 53 6 49 22 17 76 50 44 84 80 5 -64 -21 -96 -95 -62 -61 -89 -52 -55 -23 -93 -97 -16 -72 -51 -24 -75 -60 -82 -39 -46 -2 -54 -98 0
76 9 82 24 32 88 85 74 57 1 25 44 42 94 77 89 -31 -3 -91 -84 -52 -46 -61 -16 -54 -90 0
31 54 11 50 14 85 18 42 34 21 35 5 45 44 61 37 40 48 71 6 2 27 76 96 59 12 32 56 78 69 81 80 91 39 92 52 41 16 30 13 29 66 -43 -22 -33 -51 -75 -84 -64 -53 -90 -26 -94 -73 -98 -15 -97 -79 -70 -58 -82 -47 -1 -67 -62 -93 -83 -28 -24 -68 -89 -38 -55 -49 -74 -4 -77 -99 -20 0
78 68 58 59 65 54 41 50 96 56 85 44 87 82 55 39 86 18 69 52 15 43 66 74 5 31 -81 -61 -42 -30 -47 -89 -21 -92 -84 -51 -40 -88 -29 -38 -8 -72 -71 -46 -99 -94 -26 -97 -53 -36 -16 -4 -34 0
33 11 12 40 43 46 21 16 63 65 75 57 38 25 71 95 55 96 90 56 79 73 4 14 8 99 50 45 84 67 91 27 1 98 72 92 31 35 80 15 76 32 7 97 42 41 13 37 23 53 68 24 -47 -51 -5 -70 -74 -64 -20 -49 -62 -36 -85 -81 -61 -58 -93 -19 -59 -83 -89 -28 -54 -39 -29 -52 -2 -82 -34 -77 -87 0
46 82 78 42 35 92 66 75 49 28 47 41 5 48 26 31 38 -15 -76 -54 -18 -63 -60 -98 -52 -1 -81 -20 -79 -72 -67 -91 -36 -3 -7 -37 -57 -19 -77 -29 -6 0
23 9 32 90 21 79 69 -19 -70 -47 -29 -63 -88 0
22 15 89 90 82 37 9 39 92 94 38 83 61 49 58 -84 -51 -20 -72 -96 -35 -47 -66 -18 -78 -30 -98 -16 0
57 19 72 79 2 95 91 70 71 61 16 85 63 98 25 -55 -97 -31 -99 -12 -38 -64 -73 -10 -47 -82 -78 -13 -8 -83 -67 -15 0
91 29 58 51 98 92 88 46 23 5 30 32 21 89 27 78 -90 -69 -3 -80 -35 -97 -75 -72 -74 -65 -6 -43 -96 -39 -20 -7 -52 -1 -61 -57 0
15 14 19 1 81 42 26 24 12 -25 -27 -10 -89 -86 -13 -9 0
84 20 42 37 1 72 47 29 41 76 56 14 90 54 35 5 63 22 33 -6 -9 -44 -52 -32 -10 -68 -62 -82 -2 -67 -23 -51 -92 -85 -43 -4 -15 -8 0
70 74 85 52 86 67 18 6 10 63 41 58 16 53 14 72 40 36 44 15 30 5 32 64 49 98 75 43 54 45 83 47 89 77 24 37 69 22 33 78 28 4 51 -9 -17 -19 -91 -55 -27 -93 -68 -94 -23 -8 -61 -66 -81 -73 -42 -84 -29 -92 -48 -82 -56 -96 -1 -90 -13 -87 -97 -35 -57 -65 -88 -2 -26 -95 -59 -46 -12 -20 -79 -38 -21 -60 -31 -99 -80 -71 0
7 19 80 40 77 64 71 41 99 67 95 33 27 30 69 24 36 78 11 52 72 35 60 42 83 13 63 6 46 16 2 26 5 87 31 -62 -51 -89 -8 -15 -37 -18 -65 -90 -59 -84 -23 -25 -97 -9 -10 -54 -48 -70 -86 -93 -75 -81 -1 -38 -94 -34 -92 -44 -55 0
3 69 84 80 66 51 13 53 5 8 54 23 49 7 16 86 1 68 64 -10 -85 -14 -83 -88 -11 -44 -61 -15 -30 -46 -94 -9 -47 -12 -41 -56 -70 -87 -20 0
56 47 23 1 88 17 50 79 4 22 33 71 82 76 48 57 30 59 2 20 97 44 16 93 32 41 99 9 53 13 60 69 27 63 46 18 98 5 87 92 39 19 -11 -15 -31 -62 -49 -21 -86 -80 -61 -6 -75 -51 -14 -12 -54 -42 -64 -83 -77 -10 -29 -28 -74 -36 -52 -66 -3 -45 -65 -73 -7 -91 -96 -81 -89 -78 -8 -55 -68 -70 -38 0
22 72 18 21 99 4 7 23 39 64 49 63 76 79 1 51 44 57 29 70 52 45 56 19 78 27 33 67 84 88 47 48 10 95 61 -94 -86 -16 -58 -6 -77 -73 -13 -89 -50 -62 -83 -82 -35 0
49 37 30 34 50 72 99 70 35 11 77 87 76 26 -68 -56 -93 -13 -78 -4 -59 -62 -64 -92 -8 -57 -27 0
21 23 63 10 86 90 27 62 74 49 94 81 95 70 57 29 -8 -69 -59 -56 -22 -76 -17 -99 -92 -33 -25 -61 -96 -68 -58 -36 -13 -7 -65 -20 0
34 93 9 94 27 28 63 47 86 85 35 1 23 70 68 7 11 59 37 54 -77 -88 -90 -50 -91 -53 -82 -65 -16 -32 -79 -95 -56 -99 -39 -38 -89 -17 -20 -92 -5 -98 -24 -3 -44 -21 -96 -40 -62 0
95 6 71 33 87 18 65 59 86 31 15 52 70 21 38 12 82 36 17 9 73 96 76 -32 -13 -55 -39 -57 -89 -42 -25 -93 -88 -40 -48 -10 -51 -54 -24 -43 -80 -19 -26 -46 -5 -37 -2 -91 -90 -1 -41 -63 -98 -79 0
94 56 89 42 9 66 52 14 11 38 59 57 12 2 30 49 33 99 88 98 48 25 54 83 62 93 8 53 45 79 20 47 90 46 23 96 -85 -78 -4 -69 -63 -40 -72 -75 -60 -36 -6 -22 -1 -17 -86 -77 -97 -15 -7 -61 -87 -44 -27 -28 -92 -21 -82 -95 -74 -31 0
95 65 72 26 23 40 78 68 67 74 53 43 22 84 48 2 71 19 57 54 88 81 90 69 96 33 4 51 12 99 91 79 73 62 44 7 31 36 6 18 34 21 37 86 98 -85 -29 -77 -14 -58 -64 -46 -52 -38 -1 -87 -89 -15 -49 -30 -93 -59 -70 -50 -94 -75 -61 -82 -17 -9 -10 -41 -60 -56 -13 -11 -8 -28 -63 -66 -55 -16 -5 -47 -3 -42 -45 -24 -27 -80 -83 0
7 61 47 9 4 94 44 14 97 1 68 53 74 24 88 50 87 5 31 62 33 21 43 60 70 82 15 29 42 2 13 59 37 23 46 26 34 69 56 71 76 83 17 19 3 35 96 63 49 -66 -48 -79 -75 -45 -92 -90 -73 -64 -39 -18 -95 -65 -54 -11 -25 -52 -36 -55 -27 -81 -28 -6 -72 -57 -51 -78 -99 -85 -10 -12 -67 -91 -77 0
58 62 78 31 53 73 25 72 77 61 70 49 63 40 83 97 28 22 23 68 45 9 86 59 95 74 91 8 5 52 44 21 99 19 2 81 82 1 48 66 4 96 56 36 12 64 79 -26 -43 -6 -55 -15 -88 -20 -94 -57 -46 -90 -50 -33 -89 -10 -54 -41 -51 -75 -65 -7 -87 -84 -37 -27 -71 -11 -3 -69 -30 -92 -18 -34 -32 -42 -13 -24 -80 -29 -17 -14 -67 -39 0
9 90 63 26 76 77 57 95 98 19 60 2 66 39 8 49 87 17 89 85 64 92 42 54 32 46 78 75 43 28 69 61 14 83 93 45 -11 -53 -48 -24 -55 -96 -80 -50 -70 -3 -74 -41 -27 -73 -16 -97 -25 -18 -82 -52 -15 -12 -6 -62 -4 -67 -1 0
32 25 20 93 16 22 -84 -3 -82 -53 -19 -45 -58 -2 -87 -95 -29 -28 -68 -94 -41 0
18 93 15 14 80 24 62 79 25 85 67 68 97 55 10 91 42 28 70 56 40 26 6 72 20 21 39 35 46 2 61 48 -8 -76 -49 -53 -99 -45 -38 -36 -95 -50 -94 -57 -4 -98 -33 -77 -19 -34 -65 -89 -59 -87 -73 -44 -11 -60 -13 -74 -7 -78 -75 -30 -66 -22 -84 -12 -86 -29 -37 -63 0
12 56 85 27 97 9 13 17 44 58 93 31 69 37 35 -63 -4 -79 -51 -7 -77 -33 -23 -89 -94 -11 -75 -70 -86 -95 -90 -57 -61 -36 -88 0
15 13 72 24 11 46 23 12 43 82 91 16 32 9 55 1 77 31 74 41 -7 -22 -63 -90 -80 -37 -57 -10 -42 -52 -28 -96 -5 -76 -33 -69 -21 -36 -81 -50 -30 0
11 3 -84 -72 0
69 84 39 89 46 54 75 38 16 32 95 60 57 91 19 12 7 66 85 25 21 52 56 55 2 99 -34 -63 -82 -58 -10 -62 -83 -88 -1 -14 -13 -73 -35 -65 -11 -68 -74 -4 -43 -51 -3 -18 -5 -33 0
13 25 99 18 40 31 96 41 84 29 -8 -12 -42 -62 -61 -59 -48 -30 -82 -10 -63 -97 0
30 76 71 35 94 36 99 59 24 43 55 50 41 85 97 98 57 48 33 80 91 7 63 29 70 54 -40 -25 -65 -75 -17 -18 -66 -62 -39 -5 -87 -38 -34 -19 -69 -73 -74 -23 -31 -22 -81 -60 -49 0
40 86 -91 -13 0
20 67 90 6 36 79 50 43 16 18 21 93 7 68 53 24 28 37 9 15 25 88 33 58 96 60 47 31 1 2 -27 -95 -14 -76 -34 -85 -66 -81 -97 -5 -64 -12 -62 -59 -48 -57 -78 -41 -42 -82 -13 -51 -83 -32 -98 -35 -44 -70 -45 -3 0
74 36 30 41 26 48 -94 -82 -1 -80 -4 -16 -56 -78 0
35 30 57 10 79 33 29 59 -96 -74 -44 -51 -1 -43 -82 -6 -87 0
66 97 61 54 50 63 24 12 26 17 56 73 14 44 -83 -90 -2 -96 -29 -19 -13 -36 -70 -40 -95 -3 -10 -57 -59 -92 0
90 98 20 29 91 51 81 4 52 82 50 15 13 68 83 23 86 67 92 24 36 19 31 16 84 39 42 12 5 21 38 -25 -30 -99 -47 -22 -1 -88 -62 -40 -78 -37 -59 -49 -73 -14 -93 -10 -32 -71 -75 -35 0
22 46 12 83 58 73 68 15 55 64 88 67 33 81 98 59 25 80 8 13 37 97 54 45 51 74 95 43 39 4 94 61 84 28 34 47 41 85 71 93 65 11 -14 -17 -57 -27 -72 -90 -56 -79 -69 -18 -38 -87 -53 -1 -16 -99 -20 -42 -92 -89 -86 -40 -50 -60 -49 -36 -78 -48 -24 -10 -32 -77 -23 -5 -7 -44 -21 -9 -2 -70 -3 -76 -96 -35 0
66 64 22 94 81 2 28 26 87 97 8 79 91 40 54 39 62 12 45 36 37 50 69 92 34 42 13 27 83 19 59 85 61 77 31 14 41 99 71 29 5 -3 -90 -95 -51 -20 -47 -1 -46 -89 -56 -16 -11 -23 -75 -7 -10 -65 -44 -30 -70 -49 -17 -53 -24 -84 -98 -93 -35 -25 -57 -60 -43 -52 -73 -63 -80 -96 -58 -15 -68 -48 -86 -78 -72 -4 -67 0
29 44 43 65 93 97 25 70 66 51 21 82 10 56 78 40 13 -47 -87 -84 -99 -8 -74 -76 -92 -3 -94 -49 -89 -54 -69 -17 -1 -88 -52 -11 0
53 6 45 48 38 56 70 94 62 41 18 10 29 25 83 97 86 82 50 54 57 40 84 37 80 89 92 7 2 72 68 28 14 90 63 66 85 34 42 4 19 98 -78 -36 -1 -67 -27 -61 -71 -69 -51 -65 -23 -77 -75 -13 -8 -96 -99 -12 -31 -64 -60 -15 -33 -9 -73 -17 -93 -81 -49 -39 -3 -16 -55 -35 -59 -88 -76 -5 -47 -44 -20 -30 -26 0
71 46 51 31 -14 -8 0
1 26 81 -74 -96 -76 -40 -18 -13 -38 -65 -93 0
74 28 64 67 33 25 19 90 32 69 37 23 71 84 1 70 13 49 39 66 57 68 27 55 89 11 -86 -38 -99 -45 -96 -58 -85 -18 -8 -26 -82 -10 -80 -41 -46 -61 -88 -29 -78 -53 -30 -51 -15 0
89 39 90 64 79 -15 -6 -56 -86 -94 0
48 90 33 6 86 72 46 70 44 1 18 -61 -68 -56 -34 -45 -65 -13 -12 -42 -16 -31 -52 -96 -8 -95 -26 -7 -43 0
89 56 59 51 82 26 2 5 29 46 17 23 24 40 84 66 8 48 53 52 3 10 97 64 21 42 9 63 7 88 1 -34 -44 -96 -39 -77 -50 -94 -80 -19 -65 -60 -62 -22 -68 -11 -14 -69 -55 -33 -28 -36 -18 -43 -38 -45 -41 -35 -31 0
7 62 51 76 98 91 3 93 44 10 16 68 50 63 5 94 -24 -25 -30 -48 -40 -70 -22 -67 0
18 26 69 76 35 61 22 23 71 47 38 2 7 41 60 16 50 78 94 6 4 3 57 46 90 14 81 54 31 44 66 84 77 68 21 95 53 56 89 -52 -45 -39 -29 -85 -73 -27 -11 -62 -91 -37 -67 -20 -13 -25 -70 -19 -96 -40 -43 -33 -58 -36 -12 -24 -79 -32 -5 -98 -93 -75 0
49 53 54 84 14 92 82 47 69 9 44 65 4 25 20 85 51 5 75 67 33 45 39 28 31 2 26 42 35 32 72 -56 -48 -3 -12 -27 -89 -34 -15 -96 -30 -29 -21 -93 -68 -13 -88 -6 -66 -86 -10 -73 -81 -97 -79 -58 -74 -46 -11 -59 -57 -17 -36 -41 -43 -83 -80 -60 -76 -50 -22 -90 -62 0
97 84 86 9 53 55 80 95 24 88 6 83 14 91 54 23 51 46 16 62 44 33 34 5 -7 -70 -36 -27 -71 -17 -92 -48 -12 -82 -60 -30 -29 -56 -73 -87 -4 -65 -90 -74 -72 -37 -22 -45 -94 -81 -63 -85 0
96 3 17 30 21 51 71 16 45 13 95 52 15 63 89 31 32 75 6 92 39 55 98 87 49 78 82 61 72 65 7 42 47 14 57 64 85 50 29 44 76 54 24 79 10 38 33 25 -20 -41 -70 -1 -35 -36 -11 -83 -22 -2 -43 -67 -69 -77 -46 -86 -53 -56 -68 -80 -4 -58 -84 -88 -12 -27 -60 -91 -26 -8 -73 -59 -9 -81 -5 -23 -99 -18 -19 -34 -48 -94 0
-72 -59 -21 0
21 62 38 91 86 29 70 67 57 99 46 97 10 9 98 -50 -53 -64 -65 -47 -37 -41 -8 -36 -49 -34 -89 -25 -74 -13 -39 -30 -48 -51 -6 -7 -12 -75 -92 -60 0
50 56 63 27 43 85 19 35 40 20 31 5 4 88 84 46 53 24 75 79 32 37 51 61 39 96 6 89 52 97 58 29 49 30 -71 -22 -86 -48 -12 -70 -55 -26 -14 -57 -77 -78 -36 -1 -21 -17 -83 -90 -13 -25 -33 -87 -11 -72 -47 -44 -68 -38 -42 -98 -92 -3 -73 -18 -80 -28 -9 -45 -2 -41 -66 -23 -16 -74 0
5 24 74 25 42 45 41 75 19 11 46 78 43 89 50 61 67 10 6 30 70 1 60 20 85 -81 -47 -7 -83 -28 -62 -44 -72 -58 -98 -39 -35 -14 -15 -93 -86 -66 -92 -63 -26 -33 -94 -96 -69 -13 -77 -64 -53 -65 -2 -68 0
10 76 16 38 24 88 13 35 62 23 21 8 54 91 59 46 89 32 15 3 60 11 39 96 84 28 67 20 87 40 93 -12 -66 -5 -6 -75 -99 -43 -37 -71 -72 -57 -2 -58 -78 -14 -18 -49 -1 -7 -52 -68 -19 -61 -81 -55 -48 -90 -47 0
38 12 7 -16 -37 -93 -98 -51 0
49 94 51 47 48 77 6 99 69 28 33 22 42 20 16 80 3 93 46 53 5 67 84 11 44 37 24 83 17 39 74 8 26 98 2 72 60 56 23 95 21 57 13 -9 -10 -66 -89 -68 -90 -75 -14 -29 -88 -62 -30 -41 -1 -50 -27 -78 -7 -81 -18 -40 -59 -86 -12 -70 -96 -91 -45 -63 -52 -73 -55 -19 -64 -79 0
22 88 78 57 18 98 91 8 6 19 61 27 53 58 44 21 42 63 24 38 32 29 41 26 5 99 51 94 74 87 97 84 16 31 49 79 10 39 50 65 20 90 -14 -82 -52 -1 -77 -71 -66 -2 -30 -15 -86 -64 -70 -23 -95 -7 -43 -46 -34 -4 -81 -25 -60 -56 -80 -85 -13 -17 -47 -62 -35 -37 -48 -75 -36 -83 -59 -12 -40 -73 -28 -11 -33 -9 -96 -92 0
39 36 18 66 44 20 83 69 -46 -78 -98 -79 -51 -17 -90 -59 -84 0
31 17 73 60 20 44 90 97 85 71 63 33 72 75 74 42 22 82 91 43 96 29 6 21 93 39 19 88 41 99 62 86 4 49 45 23 68 50 87 48 16 12 84 81 95 64 13 94 -1 -47 -54 -53 -5 -24 -51 -10 -80 -92 -7 -15 -40 -52 -67 -79 -25 -76 -89 -66 -37 -27 -98 -3 -61 -58 -78 -26 -56 -57 -46 -18 -2 -70 -34 -38 -32 -69 -28 -8 -65 -36 -59 -77 0
26 96 7 92 60 43 57 36 38 84 94 54 20 32 63 93 66 97 1 46 77 31 21 25 80 34 88 70 74 22 83 45 91 18 48 61 13 79 82 15 28 49 78 2 19 29 11 52 -99 -42 -75 -40 -81 -72 -58 -50 -24 -12 -65 -39 -33 -62 -23 -76 -56 -53 -3 -37 -27 -16 -10 -64 -17 -95 -86 -59 -67 -4 -41 -87 -8 -51 -68 -35 -6 -44 -71 -14 -69 -85 -47 -98 -30 -5 -9 -55 -89 0
44 15 70 28 45 39 60 75 91 30 36 24 42 -76 -83 -53 -79 -98 -68 -61 -11 -65 -58 -94 -50 -35 -77 -80 -10 -19 -7 -3 -40 -81 0
43 29 78 57 55 37 59 39 87 4 12 68 61 23 30 -5 -73 -2 -60 -86 -76 -11 -27 -82 -6 -32 -16 -64 -3 0
11 77 23 -96 -5 0
84 83 59 46 37 72 92 2 24 70 13 93 50 67 1 45 69 7 89 15 98 32 90 57 30 53 71 9 63 52 73 43 20 6 58 29 68 62 87 41 94 28 -26 -54 -76 -65 -11 -35 -3 -17 -91 -40 -61 -77 -78 -42 -21 -4 -60 -99 -22 -79 -18 -16 -81 -48 -10 -88 -23 -19 -75 -12 -31 -8 -97 -47 -49 -80 -64 -96 -34 -95 -74 -33 -66 -39 -55 0
72 88 66 98 44 84 46 95 64 83 2 33 35 87 3 23 38 81 54 52 28 16 70 53 30 56 32 13 59 7 55 18 99 48 96 25 91 49 62 97 73 10 4 45 78 37 77 69 34 68 8 -76 -19 -6 -29 -67 -21 -51 -14 -94 -42 -40 -79 -36 -11 -39 -43 -12 -74 -26 -63 -82 -24 -47 -50 -86 -17 -20 -27 -75 -61 -85 -1 -92 -58 -71 -41 -15 -89 -93 -5 -90 -22 -80 -9 0
40 80 45 58 42 89 8 38 55 39 21 67 29 2 66 37 73 84 3 27 97 81 36 78 32 70 49 59 94 57 53 -34 -17 -10 -61 -1 -47 -52 -26 -85 -88 -51 -48 -63 -76 -30 -14 -24 -16 -74 -19 -64 -20 -12 -79 -77 -69 -54 -9 0
79 5 21 84 52 57 33 27 15 24 13 93 8 44 39 86 43 81 58 85 73 50 62 12 25 87 10 42 99 7 60 64 94 45 -36 -76 -59 -32 -4 -29 -11 -67 -51 -20 -18 -47 -92 -88 -28 -30 -35 -98 -82 -70 -77 -1 -90 -48 -89 -34 -68 -41 -37 -54 -6 -46 -49 -38 -9 -72 -91 -17 -83 -55 -26 -61 0
73 12 33 79 44 39 53 38 89 92 40 75 76 64 17 5 60 24 19 31 34 29 74 8 77 95 7 91 6 23 50 81 82 83 37 93 51 32 35 43 22 90 58 -86 -54 -42 -99 -97 -87 -47 -3 -57 -45 -20 -25 -59 -63 -85 -84 -14 -56 -49 -62 -4 -98 -21 -96 -48 -2 -70 -72 -27 -68 -16 -26 -80 -67 -88 0
98 71 19 94 60 -38 -6 -58 0
39 50 49 46 63 14 97 99 26 94 88 19 29 81 92 70 93 17 34 25 87 40 79 31 80 15 56 54 -66 -65 -68 -24 -2 -3 -53 -6 -55 -58 -64 -9 -22 -16 -48 -69 -96 -61 -45 -52 -83 -84 -74 0
79 42 53 71 57 50 10 60 6 36 93 61 -66 -4 -2 -81 -21 -83 -13 -26 0
82 22 64 45 2 32 96 33 -35 -37 -38 -60 -61 -98 -90 0
46 82 73 86 67 39 75 -18 -88 -5 -15 0
63 31 9 42 88 4 40 52 95 48 28 70 69 25 53 54 -17 -30 -39 -21 -72 -16 -15 -92 -59 -41 -45 -73 -87 0
22 28 9 94 95 84 78 13 92 44 60 29 76 2 39 21 68 80 40 70 66 96 91 43 36 17 20 31 8 4 85 -63 -37 -18 -54 -15 -75 -1 -79 -93 -11 -16 -32 -41 -47 -50 -77 -27 -65 -86 -51 -88 -5 -52 -3 -67 -46 -7 -62 -53 -58 -23 -26 -34 0
74 90 83 45 14 30 98 38 64 17 29 4 56 42 66 9 59 5 60 26 85 11 92 3 18 84 32 76 54 44 50 69 51 23 79 13 -15 -47 -55 -41 -35 -80 -68 -88 -28 -96 -73 -20 -49 -37 -48 -7 -86 -65 -25 -22 -63 -24 -77 -61 -95 -57 -72 -82 -70 -1 -93 -53 0
59 71 42 21 85 57 96 18 24 15 12 62 29 99 26 47 19 65 17 49 40 27 73 30 20 56 23 3 78 46 11 48 54 63 41 77 13 58 66 52 76 50 88 87 35 75 36 86 34 95 98 90 -60 -94 -69 -80 -31 -43 -55 -97 -10 -33 -72 -14 -74 -1 -81 -51 -38 -89 -67 -32 -93 -9 -68 -2 -83 -79 -44 -92 -8 -28 -39 -70 -5 -37 -22 -64 -16 -82 -91 -25 -84 0
14 13 52 82 44 83 68 40 54 16 6 42 20 8 12 80 11 25 -55 -93 -56 -65 -89 -5 -49 -60 -61 -41 -45 -38 -71 -36 -35 -23 -21 -9 0
79 53 65 99 2 64 40 44 5 45 85 9 22 92 26 74 95 16 61 19 68 41 50 56 4 6 3 1 59 70 67 84 17 46 76 87 -54 -33 -21 -66 -77 -72 -12 -31 -89 -97 -8 -80 -88 -43 -42 -30 -62 -36 -48 -60 -47 -13 -35 -98 -91 -49 -24 -38 -34 -81 -96 -15 -93 -83 -63 -86 -51 -69 -57 -23 0
7 69 64 67 22 81 12 75 47 83 60 57 23 11 20 97 1 17 99 93 53 84 72 44 89 46 50 16 98 8 88 25 65 41 6 30 24 -34 -95 -54 -92 -18 -56 -49 -74 -86 -28 -87 -80 -35 -52 -82 -48 -36 -62 -45 -31 -29 -43 -32 -90 -58 -51 -71 -78 -73 -38 -3 -59 -77 -37 -40 -39 -13 -79 -21 -96 -68 -42 -61 -2 -19 -76 -4 -27 -10 -9 -85 -14 0
41 37 17 98 9 48 90 32 72 76 91 75 -63 -12 -40 -19 -2 -8 -88 -7 0
94 75 40 91 51 77 26 18 -88 -41 -63 -44 -50 -15 -87 -3 -65 -60 -27 -79 -97 -73 -89 -78 -57 -83 0
26 64 75 41 2 79 90 69 34 97 36 35 61 84 78 16 9 -99 -83 -8 -28 -6 -10 -76 -25 -87 -44 -65 -22 -66 -56 0
17 88 49 60 8 83 14 68 43 32 98 22 2 28 55 29 99 82 93 10 84 -56 -47 -37 -53 -91 -20 -58 -5 -44 -87 -27 -26 -19 -72 -50 -81 -41 -40 -73 -39 -13 0
35 81 43 16 19 22 96 4 8 54 39 50 11 94 26 74 61 37 89 9 77 99 53 32 97 82 71 44 38 75 76 28 47 95 93 24 98 -59 -91 -84 -80 -15 -64 -5 -55 -85 -63 -86 -51 -58 -21 -57 -3 -1 -70 -14 -40 -34 -60 -27 -66 -36 -25 -48 -45 -20 -83 -23 -90 -17 -42 -52 -30 -2 -31 -79 -46 0
22 56 26 14 83 36 -28 -84 -27 -76 -12 -55 0
17 35 14 13 47 6 20 85 76 93 50 28 77 92 95 39 10 69 34 49 75 26 9 88 29 61 42 11 8 68 37 64 97 67 -82 -1 -72 -56 -79 -62 -3 -78 -16 -73 -58 -65 -5 -59 -2 -32 -66 -24 -27 -81 -18 -15 -23 -84 0
7 43 32 90 35 53 37 11 74 87 62 82 98 46 1 78 26 97 16 -30 -33 -83 -65 -48 -28 -40 -8 -5 -23 -76 -66 -94 -38 -51 -3 -57 -93 -44 -49 0
19 61 48 36 42 24 14 74 34 41 40 45 79 75 90 9 54 16 10 96 94 70 78 87 50 37 91 88 99 80 35 89 27 46 69 21 98 7 -71 -92 -2 -15 -81 -11 -39 -58 -59 -47 -22 -72 -17 -67 -66 -25 -57 -18 -43 -93 -31 -38 -26 -83 -85 -55 -68 -53 -63 -28 -64 -23 -1 0
47 58 23 43 10 6 73 84 15 83 51 77 63 68 69 70 30 78 80 91 86 99 46 5 24 92 12 19 66 39 13 16 29 65 87 37 25 -38 -72 -89 -45 -52 -44 -60 -11 -22 -96 -42 -54 -90 -82 -17 -56 -20 -61 -8 -93 -85 -76 -31 -64 -95 -9 -55 -36 -53 -75 -50 -49 -59 -94 -62 -79 -34 -40 -57 -3 -32 -71 -97 -28 -1 0
4 55 13 37 32 46 63 89 70 42 12 44 82 33 43 83 87 31 34 22 85 66 53 69 59 54 79 45 90 71 -16 -10 -25 -48 -7 -2 -97 -11 -36 -18 -56 -23 -96 -20 -76 -38 -67 -68 -57 -35 -17 -84 -3 -73 -27 -40 -50 -47 -14 -98 -41 -86 -95 -78 -24 -77 -81 -9 -29 -39 -28 -5 -30 -61 -8 0
99 87 42 37 50 82 71 8 2 53 56 23 67 81 3 20 44 92 29 4 32 48 76 15 19 64 30 39 28 95 73 93 98 47 26 52 24 45 89 41 55 84 33 21 61 -90 -10 -83 -62 -49 -58 -18 -22 -85 -94 -9 -79 -78 -70 -88 -96 -40 -38 -12 -16 -66 -60 -13 -68 -1 -77 -97 -6 -14 -59 -63 -27 -11 -7 -17 -75 -36 -51 -72 -35 -31 -57 -43 -74 -69 -46 -25 -86 -5 -34 0
43 29 53 12 41 83 64 50 45 10 49 95 58 63 75 94 65 36 26 11 27 5 -69 -23 -40 -38 -37 -59 -3 -81 -74 -34 -31 -77 -82 -19 -84 -14 -16 -72 -8 -30 -33 -97 -68 -62 -98 -70 -24 -22 -42 -13 0
11 30 99 8 -48 0
89 63 47 53 41 31 43 86 14 2 19 70 79 72 46 98 76 29 55 74 90 -81 -8 -93 -66 -40 -32 -82 -49 -35 -6 -80 -27 -4 -9 -69 -99 -58 -25 -13 -38 -10 -39 -24 -88 -52 -73 -78 0
88 14 60 37 80 19 51 15 9 55 -33 -83 -30 -21 -65 -69 -58 0
12 49 29 -20 -63 -24 -18 -10 0
97 56 25 76 48 16 26 66 95 7 81 75 98 80 68 49 79 92 5 28 85 46 71 67 39 82 24 12 3 8 31 70 53 73 22 84 52 33 43 72 58 44 69 93 -64 -65 -10 -30 -4 -59 -11 -17 -6 -91 -2 -83 -63 -14 -77 -35 -29 -27 -1 -38 -96 -62 -21 -37 -42 -50 -74 -61 -15 -36 -57 -94 0
90 74 36 67 33 86 87 43 34 48 98 45 18 24 89 23 57 50 75 83 6 11 14 93 71 65 10 84 7 12 73 21 54 1 81 4 3 16 -39 -76 -62 -19 -26 -20 -59 -63 -58 -80 -25 -38 -51 -13 -99 -82 -85 -66 -95 -5 -97 -79 -22 -15 -8 -94 -53 -91 -27 -60 -30 -72 -46 -52 -42 -49 -96 -44 -56 -88 -32 -47 -68 -31 -92 -9 -35 -37 -70 -61 -17 -28 -77 -55 -29 -69 -2 -64 0
7 12 48 50 65 11 30 94 93 22 99 58 82 5 25 43 6 37 80 34 -60 -76 -20 -13 -27 -51 -16 -3 -75 -54 -52 -79 -95 -90 -86 -70 0
89 33 50 27 97 21 3 80 76 19 78 -44 -42 -4 -55 -88 -91 -13 -58 -28 -90 -66 -68 -63 -24 -16 -18 -99 -85 -74 0
40 89 31 4 87 5 36 16 13 54 -85 -57 -92 -45 -14 -91 -88 -8 -60 -49 -9 -84 -2 -17 -63 -32 -78 -51 -52 -24 -58 0
94 45 53 46 38 58 37 55 2 54 23 78 36 -30 -84 -27 -52 -18 -67 -90 -80 -82 -57 -47 -35 -60 -62 0
8 45 89 57 97 75 4 -80 -69 -76 -32 -81 -21 0
20 33 78 64 37 60 98 97 15 70 90 91 10 71 26 76 29 53 95 74 69 18 75 49 82 3 55 57 -9 -38 -51 -56 -28 -96 -6 -87 -61 -81 -77 -31 -50 -19 -24 -89 -72 -54 -13 -43 -21 -86 -63 -1 -68 -32 -41 -40 -62 -16 -22 -44 -94 -65 -52 -14 -27 -83 -46 -88 -5 -92 -2 0
78 7 97 72 81 17 68 -98 -9 -14 -62 -35 -76 -90 -86 -22 -15 -84 -6 -39 0
46 78 28 16 2 71 73 83 34 -61 -68 -79 -49 -18 -97 -24 0
30 53 8 73 68 93 99 82 51 90 59 25 33 80 83 44 1 65 89 34 43 72 24 46 69 21 13 26 97 28 76 35 98 31 60 47 27 78 95 56 81 23 52 -64 -22 -37 -2 -84 -57 -70 -77 -11 -32 -42 -5 -9 -12 -15 -96 -20 -61 -87 -79 -94 -4 -16 -49 -6 -63 -14 -86 -66 -39 -48 -36 -91 -10 -54 -85 -38 -3 -58 -67 -71 -7 -19 -45 0
24 3 75 66 41 85 13 68 25 81 7 32 87 71 16 60 99 33 46 58 37 94 67 22 18 96 49 43 34 20 10 59 77 70 17 26 57 93 74 63 45 79 -62 -40 -76 -61 -84 -30 -14 -91 -21 -48 -82 -55 -97 -73 -42 -64 -35 -28 -83 -1 -23 -50 -47 -72 -88 -12 -15 -6 -2 -44 -52 -89 -69 -27 0
70 49 73 61 87 67 53 82 10 38 95 52 79 16 56 66 76 77 29 75 90 81 92 80 71 50 34 26 20 28 15 84 25 64 8 18 57 97 93 11 33 32 1 5 40 36 -96 -55 -46 -74 -69 -63 -98 -6 -54 -78 -9 -23 -2 -58 -14 -45 -39 -43 -86 -83 -7 -65 -59 -51 -35 -42 -91 -4 -68 -85 -21 -47 -22 -30 -19 -62 -48 -27 -3 -17 -24 -12 -72 -99 -31 -44 -94 -13 0
41 31 95 98 19 39 44 74 87 80 93 58 -6 -94 -59 -86 -77 -60 0
90 30 54 12 79 75 85 49 82 26 78 83 63 33 16 44 37 59 35 13 31 69 28 48 84 60 99 92 34 9 51 93 80 81 58 72 -68 -14 -20 -46 -57 -94 -56 -5 -43 -7 -74 -36 -18 -10 -50 -53 -32 -1 -61 -88 -71 -70 -6 -64 -23 -40 -11 -86 -24 -21 -89 -65 -25 -15 -97 -27 -87 -76 -55 -29 -45 -66 -73 -4 -98 -19 -8 -91 -47 0
48 22 47 32 21 16 38 95 4 63 89 20 72 9 80 35 42 11 53 34 2 98 44 84 61 5 50 67 25 18 28 82 -30 -31 -77 -57 -51 -41 -40 -17 -23 -65 -8 -86 -78 -88 -68 -43 -64 -26 -92 -96 -33 -12 -73 -74 -46 -15 -54 -60 -94 -87 -91 -10 -90 -85 -83 -39 -97 -56 -69 -29 -6 -24 -99 0
75 62 69 74 79 14 5 83 -66 -99 -16 -93 -29 -76 -4 -35 -8 -26 -67 -30 0
32 6 66 75 89 26 96 65 98 82 70 10 3 5 18 24 58 38 61 22 37 53 80 57 8 50 49 55 94 63 36 2 -46 -69 -9 -62 -54 -90 -56 -44 -71 -39 -74 -33 -14 -97 -34 -13 -84 -17 -35 -20 -81 -31 0
65 84 3 61 70 69 21 78 6 11 89 14 55 85 67 80 19 62 40 17 71 38 29 36 56 98 25 39 83 -4 -41 -1 -43 -51 -72 -60 -28 -57 -33 -88 -16 -59 -50 -86 -30 -27 -99 -31 -22 -58 -75 -82 -90 0
33 32 52 19 38 57 84 78 6 46 24 56 61 80 50 36 76 72 67 83 68 34 44 93 11 82 64 -14 -31 -37 -98 -4 -10 -97 -99 -35 -74 -16 -62 -39 -86 -87 -60 -5 -90 -13 -29 -66 -94 -59 -2 -42 -70 -12 -20 -88 -30 -9 -63 0
60 4 72 74 90 86 32 81 50 46 27 65 53 38 13 2 16 71 30 49 6 23 7 93 85 19 48 96 39 28 41 68 35 64 87 92 5 18 44 43 75 34 -82 -47 -88 -99 -51 -37 -91 -25 -20 -80 -42 -15 -78 -54 -33 -94 -76 -8 -79 -10 -69 -59 -21 -36 -67 -12 -14 -24 -97 -58 -61 -11 -66 -9 -98 -26 -77 -89 -29 -17 -83 -70 -84 -55 -57 -3 0
25 68 36 71 50 37 84 72 26 79 56 31 80 57 32 77 7 14 64 24 28 86 -91 -43 -16 -33 -58 -59 -75 -99 -60 -97 -85 -66 -44 -35 -4 -41 -53 -21 -30 -11 0
44 19 60 53 64 68 24 99 67 8 49 63 52 59 43 23 73 32 28 38 16 65 7 1 -95 -46 -45 -80 -78 -31 -25 -11 -14 -50 -22 -55 -71 -29 -20 -6 -54 -35 -34 -97 -2 -85 -27 -41 0
87 96 84 23 72 -27 -7 -30 -55 -75 -28 -34 0
14 57 60 -50 -64 -76 -56 -19 -74 -82 -27 0
13 65 82 4 27 84 90 3 92 64 43 74 72 17 38 66 26 80 11 32 20 93 81 42 -88 -19 -96 -49 -28 -14 -47 -2 -9 -67 -8 -70 -86 -10 -30 -71 -79 -37 -54 -50 -41 -91 -45 -46 -98 -6 -57 -35 -62 -44 0
98 3 49 31 9 80 26 57 1 53 61 78 84 81 65 67 79 76 59 70 51 30 24 88 77 60 7 44 18 6 45 69 -27 -34 -40 -55 -28 -10 -11 -50 -19 -73 -86 -91 -20 -5 -63 -62 -38 -64 -13 -21 -83 -37 -92 0
65 62 45 52 81 38 86 18 68 85 91 84 -3 -1 -22 -32 -53 -56 -12 -29 -35 -27 -39 -88 0
85 81 34 30 57 26 75 46 32 90 38 39 19 12 53 99 37 65 54 44 94 62 -36 -78 -76 -28 -73 -42 -20 -7 -84 -25 -49 -50 -98 -92 -67 -80 -31 0
1 9 42 76 84 79 26 18 7 99 75 83 78 62 67 14 52 97 35 12 63 93 53 82 23 38 91 43 32 31 40 48 15 54 20 10 22 16 92 98 61 4 -6 -57 -95 -81 -25 -88 -59 -2 -19 -65 -3 -30 -71 -86 -45 -70 -96 -89 -29 -72 -27 -17 -50 -11 -41 -60 -5 -87 -74 -33 -51 -37 -58 -36 -47 -66 -49 -94 0
54 46 48 22 94 95 17 84 3 68 96 87 62 53 93 26 25 2 13 44 72 -77 -80 -98 -81 -70 -9 -59 -6 -50 -97 -34 -11 -60 -23 -92 -49 -88 -55 -39 -20 -67 -14 -36 -74 -91 -19 0
23 4 7 99 42 88 57 62 25 19 30 28 97 29 67 53 58 82 85 27 14 -5 -21 -35 -66 -48 -51 -8 -72 -12 -18 -95 -31 -80 -86 -68 -3 0
7 37 33 18 28 16 94 38 97 12 50 45 96 51 61 67 78 30 4 65 52 95 86 34 32 44 41 89 56 49 63 20 24 79 75 13 84 60 8 42 76 59 99 98 3 69 55 -5 -87 -46 -26 -25 -74 -93 -73 -90 -70 -22 -43 -64 -77 -62 -1 -88 -80 -6 -85 -58 -40 -36 -23 -21 -10 -19 -29 -71 -81 -57 -35 -39 -68 -2 -11 -17 -54 -14 -92 -31 -91 -82 -48 -72 -66 -83 -47 -27 -15 0
70 8 2 29 16 71 28 31 26 76 80 63 72 24 47 43 13 83 58 55 1 91 32 49 19 89 25 39 86 22 30 -54 -6 -59 -79 -84 -87 -10 -93 -41 -65 -51 -12 -9 -73 -45 -96 -60 -23 -69 -52 -53 -82 -20 -14 -17 -3 -99 -81 -21 0
29 1 84 74 20 90 46 71 25 27 42 39 34 88 32 94 77 48 85 3 60 4 69 40 86 18 64 63 81 57 -12 -5 -54 -96 -37 -70 -17 -91 -61 -41 -6 -49 -95 -62 -52 -83 -38 -59 -9 -79 -97 -80 -73 -55 -50 -28 -43 -47 -19 -16 -2 -7 -35 -75 -82 -93 -99 -36 -24 -72 -89 -58 -22 -14 -44 -31 -13 -30 -33 0
69 35 52 26 59 49 93 14 7 65 43 98 30 -53 -50 -78 -80 -17 -44 -36 -81 -2 -29 -51 -8 -68 -48 -56 -88 -74 -25 0
20 57 73 1 83 49 2 52 30 77 64 93 69 87 96 47 13 45 26 95 37 70 97 59 23 56 5 74 65 10 51 -40 -14 -16 -84 -25 -66 -31 -7 -76 -44 -90 -28 -9 -41 -72 -22 -78 -99 -62 -63 -89 -82 0
20 27 50 54 41 42 43 12 63 38 52 62 24 28 2 59 26 18 29 76 53 91 13 30 89 25 -68 -57 -66 -8 -60 -37 -70 -32 -97 -14 -48 -84 -34 -71 -74 -11 -85 -82 -46 -86 -19 -88 -35 -33 -99 -56 -98 -75 0
94 75 10 35 90 37 53 1 22 95 43 17 19 42 54 13 21 77 71 12 38 -45 -74 -46 -30 -2 -44 -5 -29 -80 -98 -47 -60 -87 -18 -85 -28 -32 -89 -79 -24 -56 -82 -66 -3 -55 -36 -20 -78 -26 -40 -33 -6 -34 -48 -61 0
6 75 10 81 60 52 45 30 35 4 55 41 24 11 21 72 -27 -65 -97 -84 -91 -22 -51 -44 -15 -82 -69 -88 -3 -32 -20 -37 0
32 75 84 59 23 66 70 77 52 8 13 90 30 3 97 7 36 27 16 46 61 60 6 68 57 87 99 41 62 -49 -2 -37 -9 -92 -81 -4 -44 -34 -50 -45 -93 -89 -76 -88 -78 -40 -67 -47 -94 -14 -96 -15 -1 -28 -95 -10 -43 -82 -24 -83 -73 -65 -31 -18 -19 -29 -91 -17 -64 -54 -63 -20 -98 -12 -79 -69 -35 -33 -86 -72 -38 -26 0
35 10 84 68 79 99 93 20 2 4 28 -47 -29 -96 -13 -57 0
40 4 89 34 19 33 22 46 99 -50 -20 -42 -62 -91 -60 -18 -52 -25 -80 -59 -69 -27 -17 -38 -1 -43 -90 -31 -57 0
87 21 8 86 71 45 83 15 9 17 53 75 39 44 36 4 92 22 77 67 62 95 3 31 48 38 99 69 47 18 80 1 61 93 14 -29 -94 -13 -37 -55 -11 -26 -6 -19 -73 -28 -97 -56 -35 -98 -57 -16 -59 -40 -7 -66 -51 -27 -2 -82 -91 -64 -85 -89 -63 -10 -54 -25 -50 -81 0
39 -36 -1 -85 -22 -41 -80 0
64 63 54 28 32 62 78 2 17 4 51 92 72 50 91 61 26 9 18 57 65 55 7 70 31 90 13 5 42 43 99 52 39 29 -33 -98 -83 -53 -16 -77 -19 -6 -1 -56 -24 -84 -36 -71 -44 -88 -85 -38 -35 -94 -37 -74 -45 -80 -60 -48 -40 -79 -20 -59 -87 -27 -46 -34 -81 -86 -11 -93 -73 -14 -68 -21 -41 -12 0
97 2 34 84 44 15 24 74 94 61 80 -20 -89 -33 -28 -60 0
57 72 82 47 92 9 49 61 22 40 62 69 87 89 85 75 53 74 7 34 81 30 -32 -94 -48 -70 -95 -26 -12 -36 -16 -79 -67 -45 -66 -83 0
1 29 92 21 3 51 56 76 -35 -10 -48 -5 -32 -60 0
58 6 28 3 -40 0
16 1 97 94 90 38 83 25 17 98 66 -53 -48 -71 -72 -78 -92 -67 -75 -8 -87 -20 -80 -3 -84 -47 -12 -60 -64 -41 -10 0
11 20 43 -36 -86 -74 -94 0
19 -99 0
84 14 36 59 48 3 26 11 76 46 52 65 81 10 61 28 13 7 39 85 92 43 9 1 80 95 53 -68 -23 -4 -75 -94 -25 -79 -29 -45 -98 -60 -17 -44 -63 -40 -90 -18 -32 0
23 69 51 22 11 4 97 73 6 8 39 55 64 92 52 14 78 20 36 45 18 57 35 79 1 5 72 86 76 80 40 70 89 38 74 -88 -24 -65 -47 -83 -21 -91 -49 -17 -98 -50 -59 -66 -12 -61 -62 -68 -15 -44 -81 -82 -26 -30 -43 -95 -9 -60 -48 -58 -13 -10 -31 -34 0
97 20 89 -78 -74 -18 -1 0
15 -96 -11 0
59 93 34 72 76 14 64 58 43 75 4 92 71 46 49 85 39 88 42 44 22 95 74 35 31 67 79 65 60 40 11 80 29 55 38 37 20 30 21 2 24 16 32 -52 -77 -73 -19 -99 -23 -51 -1 -17 -98 -36 -61 -57 -78 -84 -10 -15 -94 -87 -7 -66 -25 -69 -86 -9 -63 -83 -26 -12 -5 -41 -53 -45 -96 -56 -82 -97 -89 -90 -8 -47 -27 -33 -48 -18 -70 -54 -28 -62 -50 -13 -6 -3 -91 0
20 14 57 25 67 11 42 75 88 15 12 44 98 1 21 79 43 27 68 46 61 89 91 69 48 80 76 7 97 82 64 5 58 59 6 18 31 45 63 66 93 22 8 92 47 30 35 9 13 -24 -78 -41 -71 -2 -74 -26 -39 -17 -16 -36 -28 -54 -53 -83 -29 -85 -77 -96 -34 -49 -55 -65 -52 -99 -19 -90 -32 -23 -87 -70 -37 -60 -62 -56 -95 -50 -4 -84 -51 -86 -72 -38 -10 -40 -81 -33 0
96 76 82 78 9 62 21 80 43 83 39 2 58 -89 -27 -15 -23 -74 -48 -77 -63 -71 -26 -51 -72 -91 -22 -99 -29 0
22 39 38 96 81 44 11 10 93 5 53 74 3 94 63 64 -54 -17 -76 -99 -90 -75 -70 -62 -77 -23 -55 -60 -25 -9 -35 0
50 4 73 92 12 13 74 21 51 7 83 52 -89 -38 -86 -32 -55 -18 -87 -76 -80 -63 -62 -59 -24 0
19 13 93 5 28 54 92 24 80 23 43 52 12 22 85 49 14 69 20 56 87 17 34 68 65 35 79 38 27 66 84 63 73 78 -42 -33 -6 -59 -50 -71 -3 -74 -86 -31 -15 -64 -40 -44 -91 -47 -45 -96 -57 -39 -46 -41 -88 -8 -16 -97 -61 0
28 89 73 9 6 84 95 29 56 -59 -79 -7 -91 -34 -32 -10 -96 -36 -99 -52 -71 -64 -19 -16 -12 -76 0
22 71 62 21 9 82 79 38 39 64 77 85 3 94 31 -29 -33 -74 -50 -81 -84 -75 -76 -1 -11 -61 -55 -89 -4 0
12 60 34 18 97 33 32 5 94 93 54 9 46 68 17 95 23 87 29 70 15 -44 -92 -52 -42 -85 -30 -83 -21 -22 -76 -81 -36 -79 -10 -49 -55 -73 -88 -6 -31 -11 -37 -13 -56 -58 -80 -51 0
77 5 99 62 30 43 56 58 12 11 39 96 42 -50 -32 -28 -86 -49 -61 -6 -19 -67 -66 -63 0
88 75 85 58 86 97 78 70 9 66 10 17 11 64 18 5 80 89 7 25 94 98 1 83 22 63 48 62 56 57 53 4 52 74 61 13 87 39 50 93 90 43 23 41 30 79 -72 -40 -32 -24 -28 -81 -84 -26 -16 -69 -51 -95 -99 -42 -21 -92 -59 -37 -60 -33 -77 -54 -36 -73 -2 -3 -91 -19 -68 -27 -67 -29 -76 -31 -35 -46 -49 -71 -34 -15 -14 -55 0
15 18 86 94 -21 0
59 74 53 84 37 81 43 78 99 86 5 91 1 48 27 36 64 88 57 51 22 96 11 23 55 77 31 3 89 41 35 10 98 82 14 85 87 19 45 32 42 39 62 -70 -67 -9 -7 -18 -65 -66 -52 -73 -44 -12 -93 -25 -4 -15 -56 -38 -26 -69 -83 -13 -75 -46 -80 -61 -21 -76 -63 -68 -94 -24 -20 -90 -17 -54 -72 -30 -34 -95 -28 -47 -97 -2 -71 -50 -92 -79 -8 0
60 75 87 15 57 88 36 74 40 99 26 17 67 79 13 42 72 93 16 34 70 98 -62 -73 -8 -52 -46 -50 -82 -68 -41 -1 -83 -27 -69 -7 -95 -18 -9 -86 0
48 27 51 52 89 77 80 13 41 26 82 57 15 86 25 63 38 24 49 -14 -59 -2 -34 -73 -81 -30 -29 -55 -69 -65 -84 -36 -21 -78 -99 -19 -6 -31 -8 -53 -58 -35 -92 -62 -32 -95 -17 -45 -11 -47 -10 0
46 62 67 40 10 97 13 63 59 44 27 78 20 45 69 2 99 24 95 48 26 11 -83 -86 -64 -19 -21 -77 -79 -37 -30 -94 -54 -60 -70 -58 -66 -7 -42 -49 -3 -92 -4 -65 -9 -88 -52 -76 -87 -16 -75 0
80 67 75 92 63 33 41 1 95 98 73 24 82 15 32 88 49 16 9 65 51 77 -5 -6 -97 -7 -78 -90 -59 -68 -64 -19 -71 -23 -94 -61 -54 -29 -79 -20 -12 -2 -4 -45 -66 -26 0
11 81 75 25 92 69 70 51 23 67 33 17 88 62 80 26 57 8 20 49 13 36 93 16 47 73 97 7 19 -31 -83 -15 -14 -86 -53 -96 -35 -78 -9 -61 -63 -71 -58 -38 -21 -99 -54 -27 -85 -2 -41 -91 -4 -12 -6 -50 -64 0
30 6 42 79 68 75 11 35 19 24 31 47 8 64 87 12 69 16 25 84 97 7 50 59 1 26 23 2 96 -81 -18 -83 -15 -5 -55 -41 -33 -62 -20 -60 -92 -90 -58 -77 -38 0
94 91 25 64 90 24 82 6 31 14 5 2 70 1 51 8 50 45 22 84 18 59 30 52 87 32 85 63 95 73 93 3 58 37 39 15 47 71 44 36 -78 -55 -42 -19 -11 -96 -62 -21 -97 -86 -40 -26 -33 -4 -80 -74 -67 -89 -43 -72 -57 -92 -61 -13 -10 -38 -49 -16 -46 -99 -56 -69 0
22 60 4 51 24 75 47 30 65 25 16 95 98 74 93 92 -32 -72 -79 -19 -40 -99 -34 -82 -41 -91 -7 -17 -50 0
4 80 45 63 79 26 10 1 17 75 -89 -93 -28 -47 -31 -35 -88 -27 -58 -18 -64 -12 -71 -24 -65 -85 0
20 86 70 34 74 43 52 29 87 65 83 -15 -77 -13 -51 -67 -9 -94 -99 -96 -72 -82 -48 -58 -2 -5 0
76 12 67 53 99 51 44 63 78 28 32 14 20 -61 -84 -60 -96 -24 -57 -42 -8 -82 -75 -72 0
58 25 50 74 10 83 82 92 84 19 36 33 73 79 60 63 67 40 61 5 16 75 23 78 59 12 20 6 -14 -86 -65 -77 -66 -18 -54 -2 -28 -64 -91 -24 -30 -41 -52 -80 -76 -4 -48 -93 -43 -29 -71 -31 -90 -26 -32 -68 -8 -46 -72 -96 0
12 85 75 26 67 27 68 95 61 41 31 79 59 69 84 8 48 29 47 57 58 56 23 43 99 66 19 78 1 35 14 49 52 73 32 20 40 25 62 83 64 50 39 93 45 51 87 5 -94 -16 -54 -11 -24 -89 -53 -9 -44 -91 -98 -21 -70 -76 -72 -37 -77 -15 -34 -74 -82 -33 -4 -18 -65 -80 -46 -60 -63 -6 -38 -86 -2 -90 0
2 -25 -15 -35 0
76 12 62 90 1 36 98 57 97 86 54 81 41 77 21 -43 -92 -9 -24 -39 -68 -48 -59 -10 -6 -38 -73 -83 -46 -49 -69 -19 -40 0
33 34 43 23 27 10 93 89 81 76 12 98 38 79 60 35 29 2 39 22 52 36 17 94 5 88 44 32 6 18 90 56 53 75 61 86 14 -85 -21 -7 -37 -97 -84 -92 -57 -50 -72 -83 -67 -68 -91 -9 -1 -11 -54 -71 -4 -59 -95 -64 -63 -77 -41 -49 -51 -78 -30 -26 -25 -65 -73 -42 -47 0
27 20 33 87 34 98 1 17 84 38 61 15 76 -26 -10 -12 -88 -32 -90 -86 -18 -53 -29 -2 -56 -74 -23 -4 -35 0
19 32 60 30 23 7 9 73 91 39 12 28 5 83 16 97 49 68 81 -20 -66 -45 -40 -63 -38 -57 -42 -72 -4 -53 -37 -70 -87 -22 -14 -79 -74 -11 -21 -10 0
5 62 99 96 66 81 82 65 74 3 84 32 8 70 18 2 58 43 4 21 44 15 23 51 19 61 38 42 30 10 47 36 49 12 48 80 86 50 97 59 29 46 9 90 68 85 40 45 57 -39 -71 -41 -75 -22 -56 -79 -14 -91 -24 -87 -78 -64 -55 -26 -92 -11 -98 -35 -52 -53 -54 -34 -25 -94 -93 -88 -72 -63 -16 -27 -1 -69 -20 -7 -17 -6 -76 -67 0
90 56 17 29 31 33 20 91 13 83 53 88 51 3 4 52 41 97 36 77 15 55 49 40 1 46 96 35 42 11 9 57 6 75 73 44 27 43 72 86 50 61 5 98 28 -67 -80 -14 -10 -60 -48 -26 -81 -69 -47 -19 -2 -38 -63 -18 -95 -25 -94 -32 -30 -12 -87 -58 -79 -85 -24 -23 0
1 80 61 69 48 96 68 27 14 9 -49 -29 -43 -76 -42 -64 -50 -97 -31 0
31 88 38 46 11 78 99 41 80 28 48 52 7 14 1 81 30 87 25 56 12 83 42 -20 -2 -49 -51 -72 -98 -64 -61 -66 -62 -19 -97 -68 -74 -71 -45 -43 -63 -3 -73 -89 -79 -57 -44 0
25 97 70 44 26 37 42 48 45 50 66 34 47 38 30 98 71 68 13 33 75 22 41 24 83 52 85 56 -69 -57 -32 -23 -79 -60 -94 -14 -20 -88 -27 -17 -91 -10 -7 -36 -61 -77 -39 -84 -95 -2 -49 -18 -78 -90 -11 -46 0
94 61 35 22 66 31 9 19 88 49 8 5 70 26 86 50 78 73 52 85 51 75 71 87 54 89 38 17 32 36 48 74 2 41 65 83 13 12 20 93 28 58 21 99 -72 -77 -79 -40 -95 -11 -92 -37 -59 -46 -57 -67 -82 -43 -45 -34 -1 -69 -60 -80 -39 -64 -6 -16 -15 -62 -76 -53 -7 -56 -90 -18 -30 -42 -96 -10 -27 -68 -29 -47 0
56 79 28 50 91 3 35 70 86 74 1 36 83 40 88 61 15 38 97 51 65 90 62 55 24 81 95 48 29 52 31 80 -59 -64 -58 -16 -39 -84 -4 -26 -66 -22 -44 -93 -73 -82 -25 -41 -99 -54 -67 -98 -78 -11 -2 -9 -53 -42 -69 -21 0
2 84 6 77 65 32 97 42 19 47 40 94 58 25 89 34 56 49 86 5 41 80 55 70 18 26 48 53 67 30 24 8 9 17 -14 -60 -57 -76 -62 -87 -29 -45 -93 -54 -3 -79 -98 -83 -96 -68 -88 -43 -1 -82 -66 -31 -75 -44 -72 -36 -20 -91 -11 -21 -78 -81 -38 -13 -4 -22 -33 0
93 27 51 81 82 31 43 57 45 24 69 97 5 70 76 11 74 68 72 23 46 49 44 42 90 96 55 13 64 17 86 92 38 1 19 89 67 4 33 47 54 41 26 98 -75 -16 -66 -20 -32 -83 -8 -59 -18 -79 -22 -30 -94 -85 -53 -12 -15 -99 -95 -56 -61 -88 -40 -58 -80 -84 -34 -87 -60 -2 -78 -6 -10 -7 -36 -39 -35 -50 -9 -3 -48 -77 -65 -25 -21 0
46 86 2 96 49 69 41 71 4 21 52 40 32 60 3 54 14 74 5 64 56 33 83 30 59 -58 -53 -51 -98 -10 -1 -80 -91 -94 -78 -57 -81 -15 -37 -88 -45 -26 -16 -29 -27 -44 -93 -6 -19 -17 -47 -82 0
29 62 89 95 47 4 85 69 25 97 27 41 58 37 48 91 24 87 11 65 96 43 59 -13 -63 -5 -60 -18 -26 -93 -66 -94 -28 -12 -78 -8 -86 -6 -44 -3 -16 -35 -2 0
54 99 87 51 61 19 5 7 12 37 35 68 57 80 43 34 21 3 94 92 96 23 66 -10 -2 -83 -40 -52 -77 -70 -76 -55 -33 -82 -17 -48 -86 -59 -74 -39 -47 -9 -6 -14 -75 -45 -36 -50 -60 -79 -85 -20 -97 -88 0
88 13 39 44 67 27 55 -60 -59 -41 -85 -12 -79 -61 0
11 88 45 85 12 56 65 83 37 69 84 99 6 16 50 92 51 77 34 -1 -10 -40 -13 -39 -41 -55 -21 -93 -59 -81 -78 -72 -23 -7 -29 -38 -90 -49 -87 -61 -74 -5 -47 0
62 10 93 49 19 91 54 77 56 86 60 44 89 11 52 64 15 85 51 73 31 24 38 23 96 4 32 8 -53 -58 -92 -25 -61 -22 -33 -18 -17 -46 -78 -3 -47 -29 -68 -14 -40 -30 -71 -98 -88 -55 -2 -37 -21 -97 -81 -75 -65 -42 -80 -28 -13 -36 -1 -5 -12 -35 -87 -69 0
12 97 22 39 58 41 21 50 -33 -48 -27 -18 0
7 87 63 2 -9 -45 -88 -64 -56 0
64 95 22 7 73 11 6 16 90 1 87 8 26 78 3 96 70 30 47 39 61 13 40 99 2 -36 -46 -35 -25 -91 -71 -21 -19 -9 -53 -77 -4 -84 -43 -49 -79 -65 -62 -14 -38 -42 -80 -59 -74 -24 -31 -45 -85 0
39 71 80 45 22 54 55 8 53 32 11 49 2 46 83 50 95 89 62 59 38 51 -4 -97 -26 -66 -99 -30 -40 -19 -85 -20 -16 -3 -21 -98 -73 -65 -43 -48 -92 -74 -78 -6 -41 -79 -60 -13 -64 -76 -33 -34 -35 -58 -7 0
26 74 7 98 99 52 66 9 32 47 36 53 48 45 18 61 41 55 44 6 3 71 30 91 40 64 43 29 -62 -20 -87 -63 -15 -12 -70 -58 -96 -89 -34 -27 -11 -76 -51 -21 -23 -38 -16 -73 -50 -39 -8 -14 0
3 13 20 38 26 31 63 50 70 98 58 91 36 -84 -78 -72 -83 -10 -89 -11 -18 -56 -60 0
96 49 97 7 2 30 66 59 75 80 47 90 27 71 25 43 44 34 76 54 81 24 17 11 86 89 1 55 67 56 42 84 72 51 88 23 6 91 21 74 -9 -58 -70 -10 -40 -64 -19 -82 -52 -60 -68 -32 -35 -73 -98 -53 -36 -79 -8 -48 -93 -12 -26 -37 -38 -94 -33 -3 -63 -29 -13 -77 -18 -28 -31 -83 -78 -46 -16 -5 -22 -61 -62 -95 0
75 28 58 9 53 55 60 84 30 93 14 20 98 3 41 34 97 -27 -25 -80 -24 -22 -85 -51 -71 -29 -37 -46 -44 -45 -63 -62 -87 -26 -12 -86 -19 -11 -49 -90 -72 -6 -48 -47 0
90 24 56 20 48 7 81 44 94 26 57 18 4 37 62 2 30 59 80 77 28 45 68 22 61 83 55 99 74 51 33 52 87 -97 -71 -49 -38 -29 -43 -58 -82 -70 -34 -35 -98 -14 -67 -12 -95 -27 -16 -76 -60 -96 -1 -93 -15 -10 -66 -19 -3 -41 -21 -73 -85 -86 -78 -40 -84 0
61 52 72 98 32 1 23 25 87 49 95 77 50 11 88 53 58 55 34 97 83 96 38 20 8 37 99 80 41 -30 -90 -10 -91 -94 -47 -31 -63 -9 -59 -92 -45 -78 -24 -84 -57 -16 -40 -54 -4 -13 -44 -21 -35 -42 -43 -51 -27 -33 -82 -73 -29 -70 -7 -69 -86 -60 -66 -2 -56 -93 -76 -64 -46 0
1 54 23 90 -27 -65 -96 -77 0
17 94 21 23 75 90 62 58 98 91 52 50 55 2 24 70 31 81 59 19 85 77 44 56 68 4 22 32 80 84 1 35 6 11 37 10 -36 -79 -20 -71 -76 -28 -78 -18 -25 -95 -88 -57 -27 -49 -69 -67 -51 -65 -47 -45 -60 -12 -72 -86 -8 -7 -97 -34 -29 -40 -43 -89 -9 -26 -96 -63 -64 -83 -82 -39 -42 -74 -66 -14 -92 -41 -16 -3 -61 -15 -46 -30 -13 -48 -93 0
46 60 34 99 45 91 72 58 76 74 68 42 97 37 3 10 77 29 89 -12 -57 -92 -32 -17 -35 -75 -88 -16 -7 -63 -1 -52 -71 -90 -96 -83 0
43 4 5 10 56 89 36 3 84 44 49 30 -55 -54 -57 -52 -79 -90 -23 -51 -1 -67 -29 0
54 98 29 32 3 46 45 44 13 34 27 26 15 66 23 28 16 21 20 85 97 94 73 35 -49 -42 -40 -14 -71 -95 -50 -81 -11 -69 -88 -91 -65 -51 -76 -99 -33 -83 -30 -78 -4 -18 -52 -70 -92 -75 -89 -96 -72 0
56 80 94 33 85 6 23 2 1 31 84 36 42 75 88 30 4 82 95 90 74 91 7 18 35 60 5 83 49 97 16 71 55 70 25 79 58 15 45 78 87 9 -39 -8 -22 -53 -65 -68 -64 -86 -48 -10 -37 -63 -96 -40 -54 -41 -19 -89 -98 -13 -17 -59 -81 -20 -57 -52 -26 -27 -66 -29 -73 -44 -92 -77 -69 -47 -28 -32 -21 -38 -34 -62 -67 -93 -76 -14 -24 -11 -50 0
43 10 52 16 25 86 63 47 74 93 69 68 89 55 4 83 78 45 84 95 8 26 6 29 -2 -60 -12 -21 -49 -23 -19 -37 -97 -99 0
35 36 17 79 65 40 92 60 85 19 78 76 33 9 23 8 99 45 72 81 70 94 18 16 58 43 75 61 10 24 59 53 38 32 52 71 21 93 49 28 64 63 86 47 74 68 89 51 29 46 88 6 84 12 90 91 83 -62 -2 -37 -56 -26 -11 -77 -22 -4 -97 -5 -73 -44 -69 -96 -34 -55 -14 -20 -98 -80 -25 -15 -57 -82 -31 -27 -67 -50 -87 -13 -66 -1 -3 -48 -41 -7 -95 -54 -30 -42 0
78 94 89 77 28 40 7 50 60 11 22 93 69 90 70 10 35 8 27 33 34 87 15 26 73 17 58 12 80 56 6 13 57 51 46 75 62 54 19 48 36 25 31 38 64 39 55 53 14 49 97 -41 -20 -65 -86 -29 -23 -71 -81 -52 -42 -76 -32 -85 -72 -21 -99 -68 -91 -63 -74 -30 -16 -37 -3 -98 -59 -92 -67 -84 -24 -96 -1 -88 -2 -79 -66 -5 -82 -45 0
93 39 86 73 29 14 3 4 46 80 98 66 40 91 89 43 37 64 6 19 54 7 35 8 94 16 51 23 81 63 62 84 61 67 74 -22 -57 -38 -27 -69 -87 -76 -90 -10 -77 -60 -58 -70 -99 -83 -12 -18 -48 -59 -68 -11 -13 -36 -42 -49 -85 -71 -79 -47 -56 -45 -2 -44 -17 -72 -34 -41 -78 -21 0
48 14 50 88 72 90 58 84 66 8 2 74 61 86 7 25 51 91 82 22 37 62 13 11 54 49 19 9 97 17 71 85 39 67 -41 -44 -47 -79 -70 -63 -29 -59 -30 -73 -77 -53 -65 -45 -76 -36 -6 -93 -4 -12 0
87 90 38 3 16 25 81 -53 -66 -93 -6 -32 -5 -30 0
47 73 22 66 63 32 71 98 34 8 76 77 55 17 74 65 31 82 69 13 37 40 49 83 53 99 84 2 16 64 81 79 11 46 12 38 41 20 89 44 -78 -14 -4 -90 -18 -21 -39 -54 -10 -19 -72 -85 -25 -24 -96 -95 -27 -26 -86 -5 -33 -93 -70 -29 -67 -43 -59 -80 -23 -75 -36 -45 -97 -57 -3 -30 -61 -94 -42 -15 -7 -87 -6 -62 -56 -48 -60 -35 -58 -51 0
73 68 12 40 1 77 7 85 66 59 3 4 74 46 60 58 61 92 31 67 90 47 42 50 11 95 13 91 55 51 2 41 71 34 65 88 26 25 69 76 44 97 18 83 53 -27 -29 -43 -84 -36 -19 -54 -21 -17 -6 -5 -37 -86 -14 -94 -75 -28 -62 -52 -56 -22 -35 -87 -10 -30 -16 -72 -57 -15 -64 -80 -93 -96 -82 -9 -32 -39 -48 -24 -78 -33 -79 -49 -70 -23 -81 -8 -89 -99 0
38 74 98 25 62 76 64 84 88 47 54 78 30 16 72 13 39 77 26 89 65 23 22 58 46 63 92 73 28 33 21 3 79 41 97 34 27 61 24 67 86 7 37 87 50 43 83 90 -93 -44 -6 -20 -12 -94 -5 -35 -91 -48 -51 -71 -40 -9 -99 -36 -32 -11 -2 -81 -96 -29 -95 -75 -60 -19 -8 -15 -4 -49 -18 -17 -68 -85 -80 -55 -42 -52 -14 0
71 65 94 8 41 22 69 62 75 -98 -58 -63 -77 -51 -45 0
69 50 13 52 89 11 45 92 75 6 22 60 73 88 70 62 40 76 44 31 5 66 37 39 59 35 67 83 78 57 29 90 15 17 36 32 54 48 25 28 43 27 19 46 30 26 80 63 -87 -74 -7 -93 -10 -77 -81 -47 -72 -82 -55 -41 -53 -33 -84 -61 -38 -4 -68 -97 -8 -12 -98 -16 -49 -51 -2 -1 -14 -23 -21 -65 -20 -95 -9 -56 -86 -3 -58 -79 -42 -99 0
28 30 43 7 78 85 2 10 94 88 41 6 96 5 46 97 90 82 17 84 -25 -91 -50 -39 -86 -42 -66 -74 -13 -52 -15 -44 -57 -27 -80 -76 -21 -4 -8 0
27 96 77 57 11 93 47 12 29 15 45 23 74 5 30 4 20 79 61 -56 -99 -25 -85 -51 -97 -52 -73 -35 -48 -94 -3 -38 -41 -62 -13 0
37 76 95 53 83 9 27 36 57 22 67 82 81 63 58 25 59 17 35 48 84 18 33 23 80 6 85 43 20 94 38 10 3 77 39 15 68 61 -2 -32 -29 -42 -8 -86 -93 -4 -28 -45 -52 -88 -1 -72 -87 -96 -47 -44 -54 -99 -71 -16 -41 -73 -62 -91 -60 -66 -40 -69 -65 -78 -13 -51 -34 -19 -79 -92 -90 -26 -75 -24 -12 0
55 22 39 77 41 26 13 56 59 34 11 4 89 78 29 73 57 30 47 5 35 54 32 60 17 18 98 81 24 38 85 36 46 -80 -62 -7 -86 -93 -42 -82 -40 -31 -8 -87 -9 -72 -48 -88 -69 -83 -94 -6 -96 -2 -16 -21 -44 -68 -79 -65 0
95 3 1 75 13 37 51 91 40 32 67 4 83 57 8 68 93 81 9 86 44 55 87 50 94 78 56 24 46 -49 -82 -80 -29 -71 -61 -70 -64 -7 -73 -12 -54 -17 -88 -60 -23 -16 -53 -85 -74 -43 -98 -35 -6 0
94 82 23 87 12 27 95 91 62 83 89 88 18 90 17 29 74 2 77 75 57 92 32 25 70 86 13 40 85 24 22 4 28 47 38 49 35 31 11 26 10 63 -60 -56 -59 -52 -3 -33 -51 -55 -15 -98 -99 -81 -8 -9 -84 -36 -7 -58 -68 -44 -54 -78 -16 -71 -6 -97 -39 -37 -61 -19 -46 -80 -67 -21 -41 -73 -79 -96 -66 -69 -50 -34 -1 -64 0
61 55 31 64 50 65 38 81 53 96 75 7 68 37 33 63 88 34 73 84 72 86 77 42 27 23 20 94 28 6 45 1 85 18 19 4 57 -58 -51 -26 -89 -10 -3 -11 -98 -69 -25 -92 -82 -80 -70 -74 -71 -43 -22 -49 -15 -59 -52 -13 -83 -36 -47 -17 -93 -41 -76 -60 -14 0
8 77 71 56 69 74 52 40 11 82 97 2 79 3 89 75 90 98 50 55 87 86 94 -49 -17 -58 -66 -45 -67 -99 -51 -76 -21 -92 -19 -57 -70 -38 0
89 99 73 87 85 96 6 84 82 48 7 10 83 97 15 4 49 78 18 33 88 -61 -80 -31 -53 -22 -55 -72 -68 -27 -35 -32 -3 -14 -67 -58 -66 -94 -59 -69 -76 -74 -42 -86 -71 -90 -60 -92 -64 -23 -11 -13 -79 -12 -5 0
6 85 78 52 41 3 42 8 21 65 33 96 81 28 32 29 55 37 36 23 69 2 77 11 71 34 73 24 50 66 80 58 98 15 75 -99 -51 -10 -90 -20 -1 -35 -63 -72 -5 -56 -45 -95 -70 -82 -59 -88 -27 -44 -57 -38 -89 -13 -67 -68 -43 -48 -19 -93 -47 -4 -86 -92 -83 -74 0
6 83 70 39 11 21 44 61 73 78 24 49 8 32 -3 -19 -48 -87 -55 -85 -38 -84 -59 -46 -52 -37 -81 -17 -4 -35 -93 -74 -62 -86 -77 0
58 43 23 64 80 37 48 33 20 4 6 63 31 39 42 78 50 10 17 76 32 45 19 65 51 3 89 85 40 5 9 52 16 97 90 67 87 81 53 46 34 59 -47 -57 -38 -8 -86 -92 -91 -49 -93 -84 -77 -74 -62 -56 -72 -27 -55 -18 -28 -88 -24 -14 -60 -95 -70 -30 -66 -35 -15 -26 -12 -98 -29 -22 -94 -69 -61 -25 0
76 21 16 23 -49 -65 0
24 60 6 46 32 2 75 19 43 44 10 31 95 54 99 66 96 7 8 76 45 85 73 1 49 36 14 55 15 -93 -88 -91 -80 -37 -11 -41 -17 -9 -33 -3 -77 -13 -65 -42 -4 -87 -34 -38 -89 -16 -20 -30 -83 0
6 66 25 69 96 76 85 50 91 73 36 44 97 71 39 95 98 7 9 75 46 80 16 58 12 59 -57 -17 -21 -63 -99 -62 -32 -86 -20 -43 -87 -28 -49 -4 -70 -89 -88 -33 -53 -18 -90 -55 -8 -83 -64 -10 -23 -77 0
64 2 11 4 72 20 45 -17 -1 -59 -25 -41 0
28 70 91 25 41 2 67 34 47 80 8 85 83 -60 -42 -59 -90 -50 -94 -54 -65 -87 0
21 65 16 10 80 20 40 17 4 51 78 95 53 22 27 82 28 64 79 54 12 46 70 58 81 2 35 32 96 38 -14 -29 -36 -74 -98 -6 -24 -48 -8 -88 -37 -69 -59 -67 -99 -60 -86 -76 -18 -33 -47 -89 -42 -9 -97 -7 -92 -13 -56 -71 -34 -90 -5 -44 -45 -62 -94 -49 -83 0
64 32 50 3 30 65 56 26 89 37 9 18 27 16 42 91 -98 -33 -70 -51 -67 -5 -41 -43 -94 0
2 22 96 32 -71 0
2 53 7 30 63 24 32 59 31 61 90 77 50 52 27 66 26 5 3 39 88 85 15 33 4 -8 -99 -56 -82 -70 -34 -81 -37 -74 -12 -80 -69 -47 -98 -43 -65 -35 -21 -87 -73 -78 -46 -42 -83 -58 0
17 42 33 73 24 20 28 51 30 16 7 50 39 18 88 47 53 75 64 1 97 26 93 14 56 22 2 43 34 61 23 78 27 5 48 67 58 76 92 80 -15 -60 -94 -40 -89 -70 -19 -8 -90 -32 -66 -29 -82 -9 -10 -45 -36 -69 -81 -84 -68 -63 -91 -72 -4 -35 -41 -98 -44 -74 -57 -38 -37 -25 -62 -95 -31 -85 -79 -96 -87 -52 -59 -55 -83 -21 -3 -13 -49 -77 -86 -46 -71 -12 -99 -11 0
63 41 30 97 96 55 79 76 98 59 42 9 32 73 53 17 71 74 90 86 38 3 8 12 83 16 25 10 21 7 92 51 33 -89 -20 -80 -82 -39 -15 -93 -35 -28 -44 -13 -23 -64 -99 -84 -40 -22 -65 -6 -43 -34 -56 -24 -18 -1 -19 -62 -54 -75 -69 -68 -50 -88 -29 -66 -81 -46 -57 -67 0
73 40 33 15 81 65 48 29 86 1 18 62 4 17 5 38 3 93 22 14 51 8 6 30 92 -31 -82 -94 -59 -72 -53 -84 -75 -57 -27 -39 -52 -99 -10 -77 -95 -91 -11 -34 -24 -85 -98 -67 -87 -20 -78 -76 -35 -83 -63 -49 0
83 97 -70 0
59 20 16 71 15 25 82 27 97 60 73 32 46 11 8 79 3 41 83 45 66 91 99 23 81 84 70 48 30 86 47 63 67 31 56 28 85 37 7 89 57 -61 -14 -21 -5 -54 -39 -36 -77 -49 -94 -1 -17 -51 -24 -65 -95 -88 -22 -68 -18 -43 -10 -26 -74 -93 -72 -2 -96 -9 -34 -35 -52 -42 -76 -44 -92 -6 -33 -4 0
78 2 15 96 71 91 94 24 57 11 88 59 -32 -67 -37 -65 -35 -93 -45 -56 -83 0
87 56 28 59 34 65 2 17 41 67 52 66 31 42 70 8 39 10 45 86 13 98 54 -48 -9 -32 -55 -12 -97 -36 -99 -30 -92 -46 -6 -29 -83 -40 -51 -74 -44 -79 -77 -37 -94 -4 -7 -62 -63 -35 -95 -78 -1 -72 -85 -3 0
73 82 50 70 80 88 92 59 77 68 46 71 91 78 -60 -48 -14 -19 -15 -31 -41 0
12 17 94 71 29 76 3 11 47 31 50 65 95 -19 -90 -20 -22 -49 0
21 39 44 1 75 67 62 24 59 90 93 78 27 53 15 76 46 22 32 6 54 74 35 80 4 -38 -79 -28 -47 -96 -92 -52 -71 -42 -95 -13 -26 -94 -43 -69 -88 -65 -66 -58 -14 -18 -16 -3 -34 -99 -2 -37 -77 -20 -84 -10 -91 -30 -98 0
75 42 14 99 2 33 63 11 67 92 93 97 27 76 36 26 7 28 38 52 73 5 37 13 69 90 71 25 35 72 10 88 61 79 62 98 40 58 57 9 64 31 44 39 6 34 1 84 -94 -77 -96 -78 -87 -3 -51 -45 -74 -19 -24 -70 -82 -53 -59 -86 -89 -12 -60 -18 -30 -49 -22 -54 -55 -68 -46 -80 -29 -81 -21 -17 -91 -32 -56 -23 -85 -48 -83 -20 -47 -95 -8 -4 0
91 39 50 34 94 45 85 8 56 68 14 53 22 40 84 51 2 38 86 4 62 81 33 25 83 5 -27 -9 -3 -90 -58 -44 -65 -52 -71 -36 -20 -7 -1 -24 -77 -49 -29 -11 -55 -21 0
99 98 19 32 18 94 57 60 61 15 70 65 71 95 69 63 34 78 50 29 6 97 82 4 36 77 11 62 52 40 83 12 87 27 44 76 37 24 89 64 90 30 42 25 9 49 81 -53 -84 -75 -8 -96 -48 -23 -38 -39 -51 -92 -46 -43 -41 -3 -28 -13 -2 -86 -85 -5 -17 -80 -35 -31 -73 -55 -88 -14 -68 -59 -22 -66 -16 -74 -54 -47 -10 -33 -56 -91 -72 -21 -45 -67 -93 -26 -1 0
39 90 94 77 91 17 38 68 53 49 27 69 30 89 66 92 97 55 35 75 37 80 96 6 51 24 5 1 33 82 7 47 40 36 34 93 64 32 95 58 12 52 70 13 60 79 73 11 67 88 54 46 -83 -29 -18 -62 -76 -57 -28 -71 -48 -9 -59 -61 -4 -8 -23 -81 -25 -10 -45 -72 -63 -26 -85 -99 -98 -42 -78 -3 -86 -43 -31 -50 -87 -15 -56 -44 -74 -65 -16 -41 -20 0
46 48 73 58 24 32 66 71 29 36 19 93 54 63 12 22 74 72 13 91 16 78 55 5 62 1 47 -99 -84 -68 -50 -17 -10 -86 -95 -41 -14 -70 -42 -8 -75 -38 -80 -33 -87 -97 0
75 11 72 26 46 40 28 79 8 78 3 7 44 38 22 70 37 18 14 29 17 96 59 24 42 50 27 85 74 16 55 2 83 -39 -81 -73 -62 -94 -23 -36 -57 -99 -69 -6 -63 -19 -87 -5 -61 -84 -30 -49 -86 -92 -95 -67 -1 -33 -12 -43 -4 -10 -71 -35 -65 -97 -20 -32 -53 -48 -60 -25 0
2 86 43 66 19 21 44 29 41 1 90 23 69 46 28 94 54 53 61 85 47 -26 -68 -49 -24 -67 -79 -17 -97 -56 -62 -84 -6 -40 -80 -83 -73 -60 -65 -14 -52 -75 -27 -77 -82 -5 -32 -20 -39 -8 -88 0
35 5 87 49 72 92 32 75 91 44 74 1 14 80 36 57 10 64 2 6 51 93 40 83 8 28 46 31 67 47 52 97 29 24 58 12 -17 -98 -30 -77 -56 -37 -41 -79 -95 -42 -50 -89 -23 -71 -9 -85 -19 -70 -59 -73 -55 -78 -11 -20 -53 -48 -69 -7 -63 -65 -90 -22 -27 -39 -4 -16 -18 -61 -21 -81 -82 -15 -88 -45 -13 0
96 61 7 87 27 55 9 95 52 17 5 32 40 65 99 94 66 59 60 42 28 90 80 86 54 89 74 -4 -56 -13 -91 -12 -20 -78 -26 -76 -25 -49 -84 -19 -38 -57 -23 -53 -77 -16 -30 -14 -39 -81 -48 -3 -44 -82 -67 -29 -24 0
87 84 -76 -85 -26 0
86 48 65 28 35 91 98 64 19 79 14 66 44 55 76 99 34 87 7 69 18 23 -62 -2 -13 -31 -94 -97 -61 -36 0
66 91 69 68 26 7 97 43 58 72 71 29 9 35 27 22 83 34 14 80 74 56 98 -95 -3 -33 -37 -57 -12 -2 -25 -85 -39 -16 -64 -23 -73 0
56 48 7 32 -63 -77 -85 -44 -10 -8 -54 0
81 39 86 63 95 29 73 43 71 60 53 78 18 91 59 24 93 66 33 -4 -26 -40 -80 -23 -79 -49 -15 -11 -72 -67 -42 -96 -35 -10 -45 -55 -27 -64 -20 -76 0
22 27 1 23 44 33 88 55 92 38 30 95 98 57 16 87 8 28 6 79 37 93 46 56 76 77 21 73 62 45 34 78 66 85 19 31 -74 -60 -13 -65 -24 -67 -89 -32 -97 -70 -43 -61 -36 -18 -80 -20 -10 -53 -7 -48 -29 -94 -99 -68 -15 -17 -25 -82 -51 -9 -59 -64 -42 -81 -63 -58 -4 -40 -14 -71 -39 -12 -52 -47 0
83 60 33 75 2 38 -7 -15 -98 -49 -57 -35 -18 -95 -46 -17 0
63 2 54 78 57 25 62 51 37 -97 -85 -38 -35 -48 -7 -15 0
78 42 8 18 84 53 13 32 99 33 23 30 86 72 -90 -95 -14 -82 -39 -15 -68 -55 -61 -40 -97 -87 -75 -20 -89 -96 -43 -79 -80 -93 -6 -25 -77 0
95 59 3 36 22 26 99 76 65 37 14 86 29 25 18 33 77 64 4 43 89 51 87 80 72 75 60 71 21 35 31 34 74 48 83 17 45 -85 -84 -93 -16 -12 -19 -46 -27 -54 -9 -5 -2 -66 -88 -8 -62 -81 -30 -38 -55 -13 -63 -44 -97 -32 -56 -96 -58 -23 -73 -79 -92 -20 -70 -50 -67 -24 -47 0
24 75 3 84 76 62 7 96 59 93 25 18 40 21 79 74 72 10 1 69 23 71 -56 -4 -27 -39 -30 -88 -45 -16 -81 -32 -53 -91 -28 -15 -64 -95 -6 -50 -97 -44 -85 -55 -57 -65 -8 -12 0
71 66 23 3 51 43 4 15 25 21 31 36 68 54 95 39 96 32 1 11 62 57 5 73 70 88 94 97 6 67 33 81 2 13 24 52 56 9 85 90 -79 -77 -48 -30 -19 -20 -99 -72 -45 -78 -58 -46 -86 -49 -87 -65 -35 -42 -40 -34 -82 -29 -41 -59 -50 -47 -76 -61 -64 -27 -69 -53 -12 -14 -91 -16 -28 -7 -60 -63 -74 -10 -75 -92 -89 -18 -8 -55 -83 -44 0
55 19 50 96 3 61 77 92 30 23 6 72 25 58 -9 -8 -53 -10 -56 -26 -40 0
95 92 28 54 24 27 72 30 35 18 22 -19 -14 -91 -44 -10 -32 -84 -53 -16 -34 -96 -90 -86 -75 -56 -89 -4 -51 -68 -67 -93 -70 -79 -57 -15 0
26 84 16 65 14 98 15 30 61 81 86 77 38 63 79 96 20 90 37 42 97 34 19 94 67 72 55 57 13 73 62 64 -83 -3 -11 -71 -36 -17 -2 -21 -5 -92 -85 -99 -50 -9 -6 -82 -87 -95 -1 -66 -51 -31 -68 -52 -18 -4 -75 -25 0
92 48 82 42 37 99 43 47 19 18 1 90 69 53 56 12 87 52 93 68 73 15 64 88 11 13 84 51 29 5 50 89 44 86 61 70 16 75 72 45 62 26 65 30 91 27 2 -14 -23 -96 -60 -85 -8 -9 -39 -28 -55 -77 -63 -10 -21 -80 -34 -36 -32 -41 -94 -46 -38 -59 -24 -49 -66 -54 -7 -71 -3 -83 -74 -33 -17 -20 -79 -76 -35 -57 -67 -98 0
64 10 75 38 93 12 72 43 1 76 89 81 78 82 45 28 37 63 42 61 67 8 25 96 79 15 83 47 74 90 98 65 84 70 16 2 17 34 53 19 -80 -41 -24 -18 -39 -31 -66 -13 -9 -86 -68 -6 -4 -21 -49 -11 -62 -3 -59 -36 -94 -52 -14 -20 -44 -46 -99 -88 -23 -26 -95 -27 -33 -77 -71 -73 -91 -92 -29 -97 -22 -32 0
43 25 21 45 33 12 51 18 26 42 39 49 56 8 78 82 29 58 75 93 95 2 68 38 73 55 47 20 17 59 79 70 7 60 41 15 90 4 72 74 -61 -19 -40 -11 -65 -80 -37 -76 -28 -85 -87 -66 -9 -92 -98 -48 -62 -14 -22 -32 -94 -89 -23 -36 -5 -54 -27 -3 -46 -99 -88 -97 -24 -52 -91 -96 0
10 49 28 24 90 93 76 70 60 58 88 6 2 27 86 29 84 30 22 81 42 69 44 15 33 73 12 14 -50 -25 -43 -72 -80 -65 -4 -52 -74 -53 -55 -40 -85 -94 -16 -63 -78 -46 -23 -11 -36 -9 -5 -56 -7 -51 -17 -68 -41 -31 -95 -75 0
24 40 33 36 83 49 32 69 39 13 61 34 76 97 84 3 -81 -38 -15 -48 -63 -66 -47 -41 -99 -9 -62 -59 -45 -89 -7 0
87 98 41 1 90 4 69 73 74 60 18 21 67 94 47 42 99 13 16 64 76 85 51 78 46 66 52 75 48 38 8 10 9 83 31 61 86 -40 -59 -96 -22 -44 -17 -28 -39 -72 -36 -50 -71 -70 -80 -97 -95 -20 -12 -49 -62 -68 -3 -57 -54 -34 -91 -2 -37 -5 -35 -77 -88 -27 -26 -32 -14 -79 -58 -19 0
55 88 29 79 72 34 15 10 39 16 32 86 67 8 94 38 51 99 82 73 17 14 19 65 45 44 85 -18 -95 -66 -31 -9 -3 -11 -58 -90 -27 -13 -37 -69 -53 -96 -81 -33 -89 -71 -83 -76 -6 -92 -60 -68 -23 -5 -75 -4 -22 -24 -2 -50 -62 -52 -1 -42 -77 0
93 54 7 26 23 57 31 30 71 55 -96 -80 -29 -69 -65 -70 -1 -64 -79 -20 -34 0
60 22 59 13 51 23 14 21 95 98 35 82 75 96 48 8 73 31 16 47 17 32 9 50 87 2 78 33 97 26 -28 -89 -24 -80 -54 -18 -52 -72 -25 -43 -91 -41 -55 -5 -68 -6 -77 -3 -42 -19 -71 -67 -83 -74 -10 0
93 76 63 98 12 24 54 69 35 61 67 48 6 29 51 97 32 80 84 30 22 82 96 -11 -2 -36 -50 -37 -3 -68 -58 -65 -52 -94 -83 -62 -49 -88 -57 -75 -92 -77 -8 -45 -74 -53 -89 -64 -13 -55 -41 -59 -38 -60 -34 -15 0
57 35 8 19 42 67 76 17 9 78 12 -41 -87 -47 -15 -59 -44 -43 -48 -52 -28 -5 -53 0
43 64 33 -98 -5 -4 -49 -51 -92 0
69 48 94 67 41 23 53 18 15 96 85 6 87 35 77 -51 -10 -73 -98 -28 -17 -47 -90 -52 -64 -68 -72 -4 -92 -14 -88 0
33 68 83 99 47 19 2 3 74 41 58 4 59 64 25 15 98 26 44 73 11 77 71 1 42 9 37 91 49 87 85 36 56 65 34 24 70 86 61 -28 -52 -51 -29 -81 -94 -63 -89 -97 -18 -23 -84 -96 -13 -14 -46 -31 -38 -95 -57 -35 -88 -53 -45 -10 -76 -80 -93 -72 -30 -48 -6 -90 -43 -78 -21 -82 0
4 21 9 46 10 70 99 79 86 43 30 53 -71 -81 -87 -63 -82 -64 -67 0
32 2 4 83 31 48 44 14 47 75 18 86 94 15 69 8 11 80 43 60 59 96 91 13 53 35 71 25 99 40 6 23 30 27 22 93 82 5 67 95 72 55 54 63 79 41 36 61 87 -76 -33 -50 -20 -51 -78 -26 -52 -38 -64 -77 -65 -89 -9 -12 -57 -3 -37 -88 -39 -84 -1 -68 -98 -73 -10 -28 -58 -7 -49 -42 -97 -16 -81 -21 -17 -66 -29 -74 -34 -90 -70 -85 -19 -46 -56 0
47 71 3 32 83 39 5 16 82 59 18 42 35 79 7 65 74 62 94 70 14 68 6 33 99 12 45 24 38 60 80 36 48 75 13 26 17 66 50 44 25 72 95 64 87 4 56 76 98 84 -57 -52 -27 -46 -85 -23 -78 -11 -37 -29 -89 -21 -61 -19 -86 -31 -69 -88 -1 -30 -41 -43 -54 -49 -63 -20 -51 -93 -92 -81 -55 -97 -8 -90 -91 -58 -34 -10 -22 -2 -9 -67 -40 -15 0
53 31 33 40 62 88 94 37 90 38 3 21 80 34 82 48 9 27 79 50 96 41 67 54 65 57 51 22 15 13 99 70 26 32 5 -24 -75 -74 -45 -66 -4 -39 -64 -84 -60 -72 -44 -91 -25 -55 -19 -97 -98 -1 -89 -30 -36 -81 -58 -59 -47 -18 -63 -85 -43 -14 -56 -29 -92 -46 -23 -77 -12 -20 -6 -95 -10 -78 -86 -52 -93 -17 -61 0
32 91 41 34 98 40 28 38 66 37 97 7 46 43 63 16 30 81 53 76 99 72 11 2 61 74 84 10 35 77 92 22 39 94 88 8 36 71 5 52 24 33 55 -27 -12 -1 -65 -49 -19 -3 -78 -68 -42 -85 -90 -21 -64 -56 -14 -25 -89 -75 -82 -73 -95 -29 -83 -45 -18 -26 -86 -6 -13 -57 -4 -69 -9 -80 -60 -67 -62 -48 -50 -93 -17 -79 -96 -47 -44 -23 -87 -31 0
27 6 10 55 83 11 52 26 50 -65 -3 -76 -8 -86 -57 -91 -39 -88 -84 -44 -82 0
28 21 99 61 8 53 51 60 70 24 46 65 67 13 34 94 15 36 -52 -43 -54 -38 -30 -76 -55 -81 -92 -37 -87 -49 -59 -78 -83 -11 -69 0
16 33 60 48 30 22 69 55 57 66 45 37 90 75 78 6 29 24 96 89 59 44 49 64 41 73 52 46 34 32 74 80 21 87 86 5 92 -47 -7 -91 -39 -81 -1 -58 -26 -38 -53 -85 -51 -15 -23 -83 -88 -11 -4 -84 -14 -8 -13 -98 -93 -54 0
33 0
96 30 97 45 36 80 49 2 65 60 94 34 26 -17 -53 -14 -84 -40 -66 -47 -67 -3 -10 -32 -58 -74 0
35 26 49 94 59 25 4 30 97 16 15 2 99 51 64 79 24 81 46 34 65 92 68 61 57 58 29 17 73 28 45 20 55 27 63 84 31 56 66 33 -32 -43 -98 -40 -54 -6 -53 -86 -78 -7 -76 -60 -19 -47 -52 -11 -82 -37 -96 -23 -12 -89 -93 -3 -8 -13 -41 -38 -69 -1 -80 -95 -74 -77 -70 -14 -18 -91 -48 -36 -10 -88 -72 -42 -22 -44 -5 -75 -50 0
91 48 45 39 1 98 68 7 64 66 78 42 27 28 89 79 96 62 13 86 46 8 4 5 37 38 22 30 18 99 87 32 57 24 19 43 81 14 85 36 11 65 -73 -40 -84 -90 -47 -94 -9 -12 -34 -23 -54 -80 -75 -16 -52 -21 -93 -15 -50 -70 -88 -61 -10 -44 -33 -97 -25 -63 -59 -51 -49 -20 -72 -77 -26 -74 -35 -95 -56 -58 -55 -67 -3 -6 0
80 84 98 4 61 33 6 68 17 43 27 25 38 60 1 5 26 -69 -10 -40 -93 -49 -73 -77 -82 -28 -30 -52 -50 -13 -72 -34 -12 -71 -99 0
15 90 69 58 28 73 38 67 91 -24 -34 -21 -51 -3 -72 -53 -11 -25 -4 -36 -57 -56 0
78 12 26 81 53 90 28 79 85 72 22 62 58 2 71 67 47 65 27 13 99 69 1 -23 -40 -37 -17 -10 -21 -49 -80 -97 -31 -96 -42 -93 -39 -29 -75 -91 -43 -68 -30 0
77 57 33 63 21 13 29 94 64 60 58 80 40 99 43 84 20 93 35 62 82 14 -26 -34 -48 -41 -30 -23 -90 -92 -89 -74 -79 -67 -27 -39 -86 -52 -70 -15 -81 -95 -28 -22 -18 -98 -24 -16 -8 0
57 31 23 93 3 84 38 30 67 51 21 8 42 95 73 65 22 10 26 33 56 17 85 69 94 53 52 71 29 58 15 32 83 82 62 74 -80 -49 -97 -70 -2 -24 -89 -34 -13 -47 -55 -40 -9 -6 -50 -35 -92 -90 -4 -27 -72 -7 -59 -98 -88 -43 -81 -41 -12 -25 -48 -86 -75 -66 -16 -1 -36 -39 -61 -91 -78 -11 -68 -20 -14 -60 -5 -63 0
72 40 16 95 53 35 14 28 52 98 76 88 57 99 24 6 56 69 31 74 64 68 50 58 37 61 46 85 54 19 90 63 75 13 33 91 71 5 80 51 32 78 27 97 -29 -43 -30 -21 -39 -92 -36 -2 -7 -12 -73 -66 -3 -87 -41 -17 -9 -82 -49 -8 -55 -77 -18 -59 -96 -93 -38 -20 -60 -23 -44 -94 -70 -47 -89 -10 -1 -62 0
80 66 60 83 62 10 98 40 38 37 28 44 61 14 51 75 9 16 69 30 35 68 78 79 67 23 56 64 11 90 43 27 -47 -25 -53 -86 -42 -17 -13 -70 -32 -24 -33 -36 -71 -7 -96 -8 -29 -76 -74 -58 -92 -3 -49 -41 -55 -4 -91 -31 -59 -52 -65 -26 -34 -63 -15 0
25 55 41 80 77 2 92 27 79 84 61 31 67 43 9 96 90 99 69 70 65 22 59 39 71 30 35 63 38 52 44 14 54 32 33 42 29 15 4 5 53 -76 -75 -94 -40 -20 -12 -95 -45 -56 -10 -34 -82 -78 -85 -66 -93 -6 -23 -68 -89 -60 -74 -49 -83 -37 -1 -11 -8 -36 -13 -7 -91 -17 -21 -97 -58 -87 -26 -57 -46 -73 -28 -24 -64 -51 0
6 97 59 80 5 73 56 28 33 24 78 35 87 -37 -79 -95 -72 -21 -12 0
80 48 2 29 -12 -45 0
30 77 54 26 59 74 39 40 52 28 58 10 72 4 45 6 55 25 76 44 22 37 64 29 85 38 9 32 97 1 84 33 -99 -75 -90 -34 -19 -94 -68 -20 -67 -71 -82 -69 -3 -98 -24 -27 -2 -49 -89 -63 -91 -93 -62 -65 -11 -42 -88 -81 0
27 68 97 46 15 93 17 48 21 87 65 14 33 88 20 91 82 19 1 5 53 49 -52 -18 -9 -24 -38 -26 -4 -6 -60 -12 -40 -56 -32 -69 -35 -39 -23 -57 -75 -66 -30 -71 0
31 9 36 62 41 86 82 63 10 88 -32 -49 -6 -54 -24 -73 -45 -90 -64 -39 -89 -20 -66 -71 -60 -27 -8 -75 0
93 34 94 48 42 47 60 19 72 61 82 98 27 78 85 81 87 33 86 12 74 9 45 29 11 69 38 88 -24 -32 -35 -21 -77 -15 -83 -51 -44 -59 -54 -17 -14 -18 -96 -5 -36 -84 -40 -55 -66 -99 0
20 14 44 56 43 74 35 88 62 33 4 57 39 97 51 92 13 80 31 3 72 96 5 98 60 16 32 85 1 22 50 49 71 47 48 17 59 65 53 67 11 40 68 38 -93 -78 -29 -15 -19 -45 -64 -91 -24 -52 -27 -8 -86 -75 -21 -41 -77 -89 -84 -2 -54 -69 -66 -63 -99 -73 -12 -30 -23 -46 -76 -28 -9 -25 -90 -82 -58 -36 -87 -94 -42 -83 -10 -26 -95 -7 -79 -18 0
19 45 -32 -98 0
87 -21 0
4 12 23 69 70 63 60 74 -62 -40 -50 -90 -59 -8 -87 -96 -30 -39 -15 -57 -25 -34 -48 -32 0
20 6 44 57 12 63 46 76 98 79 34 24 93 87 99 97 81 58 4 3 11 85 59 65 77 37 36 13 56 23 21 92 51 15 89 14 68 29 48 55 50 5 8 17 95 1 -52 -90 -39 -10 -73 -40 -47 -71 -72 -22 -16 -43 -80 -18 -31 -60 -91 -7 -66 -25 -27 -82 -45 -2 -53 -49 -54 -69 -96 -19 -64 -75 -84 -86 -38 -42 -78 -67 -62 -74 -33 -83 -88 -41 -9 -28 -94 -32 -30 0
31 70 72 75 63 27 76 7 99 25 17 71 45 68 30 79 66 46 61 -85 -33 -32 -62 -88 -91 -65 -12 -96 -43 -18 -81 -69 -11 -59 -5 0
78 40 96 23 49 83 20 98 11 75 67 69 74 70 57 21 50 39 24 28 47 33 36 81 55 9 19 99 32 41 31 79 80 34 7 27 53 66 1 71 35 17 89 18 -54 -91 -64 -65 -42 -44 -59 -48 -82 -72 -25 -22 -61 -94 -92 -45 -95 -46 -63 -88 -90 -77 -52 -51 -62 -4 -56 -37 -12 -97 -76 -87 -93 -85 0
88 12 26 57 69 73 96 14 39 90 8 83 87 13 77 72 1 92 33 94 79 91 40 71 49 25 10 84 18 76 29 56 95 63 6 -62 -93 -3 -17 -98 -68 -19 -16 -50 -38 -60 -34 -47 -85 -51 -28 -58 -32 -81 -43 -9 -36 -7 -35 -11 -48 -31 -42 -86 -55 -70 -15 -89 -30 -65 -4 -66 0
51 82 40 20 6 87 47 4 79 25 11 48 58 42 46 -61 -45 -21 -50 -17 -57 -29 -84 -7 -81 -24 -64 -69 -39 -73 -14 -93 0
10 60 40 39 4 43 28 70 42 13 45 85 22 74 1 72 91 49 17 3 35 55 99 21 69 87 79 29 15 14 34 -97 -23 -83 -47 -48 -58 -6 -18 -66 -62 -36 -98 -78 -75 -81 -46 -77 -33 -41 -82 -86 -95 -12 -9 -57 -94 -61 -56 -20 -65 -24 -27 -11 -54 -76 -63 -68 -25 0
77 35 21 12 58 14 52 -45 -90 -7 -61 -19 -41 -26 -82 -68 -87 -60 -72 -22 -36 0
29 59 24 61 15 86 23 20 64 87 8 43 50 84 22 26 53 98 40 67 3 27 -85 -97 -16 -21 -4 -12 -34 -13 -66 -83 -28 -73 0
24 95 30 13 90 85 84 55 59 5 53 15 51 32 58 9 97 19 34 63 21 -45 -1 -47 -62 -41 -86 -89 -39 -87 -22 -36 -38 -49 -68 -16 -2 -46 -61 -80 -26 -88 -48 0
62 67 92 8 57 38 56 14 46 86 80 79 43 93 60 4 76 84 73 32 87 19 44 68 42 23 59 20 40 29 81 6 41 72 69 3 1 49 2 64 85 90 33 -48 -61 -88 -39 -21 -24 -11 -75 -13 -58 -78 -34 -16 -47 -18 -15 -22 -82 -28 -35 -89 -77 -51 -7 -9 -31 -66 -52 -45 -95 -36 -98 -10 -99 -27 -54 -97 0
4 10 63 49 77 46 5 79 92 54 33 80 99 89 58 45 62 7 28 6 14 76 29 27 -68 -98 -48 -3 -35 -60 -53 -1 -73 -72 -15 -95 -24 0
35 19 72 49 90 21 11 67 15 5 18 12 44 27 43 91 69 60 59 76 73 29 94 32 30 31 39 65 79 45 13 93 48 57 85 97 9 24 26 99 78 61 -50 -98 -88 -37 -81 -47 -40 -23 -95 -75 -6 -2 -25 -82 -4 -52 -22 -55 -56 -8 -54 -80 -53 -1 -87 -17 -68 -14 -33 -7 -34 -96 -28 -74 -89 -77 -84 -64 -41 -38 -46 -58 -66 -70 -71 0
49 57 14 74 42 34 79 25 8 60 30 -99 -10 -92 -31 -11 -7 -97 -81 -54 -87 -17 -26 -65 0
86 30 55 80 39 31 40 71 6 47 69 75 91 38 7 11 49 8 29 42 13 72 88 32 44 46 94 -23 -89 -65 -34 -64 -97 -92 -22 -95 -79 -10 -17 -62 -9 -63 -96 -16 -24 -60 -83 -21 -53 -50 0
13 1 8 51 93 96 59 87 19 18 15 25 61 90 36 21 74 76 60 94 68 33 98 62 44 -58 -45 -32 -34 -77 -11 -48 -30 -84 -27 -50 -95 -81 -83 -42 -65 -26 -37 -40 -3 0
23 26 70 17 90 62 59 28 1 84 93 50 31 73 92 47 22 2 16 32 57 96 19 97 91 49 72 80 60 55 98 41 99 27 11 48 82 69 14 66 25 38 83 8 7 30 12 85 58 42 6 18 37 -87 -68 -34 -5 -89 -86 -10 -39 -20 -51 -65 -46 -40 -75 -54 -21 -76 -52 -13 -78 -56 -9 -63 -74 -61 0
45 76 7 80 57 16 47 18 75 71 41 87 40 49 56 43 61 37 59 29 19 58 3 33 28 66 95 51 97 60 74 81 85 24 64 50 93 88 17 8 27 98 23 -14 -86 -62 -32 -94 -77 -92 -79 -2 -30 -70 -90 -11 -91 -46 -31 -4 -48 -82 -9 -83 -35 -67 -78 -54 -99 -84 -10 -42 -69 -73 -72 -6 -25 -63 -21 -38 -13 -36 -34 0
47 50 68 55 31 25 51 81 24 65 84 64 34 3 70 -82 -77 -1 -29 -52 -35 -22 -15 -71 0
35 78 40 85 62 68 34 54 81 52 50 41 86 28 75 51 56 23 5 88 2 -73 -39 -20 -80 -60 -32 -65 -25 -58 -36 -33 -84 -47 -82 -87 -21 -22 -15 -3 -7 -59 -31 -71 0
41 46 2 89 70 20 30 81 35 23 27 21 87 65 94 61 44 3 53 31 52 86 73 84 74 60 33 85 88 -40 -48 -71 -7 -95 -56 -19 -10 -93 -80 -50 -8 -92 -18 -13 -91 -51 -32 -66 -34 -38 -72 -78 -75 -63 -14 -37 -68 -58 -15 0
2 26 33 97 36 10 57 79 82 -74 -89 -34 -15 -68 -25 -30 -66 -48 -92 -75 -88 -56 -37 0
42 72 16 11 4 10 52 9 84 30 55 56 85 67 7 -27 -93 -3 -61 -70 -57 -46 -38 -92 -17 -40 0
83 97 99 98 54 43 47 32 25 38 14 22 95 59 28 19 21 6 44 2 88 81 85 71 20 9 41 31 67 68 52 82 -17 -33 -40 -26 -74 -58 -91 -12 -60 -96 -5 -90 -72 -13 -29 -65 -46 -76 -39 -64 -87 -62 -48 -7 -4 -80 -89 -45 -18 -66 -51 -8 -61 -55 0
77 3 64 68 79 15 52 94 48 46 59 28 54 74 6 9 70 71 50 11 19 33 49 60 13 57 78 47 30 90 96 98 40 -91 -73 -80 -10 -31 -41 -18 -38 -7 -16 -63 -24 -17 -97 -85 -88 -42 -44 -87 -93 -1 -65 -89 -32 -72 -69 -53 -95 -83 -66 -75 -35 -22 -36 -99 -14 -37 0
20 75 30 59 22 19 64 -13 -89 -87 -1 -14 0
79 98 60 31 21 81 77 87 27 3 86 28 40 84 95 53 65 64 73 63 67 70 -85 -51 -74 -83 -76 -34 -14 -32 -37 -23 -91 -99 -97 -89 -25 -20 -88 -90 -68 -33 -69 -46 -2 -66 -22 -15 -9 -61 -93 -17 -16 -50 -54 -49 -10 -80 0
32 3 16 66 4 70 41 44 60 62 33 -1 -72 -67 -43 -38 -42 -39 0
67 73 81 61 86 79 69 93 10 37 90 70 94 88 7 5 19 53 51 59 63 57 60 82 78 56 15 95 1 80 52 11 49 32 96 -41 -65 -83 -64 -71 -27 -50 -18 -92 -22 -58 -84 -31 -35 -2 -54 -34 -47 -44 -45 -91 -77 -9 -29 -8 -55 -38 -85 -12 -16 -66 -33 -46 -28 -21 -13 -87 -6 -97 -39 -17 -72 -23 -36 -43 -99 -24 -4 -20 0
10 63 12 70 55 52 48 95 35 91 6 4 3 62 30 40 37 46 50 82 88 21 57 11 13 41 51 32 18 14 -39 -86 -90 -92 -49 -17 -78 -61 -58 -8 -94 -31 -98 -73 -99 -29 -72 -38 -43 -67 -45 -64 -83 -19 0
80 62 17 29 45 69 63 52 20 95 98 89 34 32 35 82 97 16 42 68 9 92 88 18 38 8 43 96 1 74 23 33 7 71 36 79 84 78 47 90 66 73 -94 -75 -87 -77 -81 -60 -44 -49 -54 -83 -57 -70 -22 -99 -30 -61 -40 -51 -58 -4 -67 -55 -11 -65 -2 -72 -10 -86 -6 -76 -56 -25 0
27 36 49 63 39 50 34 -26 -67 0
25 48 10 13 69 80 11 6 -67 -31 -2 -81 -66 -27 -9 -3 0
30 67 35 14 82 75 31 23 63 47 48 41 3 50 80 87 52 10 73 96 33 99 81 83 77 49 36 42 29 4 55 26 76 12 9 64 85 91 -17 -28 -1 -98 -21 -19 -5 -15 -11 -59 -72 -45 -32 -90 -86 -65 -89 -94 -51 -70 -37 -20 -46 -38 -53 -78 -97 -6 -95 -2 -43 -92 -79 -61 -58 -39 -7 -84 -22 -24 -40 -18 -68 -62 -93 -88 -69 -71 -8 -57 -66 -54 0
89 32 25 28 76 98 18 87 46 62 29 42 1 77 10 39 86 19 83 66 49 13 -15 -11 -37 -50 -24 -23 -64 -91 -5 -53 -59 -26 -81 -85 -60 -95 -34 -92 -80 -57 -45 -71 -58 -41 -75 -48 -16 -94 -84 -82 -88 -7 0
38 59 67 66 -15 -6 -57 -72 -30 -40 -49 -35 0
90 98 56 8 94 48 29 58 75 22 93 37 53 23 74 13 6 64 59 16 91 65 80 5 44 52 84 25 10 60 50 -3 -69 -31 -77 -18 -42 -21 -57 -15 -32 -1 -72 -62 -73 -35 -86 -81 -45 -89 -43 -61 -88 0
66 98 73 75 35 17 45 81 22 93 31 34 2 16 72 97 49 4 63 18 30 50 27 28 53 26 48 62 43 8 10 85 77 13 -37 -39 -52 -33 -36 -57 -6 -1 -5 -67 -80 -42 -46 -68 -64 -12 -55 -51 -20 -47 -83 -92 -82 -15 -56 -3 -84 -87 -19 -96 -76 -14 -86 -94 -91 -90 -74 -59 -44 -99 -79 -54 -78 0
55 37 19 27 79 68 66 16 76 6 81 25 56 59 94 91 36 22 96 54 35 53 32 88 -47 -29 -87 -13 -4 -83 -43 -40 -82 -75 -5 -28 -77 -1 -92 -9 -49 -80 -44 -23 -48 0
7 53 17 5 41 92 27 88 19 69 12 15 18 14 38 50 48 25 28 66 97 24 34 93 81 16 87 57 75 91 39 13 26 21 77 11 -56 -23 -43 -68 -2 -10 -64 -44 -62 -78 -86 -9 -95 -51 -70 -45 -40 -82 -65 -94 -36 -58 -98 -29 -59 -20 -89 -6 -54 -80 -42 -4 -37 -73 -47 -52 -90 0
44 18 65 68 33 56 99 42 13 75 17 50 1 97 76 64 10 77 98 92 90 14 79 -49 -54 -58 -63 -86 -48 -22 -4 -62 -51 -71 -85 -46 -60 -69 -20 -82 -37 -67 -21 -59 -41 -94 -16 -70 -55 -43 -2 -26 -28 -66 -47 -3 -36 -24 -91 -40 -95 -74 -53 0
29 18 70 40 98 37 95 54 28 65 97 17 89 51 24 27 31 66 90 55 76 94 -44 -85 -34 -16 -73 -42 -20 -75 -62 -82 -46 -47 -69 -48 -43 -23 -36 -50 0
51 73 17 58 61 78 64 49 19 38 2 79 76 27 20 67 70 8 87 88 35 94 59 74 33 -12 -85 -99 -44 -52 -43 -39 -5 -65 -29 -28 -30 -62 -63 -24 -9 -46 -15 -93 -13 -48 -82 -34 -95 -23 -84 -57 -25 -10 -80 -81 -11 -71 -66 -4 -54 0
27 46 18 16 89 36 79 32 72 38 83 96 78 -57 -43 -74 -41 -26 -58 -23 -15 -17 -28 -97 -29 -82 0
91 9 70 60 -38 -41 -68 -33 0
32 57 76 4 50 12 79 80 39 40 73 62 86 48 1 2 26 27 92 88 78 47 90 6 93 -97 -56 -37 -94 -63 -20 -18 -89 -45 -51 -58 -91 -71 -35 -68 -13 -9 -30 -77 -19 -10 -44 -21 -82 0
11 60 12 36 38 51 45 25 7 35 44 96 64 -29 -56 -41 -63 -9 -48 -70 -62 -28 -59 -57 -16 -53 -49 -91 0
80 45 71 87 31 13 63 74 9 66 70 48 81 60 28 72 58 54 51 15 68 19 88 73 11 43 76 62 79 47 21 23 18 55 78 46 -22 -92 -83 -39 -37 -65 -26 -36 -52 -5 -6 -91 -96 -10 -40 -1 -29 -42 -7 -95 -75 -98 -25 -8 -94 -32 -61 -56 -12 -41 -24 0
49 97 48 84 90 14 18 36 58 94 44 57 98 11 72 5 50 73 2 99 83 54 86 40 25 4 -22 -37 -46 -93 -51 -43 -16 -21 -61 -81 -19 -60 -3 -76 -34 -89 -95 -39 -62 -69 -82 -92 -67 -70 -91 -1 -59 0
55 91 6 25 38 44 94 60 35 36 88 76 61 70 16 30 15 4 53 89 50 40 77 42 22 39 57 11 75 29 93 71 12 59 51 41 83 21 74 1 72 10 3 -67 -73 -37 -33 -54 -34 -32 -46 -23 -65 -80 -68 -13 -92 -58 -97 -95 -82 -31 -5 -66 -56 -69 -63 -26 -86 -85 -78 -19 -7 -28 -8 -24 -48 -96 -99 -20 -84 -43 -27 -18 -98 -2 -79 -90 -52 -64 -9 -62 -87 -45 -47 0
41 9 72 36 10 76 12 84 33 44 -22 -4 -28 -98 -47 -38 -75 -53 -25 -50 -71 -59 -82 -31 0
9 33 34 21 19 54 91 38 15 30 -63 -16 -64 -28 -65 -42 -43 -99 -11 -52 -14 -75 -71 -89 0
29 46 58 88 20 86 12 38 71 89 34 28 80 21 81 39 -93 -44 -11 -52 -14 -76 -62 -64 -67 -16 -83 -72 -27 -17 -94 0
35 62 22 28 16 14 75 44 1 79 46 9 27 63 84 25 83 93 18 -95 -2 -41 -5 -52 -94 -24 -89 -55 -12 -78 -73 -11 -65 -51 -4 -59 -48 -45 -19 -87 -71 -36 -34 -66 0
37 45 29 21 60 3 50 16 34 43 19 79 76 89 44 71 20 92 59 93 57 54 51 48 8 99 87 65 13 41 12 53 70 7 62 26 83 98 4 24 30 -81 -22 -69 -39 -27 -72 -94 -85 -68 -78 -90 -25 -47 -80 -73 -42 -46 -33 -10 -1 -28 -18 -56 -88 -32 -15 -82 -84 -11 -38 -91 -74 -96 -86 -55 -64 -75 -23 -40 -2 0
98 91 16 40 33 32 46 77 60 43 50 97 67 45 81 63 1 11 39 79 68 55 29 52 66 13 53 86 54 10 41 78 7 90 99 24 84 71 74 96 56 44 85 -19 -14 -3 -48 -87 -12 -80 -47 -59 -61 -75 -73 -42 -18 -37 -57 -94 -23 -17 -64 -69 -31 -6 -20 -82 -30 -51 -65 -34 -26 -8 -38 -76 -4 -28 -62 -21 -5 -88 -36 -95 -93 -72 -70 -89 -58 -15 -22 -25 -35 0
82 56 84 41 49 10 16 74 81 21 61 20 36 30 94 51 43 46 25 93 78 47 71 -29 -90 -15 -55 -2 -88 -48 -52 -32 -68 -65 -85 -66 -5 -76 -27 -24 -59 -60 -9 -23 0
71 46 -82 -34 -63 0
50 26 76 38 68 46 17 14 52 91 74 64 8 66 85 43 11 49 33 88 90 59 4 30 10 65 22 48 77 72 1 56 69 34 95 92 82 71 57 79 44 42 23 83 62 32 -27 -19 -53 -12 -80 -47 -9 -99 -24 -54 -98 -39 -36 -35 -3 -13 -45 -41 -21 -5 -87 -86 -58 -16 -29 -7 -60 -6 -55 -40 -75 -84 -20 -94 -37 -18 -73 -81 -61 -25 0
4 69 82 94 88 84 76 13 58 66 37 96 64 45 65 92 40 19 23 34 41 59 60 44 9 35 18 62 47 10 68 12 5 -43 -7 -91 -39 -8 -80 -51 -49 -21 -75 -74 -90 -27 -28 -32 -71 -48 -93 -61 -17 -54 -77 -67 -70 -95 -50 -24 0
28 9 41 95 66 62 77 93 14 24 30 18 32 21 23 49 96 37 48 60 42 17 99 54 90 70 83 35 65 20 12 29 46 45 55 7 2 -51 -82 -80 -67 -87 -64 -10 -58 -22 -73 -69 -76 -11 -1 -44 -31 -19 -63 -52 -75 -3 -33 -71 -13 -72 -89 -5 -97 -16 0
25 85 18 33 12 29 24 80 38 37 51 3 -14 -50 -88 -27 0
47 3 31 39 54 87 95 14 96 40 49 98 -94 -85 -28 -34 -19 -58 -86 -13 -52 -59 0
46 60 11 62 74 31 43 88 15 20 50 28 7 16 58 -65 -37 -17 -39 -53 -5 -32 -52 -29 -84 -97 -72 -75 -63 -73 -89 -45 -14 -24 0
37 88 74 13 87 97 92 59 50 29 47 4 2 81 21 84 42 99 45 93 33 32 23 28 60 24 66 86 72 90 76 51 43 52 38 67 31 3 98 57 80 14 56 77 34 73 91 36 16 27 26 -55 -25 -46 -94 -53 -58 -61 -71 -15 -89 -68 -54 -40 -83 -70 -48 -49 -44 -79 -5 -64 -75 -69 -62 -85 -11 -18 -63 -20 -95 -78 -22 -9 -35 -65 -12 -82 -17 -19 -6 -1 -7 -10 -39 -8 -41 -96 0
60 70 73 61 71 38 27 80 91 52 47 12 42 40 85 23 34 94 78 36 2 -88 -87 -62 -28 -10 -77 -6 -58 -7 -41 -26 -15 -1 -4 -9 -29 -82 -32 -93 -67 -53 0
89 75 72 71 14 86 56 73 96 80 50 13 94 67 31 10 30 38 23 58 51 49 4 19 18 91 46 35 98 63 99 42 40 22 -11 -68 -95 -17 -76 -85 -12 -28 -24 -34 -15 -48 -83 -61 -29 -54 -90 -81 -25 -53 -66 -97 -60 -8 -92 -21 -6 -62 -79 -88 -7 -70 -47 -37 -77 -32 -82 -43 0
82 41 73 85 16 90 59 78 80 17 70 61 72 29 75 34 47 26 52 81 11 10 5 40 97 36 6 46 68 15 74 2 58 3 54 24 -86 -94 -23 -22 -13 -12 -69 -4 -19 -89 -84 -8 -64 -51 -96 -14 -63 -99 -87 -21 -27 -77 -65 -48 0
89 59 99 11 81 65 53 55 52 37 19 73 30 94 44 58 46 7 91 10 86 38 13 80 97 87 16 41 64 21 33 78 88 63 72 84 32 -8 -17 -79 -4 -85 -93 -83 -43 -31 -26 -57 -40 -48 -90 -66 -29 -69 -20 -9 -5 -77 -24 -42 -14 -71 -35 -61 -1 -92 -67 -23 -54 0
14 38 67 82 27 97 40 6 73 12 72 44 60 69 83 53 61 39 96 91 62 33 68 9 98 35 55 54 51 30 43 79 32 77 85 5 47 80 59 26 1 2 88 74 41 52 24 58 99 11 34 23 -10 -16 -65 -31 -42 -95 -78 -71 -63 -66 -7 -93 -25 -37 -75 -45 -46 -18 -3 -21 -48 -64 -81 -90 -17 -76 -13 -8 -4 -50 -29 -36 -94 -22 -70 -87 -57 -20 -86 -56 -19 -49 -89 -92 -28 -15 0
77 1 21 -67 -87 0
98 13 81 92 8 66 6 93 80 -7 -21 -42 -85 -96 -36 -20 0
95 30 58 92 18 93 56 4 43 99 47 42 52 37 29 23 82 35 6 57 39 17 9 31 77 27 48 44 64 24 81 69 -14 -91 -53 -49 -54 -60 -94 -45 -76 -32 -89 -66 -80 -16 -61 -51 -75 -96 -72 -55 -13 -8 -22 -65 -21 -71 -88 -11 -86 -5 -62 -63 -84 -78 -34 -41 -7 -68 -3 0
35 31 37 66 18 55 88 57 -59 -43 -41 0
4 23 77 17 56 46 29 36 78 59 34 53 79 48 80 -43 -14 -45 -82 -50 -25 -47 -1 -54 -63 -3 -61 -51 -10 -5 -13 -24 -39 -83 -35 -62 -99 0
59 54 93 17 71 8 22 25 58 11 52 49 47 51 38 -14 -70 -28 -15 -98 -41 -20 -72 -33 -95 0
91 27 48 93 86 84 36 16 57 17 66 88 15 55 63 73 8 7 80 10 29 85 12 89 78 65 72 18 70 64 95 69 67 20 14 6 77 46 94 44 79 -97 -2 -40 -13 -5 -82 -50 -87 -25 -99 -37 -19 -83 -11 -47 -75 -32 -60 -1 -41 -38 -3 -30 -34 -31 -62 -24 -96 -74 -52 -23 -35 -54 -90 -22 0
72 35 68 31 37 94 3 54 12 57 19 62 67 69 40 36 20 58 30 14 91 60 75 38 47 -21 -44 -18 -74 -83 -65 -48 -33 -81 -99 -2 -27 -82 -4 -50 -51 -95 -89 -92 -53 -71 -41 -34 -11 -73 0
60 54 42 81 53 83 26 23 93 36 58 66 18 91 28 29 45 51 11 5 74 72 88 34 52 27 99 13 22 8 41 85 69 63 39 38 78 46 -82 -77 -21 -44 -31 -86 -55 -95 -96 -59 -1 -50 -16 -20 -62 -57 -15 -10 -65 -4 -37 -43 -2 -6 -80 -94 -30 -12 -67 -47 -49 -97 -33 -35 -17 -71 -98 -68 -64 -73 -79 -14 -19 -92 -3 0
33 39 41 58 23 66 49 81 13 98 38 16 45 97 19 51 14 42 25 48 28 -77 -75 -59 -17 -6 -29 -62 -4 -92 -7 -73 -46 -34 -82 -57 -85 0
90 55 43 45 11 40 63 18 75 12 3 51 91 69 53 30 81 86 21 19 97 36 96 16 56 48 73 35 22 27 78 83 1 66 47 52 70 -20 -77 -5 -26 -6 -80 -94 -68 -15 -14 -41 -59 -49 -23 -2 -13 -57 -65 -74 -24 -32 -9 -10 -4 -50 -93 -72 -98 -76 -42 -79 -39 -31 -99 -84 -88 -54 -8 -33 -44 -28 -89 -7 -85 -29 -34 -95 -64 0
27 64 8 85 5 56 82 61 67 13 75 15 83 92 2 -10 -1 -69 -6 -26 -7 -49 -52 -95 -16 -63 -90 -53 -28 -77 -48 -9 -57 0
46 63 57 92 49 60 37 10 97 33 24 73 79 15 32 65 50 86 83 18 96 72 82 21 58 40 11 8 68 2 -5 -43 -84 -14 -3 -94 -71 -67 -51 -48 -47 -17 -41 -13 -26 -70 -45 -55 -99 -93 -6 -78 -35 -16 -77 -88 -1 -7 -30 -12 -52 -74 -76 -29 -9 -4 0
27 68 77 62 18 81 76 21 59 87 -79 -65 -94 -35 -12 -7 0
82 72 6 12 68 64 61 -84 -4 -93 -27 -17 -62 -1 -36 -99 0
33 23 44 94 17 39 99 1 60 50 75 79 84 73 83 48 98 67 52 90 7 51 95 86 65 35 24 -54 -76 -9 -22 -37 -3 -80 -91 -71 -38 -61 -70 -25 -34 -5 -14 -47 -64 -74 -89 -92 -66 -82 -81 -63 -43 -2 -57 -46 -10 -40 -15 -53 -77 -88 0
68 18 37 1 33 21 91 10 88 38 43 54 48 26 73 94 59 -27 -52 -95 -57 -14 -5 -85 -47 -16 -20 -56 -92 0
-16 -64 -73 0
70 60 62 59 83 -96 -44 -98 0
57 91 24 12 74 86 31 96 14 21 68 -39 -81 -44 -49 -76 -65 -69 -35 -48 -95 0
66 77 64 71 4 57 93 79 58 50 18 53 12 41 73 74 1 -45 -25 -54 -24 -69 -65 -29 -89 -59 -87 -72 -91 0
80 65 82 20 26 77 19 55 63 84 98 23 58 12 7 33 29 -95 -28 -16 -47 -34 -64 -66 -4 -50 -14 -17 -40 -79 -61 -25 -73 -99 -41 -94 -67 -27 -5 -72 -62 -70 0
94 31 30 11 86 60 73 -22 -70 -18 -83 -98 -14 -61 0
7 89 74 98 55 86 -93 -24 -54 -67 -22 -52 -20 0
17 30 10 -51 -78 -99 -83 0
46 19 82 75 66 27 87 2 77 29 38 -22 -52 -96 -72 -95 -10 -32 -70 -24 -11 -59 -53 -26 -48 -23 -42 -84 -78 0
55 96 74 95 20 8 10 64 46 57 69 33 52 63 16 -54 -67 -56 -38 -31 -71 -62 -65 -13 -1 -48 -32 -19 -97 -70 -80 -14 -87 -27 -12 -66 -77 -23 -88 -28 -83 -9 -53 0
49 90 95 19 33 81 70 73 65 87 97 6 59 -69 -67 -15 -98 -21 -78 -52 -91 -46 -5 -41 -10 -54 -85 -7 -32 0
72 16 12 75 19 55 86 69 39 26 9 59 88 14 80 -21 -32 -17 -62 -94 -22 -85 -83 -3 -42 -47 -49 -4 -81 -89 -5 -20 -34 -31 -36 -60 0
98 67 73 56 28 85 99 32 51 83 2 -43 -59 -31 -9 -91 -69 -11 -63 -58 -44 -14 -40 0
79 68 60 17 65 35 26 96 81 40 39 -42 -5 -3 -62 -21 -82 -54 0
65 29 18 13 85 33 54 4 84 68 53 36 81 20 48 26 58 86 28 1 59 8 98 39 24 95 99 19 67 70 15 40 49 71 64 77 11 3 62 -46 -56 -9 -17 -38 -87 -74 -94 -30 -80 -66 -96 -55 -43 -88 -42 -60 -93 -31 -89 -52 -50 -10 -79 -76 -78 -5 -14 -83 -6 -27 0
93 32 9 23 98 19 65 78 2 46 70 60 83 91 55 90 99 14 30 13 27 8 -96 -10 -56 -88 -48 -12 -4 0
67 45 36 66 42 19 92 29 39 26 38 91 11 14 78 2 75 22 6 18 68 99 31 46 56 25 23 50 51 83 70 61 4 87 77 60 65 16 41 95 7 58 62 54 27 34 35 20 43 37 59 -86 -76 -79 -8 -93 -64 -98 -71 -17 -32 -48 -81 -33 -44 -63 -73 -28 -89 -47 -1 -21 -80 -96 -94 -55 -72 -24 -49 -3 -10 -13 -53 -90 -85 -52 -84 -74 0
91 77 63 57 41 65 66 3 29 44 64 1 55 19 54 53 25 2 76 94 -12 -6 -10 -86 -99 -62 -81 -70 -97 -15 -89 -51 -60 -67 -56 -17 -92 -24 -48 -36 -31 0
28 23 15 25 85 80 61 89 2 47 9 96 77 43 20 93 41 8 16 58 79 54 45 55 70 48 4 86 64 87 10 67 63 73 30 18 51 66 74 39 82 17 -72 -35 -68 -92 -37 -59 -95 -12 -3 -29 -98 -97 -81 -7 -78 -75 -71 -5 -24 -76 -11 -34 -83 -88 -1 -13 -90 -6 -52 -50 -33 -14 -44 -65 -46 -62 -69 -38 -27 -56 -32 -84 -21 -40 -60 -94 -31 0
64 87 20 79 44 16 26 7 70 97 74 1 24 48 55 12 58 5 27 99 93 8 77 66 40 65 85 96 22 4 69 46 67 47 80 51 94 92 25 57 59 62 81 78 91 -37 -35 -36 -39 -53 -9 -83 -28 -89 -49 -75 -38 -63 -13 -76 -21 -18 -95 -15 -45 -86 -31 -60 -10 -61 -2 -71 -43 -41 -33 -73 -98 -29 -52 -72 -88 -54 -23 -14 -84 -3 -50 -19 -42 -82 -11 -30 -34 0
97 29 22 51 66 40 87 61 94 42 56 2 79 46 30 36 25 57 33 18 -12 -43 -5 -69 -41 -68 -44 -52 -38 -96 -49 -98 -74 -11 -70 -58 -45 -99 -67 -19 -89 -78 -62 -80 -77 -90 -28 -26 0
3 53 16 88 28 56 21 96 66 91 99 36 71 49 70 48 59 55 37 25 86 74 90 50 45 93 32 8 83 65 78 44 18 46 11 57 -5 -84 -73 -34 -97 -27 -13 -10 -1 -89 -94 -26 -30 -95 -20 -98 -82 -75 -19 -72 -7 -64 -67 -61 -54 -40 -92 -23 -58 -77 -29 -51 -22 -47 -17 -35 -14 -33 -12 -85 0
96 7 56 82 31 78 8 55 41 22 84 23 81 14 73 60 88 44 33 71 69 2 67 59 91 43 26 52 19 76 -11 -50 -64 -12 -98 -79 -72 -87 -45 -4 -16 -86 -51 -70 -32 -77 -1 -35 -65 -85 -48 -46 -34 -74 -94 -47 -99 -90 -9 -24 -37 -17 -58 -53 -89 0
62 60 76 57 47 46 43 35 61 85 99 19 45 64 14 12 70 16 18 32 52 98 54 89 86 75 90 -21 -96 -34 -39 -13 -49 -55 -24 -58 -77 -17 -5 -59 -94 -72 -15 -51 -23 -81 -53 -7 -93 -67 -78 -74 -11 -36 -48 -95 -91 -31 0
96 63 45 97 98 58 82 89 99 74 86 43 68 87 94 56 21 62 64 79 61 59 25 27 69 5 3 85 60 11 38 76 8 65 6 33 67 46 35 77 31 23 -49 -36 -75 -44 -37 -55 -24 -78 -28 -72 -30 -47 -15 -1 -52 -73 -81 -66 -18 -93 -41 -91 -95 -4 -19 -84 -71 -13 -14 -29 -90 -80 -20 -83 -40 -10 -48 -39 -70 -9 -12 -88 -34 0
26 5 4 92 31 86 89 2 68 82 62 84 90 58 15 76 54 38 50 96 -72 -48 -27 -47 -97 -65 -11 -16 -69 -23 -46 -30 -32 -45 -95 -79 -22 -64 -42 -12 0
31 33 34 -74 -70 -76 -4 -36 -56 -96 0
24 31 23 76 45 65 60 82 22 84 56 17 68 98 93 53 83 16 35 94 42 34 -21 -41 -64 -61 -19 -86 -85 -2 -92 -88 -51 -90 -27 -48 -10 -71 -99 -7 -97 -70 -5 -1 -36 0
87 22 96 32 89 7 51 68 8 30 67 64 39 3 63 59 18 5 70 4 24 75 -73 -20 -84 -10 -47 -94 -28 -26 -58 -74 -77 -15 -71 -25 0
15 46 3 95 8 45 30 6 35 28 92 82 72 7 68 32 65 47 5 22 16 52 43 73 79 97 51 38 91 27 94 67 57 56 88 96 55 11 21 53 78 83 -81 -33 -41 -71 -25 -2 -86 -59 -63 -1 -44 -12 -90 -89 -31 -20 -54 -77 -50 -36 -13 -85 -26 -61 -70 -98 -74 -34 -18 -58 -87 -9 -49 -80 -62 -23 -48 -37 -10 -84 -42 -93 0
38 82 33 8 59 63 73 49 35 40 10 45 24 25 50 2 78 83 76 70 57 31 75 93 74 -6 -85 -14 -43 -28 -3 -56 -13 -84 -47 -65 -27 -20 -26 -53 -34 -18 -48 -37 -91 -58 -81 -62 -87 -5 -39 -99 0
74 85 94 12 48 4 44 26 84 30 24 63 72 13 66 97 89 52 50 65 6 34 39 96 69 1 68 28 -46 -78 -2 -8 -41 -21 -55 -11 -47 -91 -53 -32 -62 -71 -88 -18 -54 -23 -9 -35 -64 -45 -51 -31 -93 -25 -99 -56 -29 -58 -43 -80 -81 -61 -87 -37 -98 -92 -67 -16 0
29 22 11 -46 -94 -86 -88 0
60 80 90 10 76 28 46 68 3 19 99 12 2 97 32 62 40 11 78 23 50 4 52 77 6 43 39 92 81 7 87 47 20 65 86 75 95 35 59 26 85 37 66 51 5 21 -49 -24 -57 -63 -74 -27 -83 -42 -96 -41 -56 -29 -16 -71 -36 -91 -70 -94 -88 -38 -34 -79 -73 -93 -61 -69 -67 -18 -33 -8 -98 -82 -48 -14 -53 -17 -13 -22 -25 -44 -54 -58 -89 -1 0
97 87 31 60 44 68 99 36 51 5 8 65 32 72 57 90 80 6 96 74 23 26 58 92 27 50 55 29 -10 -22 -77 -3 -67 -42 -15 -56 -2 -19 -33 -14 -78 -38 -95 -47 -39 -91 -48 -1 -94 -21 -45 -52 -59 0
79 43 74 35 27 88 26 45 92 19 8 82 5 2 44 24 76 85 37 -38 -93 -7 -87 -41 -13 -49 -47 -77 -83 -64 -23 -30 -60 -57 -59 -71 -33 -3 -21 0
24 31 62 47 65 23 89 98 96 9 1 81 50 87 30 32 46 68 28 45 41 79 61 18 -66 -7 -77 -92 -16 -72 -27 -20 -4 -59 -75 -22 -52 -29 -44 -39 -3 -19 -35 -2 -71 -12 -90 -13 -85 -53 -6 -42 -17 -55 -11 -82 -94 -34 0
35 37 98 26 16 51 7 70 55 53 75 82 69 58 34 27 32 50 86 78 93 44 46 64 63 85 43 49 41 22 21 67 40 5 2 24 19 52 33 -95 -11 -13 -68 -80 -88 -59 -30 -79 -47 -31 -74 -20 -3 -91 -14 -92 -54 -97 -15 -61 -76 -99 -23 -84 -96 -81 -56 -94 -4 -62 -6 -57 -18 -60 -89 -39 -83 -73 -42 -48 -71 -17 -72 -65 -12 -29 -10 -45 0
51 70 93 66 59 77 48 79 44 22 16 13 61 84 58 6 57 97 26 71 68 63 24 33 65 73 55 37 67 78 56 49 41 8 83 34 36 -15 -20 -21 -50 -2 -90 -95 -31 -23 -14 -4 -64 -27 -53 -7 -99 -88 -82 -60 -18 -52 -19 -9 -45 -54 -91 -74 -92 -5 -11 -96 -40 -28 -98 -69 -76 -81 -17 -89 0
32 5 90 51 22 79 92 -13 -33 -21 -78 -96 -44 -76 -42 -41 -10 -18 -3 -62 -2 -63 -40 -9 -8 -35 -69 -24 -75 0
91 37 95 60 8 49 5 86 25 12 51 34 46 87 76 80 84 82 13 77 47 53 43 10 92 58 36 39 21 78 69 3 17 89 4 74 42 40 7 31 50 18 -14 -66 -67 -55 -64 -26 -24 -57 -75 -35 -63 -65 -61 -85 -72 -48 -62 -27 -73 -33 -29 -97 -68 -16 -20 -88 -99 -79 -28 -44 -83 -56 -32 -59 -90 0
15 36 40 48 45 5 4 47 35 17 42 70 46 14 56 61 81 12 25 34 73 1 51 60 29 39 13 87 64 28 20 43 78 3 82 62 19 77 53 76 26 59 16 92 94 49 -98 -91 -80 -65 -85 -86 -10 -7 -24 -2 -55 -79 -22 -75 -66 -84 -95 -21 -72 -69 -88 -30 -96 -9 -54 -11 -23 -71 -74 -32 -38 -90 -44 -18 -97 -83 -6 -50 -27 -89 -41 -57 0
41 15 32 7 12 95 -3 -87 -45 -1 0
41 63 59 60 28 77 19 65 38 46 57 48 96 36 26 35 29 97 80 89 27 45 11 3 13 18 8 17 -78 -94 -95 -53 -25 -79 -42 -23 -50 -12 -74 -64 -51 -32 -2 -30 -90 -22 -92 -62 -66 -16 -52 -24 -56 -84 -76 -85 -7 -33 -75 -69 -68 -91 -55 0
98 1 14 19 33 50 12 40 82 45 18 63 86 -93 -65 -66 -32 -85 -48 -57 -5 -81 -95 -56 0
69 24 31 27 18 45 58 2 54 1 36 57 20 89 43 42 59 46 65 67 60 28 94 75 37 15 5 -53 -38 -52 -3 -29 -93 -11 -76 -26 -77 -81 -66 -56 -7 -44 -80 -90 -41 -78 -74 -73 -82 -17 -40 -72 -55 -88 -83 -96 0
70 73 97 81 9 39 42 84 46 98 24 18 47 33 68 64 58 40 -23 -75 -87 -44 -99 -93 -16 -59 -19 -72 -30 -51 -20 -67 -31 -86 -14 -90 -21 -49 0
6 23 10 40 43 24 96 -75 -71 -21 -12 -31 -29 -2 0
10 85 37 68 25 80 73 48 14 23 39 83 56 93 59 60 95 58 72 44 3 99 47 2 28 13 11 81 92 21 53 12 20 71 5 43 66 88 61 96 55 42 76 49 86 89 52 24 97 29 67 1 46 16 51 65 26 63 70 -8 -90 -57 -45 -40 -15 -18 -75 -34 -84 -77 -9 -7 -79 -82 -30 -78 -50 -38 -54 -98 -17 -41 -27 -74 -4 -91 -87 -62 -31 -32 -64 -19 -6 -35 -94 -36 -69 0
91 69 82 38 68 36 27 98 16 -41 -7 -59 -64 -58 -34 -2 -3 -11 -30 -87 -22 -80 -93 -94 0
97 -63 -77 -4 0
83 78 43 82 95 35 40 1 51 42 38 10 44 76 57 63 50 60 77 31 22 37 12 61 6 4 11 74 75 8 48 56 81 79 97 46 41 18 -88 -45 -72 -53 -90 -24 -33 -21 -9 -70 -36 -89 -27 -7 -68 -47 -19 -80 -71 -16 -92 -34 -69 -67 -94 -39 -65 -49 -85 -96 -17 -62 -29 -99 0
27 95 80 26 96 58 7 16 34 49 6 40 38 89 92 93 46 97 99 74 82 1 66 24 90 75 11 56 63 84 22 -19 -48 -69 -3 -4 -85 -41 -67 -28 -23 -88 -76 -44 -68 -87 -14 -39 -62 -20 -57 -94 -91 -9 -59 -71 -12 -78 -45 -98 -15 -72 -42 -5 -31 0
31 97 33 8 99 15 6 81 93 96 28 86 37 95 65 76 53 32 73 -88 -57 -24 -91 -5 -90 -44 -98 -77 -40 -39 -52 -7 -60 -82 -14 -83 -64 -17 -2 -19 -27 -59 -20 -67 0
1 58 81 60 12 68 26 75 99 55 -63 -61 -41 -96 -45 -88 -87 -8 -49 -65 -85 -78 -20 -28 -62 -39 0
64 31 82 46 15 88 78 51 41 56 72 66 94 26 20 49 23 22 4 85 62 38 35 91 77 30 -47 -5 -40 -45 -79 -65 -59 -16 -37 -70 -18 -3 -9 -61 -73 -6 -28 -53 -84 -55 -93 -42 -48 -60 -87 -25 -17 -76 0
93 30 91 37 87 77 99 6 50 79 13 21 2 97 47 72 90 -55 -59 -45 -33 -64 -89 -94 -36 -17 -82 -19 -20 -22 -14 -4 -15 -10 -16 -78 0
38 37 60 24 77 61 44 97 18 40 26 2 15 7 57 12 31 53 5 35 3 50 54 91 78 51 92 74 -33 -64 -14 -21 -85 -10 -99 -86 -45 -83 -90 -46 -95 -62 -87 -13 -29 -59 -79 -69 -88 -47 -8 -55 -56 -20 -82 -63 -72 -16 -89 -41 0
62 21 79 36 78 14 64 61 87 19 30 63 5 48 50 74 51 10 4 90 54 42 37 95 69 77 53 98 25 86 9 65 52 84 81 39 -99 -18 -40 -93 -91 -58 -31 -20 -6 -13 -66 -45 -34 -32 -44 -83 -38 -1 -49 -72 -96 -73 -43 -35 -80 -82 -70 -7 -22 -41 -28 -23 -94 -75 -76 -89 -2 0
56 65 29 10 38 58 85 79 67 81 44 39 93 43 55 53 86 3 84 25 13 22 7 -5 -64 -40 -46 -27 -33 -97 -26 -9 -24 -73 -47 -6 -37 -88 -50 -94 -72 -17 -95 -62 -4 -59 -99 -60 -42 -57 -69 0
37 89 80 76 -52 -82 -73 -25 0
33 50 24 57 22 65 82 76 92 83 94 35 12 77 70 40 55 26 3 4 96 27 48 -8 -42 -6 -39 -59 -72 -11 -51 -56 -36 -62 -29 -43 -21 -30 -66 -68 -14 -34 -81 -13 -47 -28 -54 -99 -7 -5 -93 -45 0
13 80 6 63 58 27 54 9 98 2 14 37 70 48 25 31 66 52 72 75 17 64 68 16 59 60 82 23 3 83 84 -41 -8 -35 -56 -57 -30 -65 -93 -69 -49 -32 -26 -55 -20 -1 -76 -61 -12 -91 -36 -38 -77 -10 -47 -18 -39 -89 -24 -42 -94 -73 -90 -67 -29 -11 -21 -71 0
55 88 13 49 27 74 6 60 84 82 85 20 52 72 46 54 19 76 92 16 17 69 5 36 80 22 63 2 8 83 37 7 56 42 32 9 -59 -12 -39 -95 -14 -99 -30 -44 -10 -81 -89 -71 -25 -64 -40 -93 -67 -75 -73 -47 -53 -97 -23 -66 -21 -58 -45 -70 -50 -77 -94 -51 -78 0
61 45 32 42 18 11 80 98 31 -95 -26 -60 -88 0
51 47 67 95 40 44 69 89 97 58 1 75 87 24 71 37 14 53 36 74 98 30 34 32 45 31 5 18 41 -85 -66 -79 -62 -3 -42 -2 -57 -19 -56 -88 -78 -68 -93 -22 -46 -21 -33 -72 -4 -43 -15 -55 -11 -26 -84 -90 -9 -70 -94 -64 -20 -38 -8 -59 -29 -54 -25 -81 -99 -61 -17 -49 0
98 22 97 99 8 21 2 18 9 20 35 72 46 7 50 96 70 5 67 16 17 14 92 33 15 86 91 29 13 41 66 27 89 48 60 90 74 12 95 71 47 36 85 75 43 3 76 -84 -83 -24 -64 -81 -44 -51 -37 -42 -69 -34 -65 -87 -88 -63 -4 -53 -68 -39 -59 -1 -54 -78 -10 -38 -45 -26 -52 -40 -94 -57 -23 -6 -32 -30 -19 -79 -93 -61 -49 -55 -62 -77 -80 -73 -56 -31 0
-42 0
82 32 72 5 52 64 56 97 55 37 67 89 43 40 41 4 6 36 16 27 53 61 48 45 96 93 78 14 24 29 19 30 25 15 75 1 91 94 65 69 47 22 81 -17 -46 -33 -76 -44 -28 -90 -88 -7 -26 -59 -9 -58 -92 -95 -42 -68 -21 -73 -98 -66 -3 -80 -79 -57 -10 -31 -62 -8 -84 -50 -18 -35 -11 -87 -54 -70 -85 -20 -51 -60 -77 -12 -49 -99 -63 -23 -39 -71 -38 -86 -74 -2 -83 -34 0
48 93 74 70 6 55 81 8 97 71 91 3 37 77 16 42 43 62 75 13 66 73 25 79 67 65 11 40 28 53 69 51 19 10 87 86 23 68 96 76 34 1 2 83 27 72 32 17 20 26 49 -41 -54 -7 -39 -30 -22 -9 -52 -59 -84 -29 -89 -5 -61 -92 -50 -60 -21 -45 -38 -47 -95 -4 -18 -90 -82 -14 -58 -99 -64 -44 -33 -88 -85 -24 -15 -80 -63 -56 -57 -31 -78 -94 -12 -46 -98 0
7 99 27 -83 -35 -97 -60 0
21 72 15 20 91 18 61 4 56 48 84 62 96 33 8 34 65 52 75 71 77 60 51 53 89 14 5 47 23 17 90 92 63 94 -49 -30 -42 -45 -50 -67 -41 -46 -35 -86 -59 -12 -40 -3 -27 -54 -55 -26 -70 -10 -64 -32 0
45 72 85 42 15 22 40 89 4 44 38 59 78 46 76 81 64 66 6 94 84 70 99 8 52 65 9 23 93 26 29 19 92 34 73 5 74 63 30 28 37 -62 -2 -36 -33 -75 -61 -95 -83 -90 -18 -88 -68 -80 -16 -69 -51 -11 -77 -13 -47 -79 -27 -35 -49 -7 -91 -71 -10 -82 -56 -14 -60 -12 -53 -57 -50 -67 -96 -24 -54 -39 -21 -17 -48 -32 -25 0
24 43 22 91 92 4 69 66 67 63 53 99 51 29 8 46 13 89 27 12 86 56 -48 -90 -72 -5 -57 -18 -37 -21 -52 -28 -95 -11 -23 -9 -93 -50 -16 -31 -77 0
4 76 37 30 89 17 8 14 47 50 61 27 45 3 65 36 82 7 85 -73 -94 -55 -46 -66 -22 -68 -75 -31 -12 -2 -84 -54 -13 -16 -90 -19 0
67 12 22 11 7 74 82 35 14 2 29 54 10 69 59 38 93 28 80 24 49 46 85 66 52 45 39 16 64 8 32 76 71 25 30 95 47 63 79 98 -21 -1 -75 -33 -40 -42 -53 -19 -37 -4 -58 -13 -27 -94 -61 -6 -83 -5 -92 -65 -81 -56 -48 -97 -17 -50 -62 -89 0
3 53 77 56 35 22 6 47 1 78 42 82 67 98 87 -69 -59 -15 -39 -13 -29 -5 -12 -92 -36 -18 -54 -58 -85 -99 -37 -17 -80 -41 -61 -94 -44 -25 -63 -51 -49 -33 -66 0
17 52 2 66 46 80 64 42 44 81 94 -69 -34 -88 -57 -70 -78 -18 -19 -25 -90 -58 -77 -14 -72 0
63 1 95 92 77 43 75 91 96 27 28 47 41 46 8 38 51 87 56 52 57 98 17 15 94 50 82 35 26 53 49 4 45 16 99 48 -81 -60 -85 -90 -84 -5 -70 -29 -10 -86 -59 -66 -97 -7 -71 -24 -40 -14 -73 -13 -32 -54 -23 -30 -9 -83 -64 -12 -74 -34 -33 -76 -61 -55 -58 -19 -72 -44 -3 -68 -93 -67 -89 -22 -37 -20 -65 0
13 53 88 30 74 1 3 37 49 36 73 54 16 89 9 59 99 23 22 42 95 46 2 63 86 91 80 51 39 47 83 52 67 17 48 92 61 60 62 58 78 87 90 82 35 33 65 18 64 -76 -41 -32 -98 -96 -10 -27 -6 -72 -69 -19 -15 -5 -84 -25 -94 -45 -12 -77 -75 -21 -40 -50 -43 -55 -56 -71 -14 -44 -26 -24 0
5 34 10 28 42 16 22 18 55 60 48 62 24 87 3 47 69 8 70 65 36 20 73 15 2 68 43 78 92 29 1 98 72 67 -14 -25 -90 -44 -31 -85 -23 -41 -71 -83 -52 -35 -56 -76 -97 -7 -99 -64 -59 -11 -6 -21 -4 -9 -45 -13 -33 -61 -27 -32 -96 -49 -54 -94 -17 -40 -93 -12 -88 -89 -38 -77 -66 0
8 59 50 86 56 18 32 90 57 55 30 15 26 17 61 42 10 5 96 73 19 38 25 68 83 37 22 16 93 9 76 95 35 -33 -84 -43 -31 -28 -11 -44 -7 -47 -63 -12 -21 -13 -24 -94 -23 -97 -67 -64 -29 -1 -39 -46 -52 -41 0
85 27 84 37 93 87 49 54 96 72 18 32 52 39 40 76 67 24 21 41 82 68 17 43 16 70 20 34 69 74 19 29 97 77 51 36 42 23 83 12 73 22 8 45 58 25 35 61 7 -56 -46 -79 -11 -94 -88 -28 -59 -98 -4 -78 -92 -57 -91 -90 -38 -15 -63 -62 -13 -50 -10 -95 -64 -30 -9 -75 -71 -31 -55 -26 -2 -48 -3 -81 -14 -6 -60 -66 -5 -44 -99 -65 0
31 76 60 26 93 70 52 15 18 92 32 62 55 -36 -39 -6 -16 -34 -73 -77 -11 -57 -38 -44 -19 -71 -9 -2 -37 -82 -72 0
83 25 56 59 84 95 51 73 98 69 15 55 94 11 64 96 5 63 1 48 -40 -78 -35 -43 -20 -45 -27 -36 -49 -17 -31 -23 -14 -76 -61 -22 -62 -18 -47 -81 -26 -9 -6 -41 -34 -10 0
48 40 76 87 82 31 60 26 24 9 69 65 56 83 97 39 42 57 34 90 95 7 15 72 73 91 33 43 71 62 53 78 49 -4 -96 -89 -75 -13 -45 -21 -79 -19 -20 -80 -37 -35 -36 -22 -70 -12 -99 -23 -51 -94 -85 -17 -74 -1 -81 -64 -88 -27 -2 -93 -67 -86 -59 -16 -92 -68 -63 -3 -14 -28 -58 0
88 3 20 63 79 91 4 56 21 41 64 19 67 84 34 30 66 58 33 73 96 14 85 48 76 71 2 77 25 74 -78 -90 -68 -7 -36 -70 -62 -8 -75 -45 -65 -47 -69 -15 -89 -18 -94 -39 -40 -54 -72 -83 -87 -42 -17 -46 -52 -28 -60 -81 0
72 58 64 78 28 11 3 22 45 88 14 15 16 80 42 -1 -75 -50 -69 -24 -84 -89 -12 -19 -41 -33 -7 -25 -34 -62 -43 -10 -98 0
15 59 26 40 90 31 38 32 48 76 41 75 65 49 5 51 81 -20 -6 -62 -72 -11 -60 -78 -85 -79 -25 -23 -35 -69 -50 -30 -94 -10 -89 -68 -24 -36 -3 0
57 89 11 62 43 10 37 9 16 22 44 -72 -48 -69 -21 -36 -91 -12 -4 -47 0
19 4 82 97 63 38 7 15 44 31 1 58 52 49 27 12 91 69 90 56 83 20 70 -32 -34 -73 -92 -51 -71 -64 -10 -22 -13 -46 -81 -62 -89 -54 -25 -84 -11 -87 -48 -36 -39 -94 -96 -55 0
31 84 79 75 77 25 21 14 62 59 72 23 73 65 10 94 16 1 5 81 9 58 43 33 47 52 63 87 24 41 38 68 48 86 64 6 2 18 4 51 53 92 28 -98 -45 -76 -56 -8 -93 -11 -91 -30 -71 -40 -19 -80 -37 -82 -7 -99 -54 -27 -20 -96 -90 -39 -69 -26 -78 -60 -89 -74 -44 -29 -95 -46 -50 -55 -34 -97 -42 -17 -22 -32 -15 0
61 56 40 35 47 46 42 87 91 86 72 70 33 8 15 5 95 12 10 90 92 81 71 52 76 28 55 82 19 80 53 79 23 41 57 94 98 96 16 -83 -65 -99 -48 -78 -66 -44 -38 -26 -37 -59 -6 -54 -22 -11 -73 -20 -58 -32 -93 -9 -4 -34 -49 -36 -45 -62 -64 -67 0
10 42 -82 -19 -14 -91 -74 -26 0
64 33 24 52 55 44 13 62 27 18 16 28 57 66 83 93 48 70 86 89 22 95 6 74 35 77 20 78 29 5 99 76 80 25 30 37 31 19 9 60 91 65 26 67 73 39 45 87 34 82 1 8 96 47 -21 -54 -43 -81 -49 -88 -50 -14 -63 -41 -72 -79 -85 -61 -71 -51 -53 -2 -68 -97 -7 -4 -15 -75 -10 -3 -59 -38 -98 -92 -40 -94 -11 -84 -17 -56 -12 -32 -58 -23 -42 0
39 37 11 64 80 83 23 91 40 61 24 54 56 68 55 47 22 51 -81 -79 -76 -60 -94 -57 -66 -50 -73 -34 -67 -33 -29 -2 -41 -78 -5 -82 -15 -16 -20 -21 -59 -92 0
46 30 53 13 50 29 52 66 99 96 27 36 20 49 48 79 14 81 34 62 95 -75 -60 -43 -77 -23 -76 -2 -26 -4 -91 -9 -25 -58 -15 -69 -83 -97 -59 -78 -33 -57 -16 -1 -98 -71 -92 -6 0
27 72 64 69 14 52 80 22 98 34 51 48 45 76 47 74 30 63 25 95 12 43 21 2 33 96 46 90 35 56 86 16 66 -82 -97 -49 -5 -89 -23 -42 -6 -79 -31 -53 -81 -15 -93 -13 -18 -78 -85 -10 -41 -60 -19 -7 0
79 36 67 -89 -52 -11 -31 -18 -39 -29 0
93 14 4 57 75 59 5 13 33 11 46 24 60 23 30 9 52 86 25 39 94 83 8 18 85 29 96 28 65 34 7 38 82 43 79 61 55 -1 -88 -12 -69 -10 -71 -87 -78 -37 -41 -3 -49 -47 -2 -99 -48 -6 -67 -81 -17 -26 -77 -89 -70 -40 -31 -22 -91 0
3 31 14 88 10 85 51 26 23 44 99 -95 -56 -71 -16 -36 -7 -74 -67 -4 -87 -78 -69 0
83 65 37 71 43 31 99 28 79 44 40 32 57 66 36 27 97 69 58 84 55 89 25 8 91 51 26 82 10 1 7 18 -19 -22 -3 -47 -46 -9 -96 -88 -63 -4 -75 -85 -56 -38 -90 -30 -61 -6 -15 -94 -53 -76 -14 -35 -48 -80 -68 -74 -59 -95 -33 -73 -21 -20 -92 -5 -39 -23 -45 -41 -13 -17 -50 -77 -70 -64 -54 0
19 77 72 93 -36 -20 -54 -9 -47 -82 -57 0
15 -80 0
24 59 67 63 2 65 31 85 52 49 80 61 72 97 41 39 33 4 68 3 86 73 25 -5 -11 -21 -60 -84 -48 -54 -75 -91 -1 -17 -57 -8 -14 -55 -34 -13 -46 -47 -89 -32 -58 -42 -37 -51 -93 -82 -83 -6 -27 -50 0
69 29 82 83 81 31 76 96 94 60 18 2 66 25 58 8 21 38 9 98 43 36 87 88 20 3 1 44 74 10 78 64 -97 -71 -61 -17 -57 -23 -15 -56 -27 -40 -68 -73 -55 -92 -77 -75 -49 -62 -67 -32 -16 -6 -54 -93 -52 -89 0
47 19 33 83 81 -89 -26 -99 -70 -49 -15 0
73 10 66 79 13 28 58 97 26 74 32 94 96 62 53 90 48 76 20 61 4 3 49 95 99 2 98 55 38 -69 -41 -25 -45 -15 -83 -78 -35 -87 -92 -56 -23 -42 -88 -19 -36 -63 -44 -6 -67 -77 -82 -1 -72 -59 -27 -89 -33 -93 -60 -17 -64 0
62 42 73 23 51 77 68 6 43 69 1 85 31 70 75 98 57 80 96 21 60 46 28 12 24 72 83 10 53 32 79 87 25 11 66 49 39 92 7 -19 -37 -52 -2 -33 -54 -88 -20 -91 -34 -3 -64 -36 -74 -82 -41 -55 -29 -44 -14 -4 -84 -47 -35 -5 -65 -9 -76 -78 -56 0
58 88 81 18 39 28 52 27 41 63 12 96 -82 -72 -99 -75 -33 -66 -68 -84 -43 -70 -40 -73 -85 -62 -16 -24 -20 0
42 86 8 50 44 84 96 27 81 67 7 31 38 20 88 5 -59 -19 -39 -23 -75 -87 -57 -13 -4 -46 -26 -25 0
59 29 -76 -4 0
59 87 53 57 52 96 29 69 35 17 73 33 83 19 98 77 99 61 85 49 54 22 60 84 90 34 41 66 47 15 74 79 23 10 20 72 37 89 70 14 97 -11 -88 -56 -38 -65 -86 -94 -82 -63 -93 -32 -39 -67 -80 -91 -68 -58 -21 -46 -92 -1 -6 -55 -42 -12 -48 -75 -40 -43 -3 -25 -8 -26 -71 -44 -45 -51 -78 -62 -50 -27 -64 -2 -7 -31 -9 -36 -28 -16 -76 0
77 62 67 55 39 70 44 48 63 47 25 27 41 38 12 93 97 74 3 91 92 4 64 78 94 23 7 1 72 21 85 15 79 75 51 6 81 59 26 90 43 5 53 60 31 87 33 -96 -22 -65 -50 -89 -58 -14 -20 -30 -45 -18 -99 -54 -66 -98 -69 -80 -61 -9 -95 -84 -68 -34 -40 -24 -32 -16 -17 -11 -73 -82 -56 -46 -86 -28 -83 -29 -57 -88 -37 -52 -76 -13 0
54 95 72 74 80 77 69 50 75 18 35 49 17 88 46 40 94 57 92 89 7 64 22 20 97 86 42 93 43 23 36 8 66 24 47 84 34 76 96 87 1 33 13 59 4 98 -16 -82 -85 -65 -58 -45 -81 -9 -63 -19 -32 -68 -6 -3 -26 -14 -83 -71 -67 -51 -53 -25 -31 -11 -55 -15 -28 -73 -78 -29 -52 -90 -41 -62 -30 -91 -56 -38 0
20 75 -24 -34 -93 -78 -79 -55 -72 -77 0
64 9 47 43 12 36 65 99 14 51 74 10 24 94 53 40 31 4 86 -75 -93 -2 -44 -34 -81 -72 -29 -18 -33 -39 -92 -3 -57 -45 -96 -59 -20 0
36 56 21 57 9 94 48 93 66 73 74 99 8 5 87 30 12 -44 -1 -72 -88 -47 -63 -42 -15 -84 -7 -97 -85 -26 -53 0
40 45 76 10 29 93 69 17 96 47 72 86 62 71 94 74 41 11 3 23 73 68 80 22 57 1 63 82 -88 -46 -50 -16 -20 -65 -24 -67 -42 -43 -12 -90 -26 -9 -38 -54 -56 -87 -28 -39 -95 -52 -92 -58 -77 -31 -64 -70 0
19 86 28 18 82 46 20 52 36 22 9 41 66 33 43 71 88 75 39 29 31 53 26 16 49 48 27 68 93 90 84 40 42 73 57 63 -92 -1 -79 -5 -37 -94 -77 -45 -81 -30 -64 -56 -25 -60 -99 -59 -72 -61 -78 -58 -89 -54 -35 -80 -6 -70 -98 -23 -85 -21 -96 -32 -91 -51 -4 -8 -24 -83 -13 -2 -44 -95 -3 0
89 62 31 29 77 51 33 55 28 78 45 23 8 68 13 97 88 9 43 1 36 5 86 64 12 85 99 3 7 71 60 10 19 35 66 79 18 14 -75 -73 -6 -44 -42 -61 -58 -65 -16 -22 -32 -26 -46 -54 -92 -39 -80 -76 -87 -40 -37 -69 -41 -27 -17 -74 -81 -11 -48 -96 -95 -91 -50 -21 -72 -90 -84 -67 0
8 47 43 40 66 44 12 56 64 73 4 41 97 77 82 5 -36 -42 -92 -21 -78 -49 -48 -35 -15 -34 -87 0
2 36 60 28 22 35 16 50 17 44 19 45 51 -10 -71 -21 -79 -15 -82 -5 0
34 66 80 13 82 27 32 68 51 9 95 60 63 5 92 83 40 48 15 4 2 84 6 64 88 42 81 53 49 87 98 43 23 3 65 -54 -74 -45 -94 -21 -38 -78 -59 -56 -62 -35 -44 -24 -71 -70 -76 -1 -58 -31 -79 -86 -72 -39 -89 -10 -37 -17 -67 -30 -11 -14 -57 -28 -25 -22 -47 -19 -7 -46 -16 0
22 86 96 63 14 70 93 38 88 31 23 57 39 43 -76 -75 -17 -89 -85 -80 -24 -6 -1 -15 -16 -45 0
87 66 58 14 32 50 81 61 41 24 34 59 12 99 9 4 68 48 40 29 39 5 80 46 55 16 67 26 28 36 71 97 90 57 20 1 2 86 92 11 63 53 30 35 84 77 93 -89 -8 -10 -95 -79 -54 -6 -45 -44 -72 -22 -76 -49 -42 -65 -60 -96 -37 -98 -94 -88 -19 -13 -47 -75 -74 -18 -23 -52 -51 -85 -69 -33 -15 -78 -17 -73 -31 -82 -83 -62 -7 -3 -64 -27 -25 -21 0
34 72 -1 -68 0
85 35 80 32 51 81 2 63 8 13 91 94 77 59 68 60 4 47 82 25 88 28 67 -18 -75 -62 -96 -10 -90 -39 -27 -20 -64 -12 -11 -93 -21 -52 -72 -84 -86 -53 -92 -1 0
98 57 83 51 19 45 59 4 30 50 44 42 64 10 85 12 28 97 68 5 62 29 26 80 39 33 -37 -66 -38 -55 -35 -86 -96 -46 -14 -94 -75 -82 -67 -43 -71 -17 -72 -32 -20 -53 -93 -31 0
2 6 94 29 36 47 63 95 69 21 16 39 88 72 19 33 -97 -68 -64 -59 -34 -79 -61 -8 -32 -37 -17 -41 0
97 45 84 93 11 32 44 2 76 8 17 10 4 80 19 43 56 74 58 81 83 75 62 57 41 96 78 6 61 -21 -27 -91 -18 -35 -31 -69 -1 -9 -73 -64 -86 -92 -22 -46 -59 -98 -29 -48 -26 -14 -49 -50 -72 -82 -42 -34 -90 -89 0
22 37 69 24 68 87 51 95 21 15 89 73 76 93 29 11 31 35 58 28 75 9 30 18 60 86 8 61 91 54 59 36 98 57 80 56 25 82 71 96 -70 -46 -85 -7 -40 -48 -1 -33 -78 -49 -38 -66 -83 -53 -20 -79 -90 -50 -74 -4 -52 -32 0
31 66 12 3 59 90 37 33 84 25 32 -21 -10 -80 -75 -19 -41 -8 -4 -26 0
41 54 4 26 79 98 68 75 28 70 6 34 3 82 21 60 11 33 25 7 91 73 50 89 64 23 51 43 40 65 99 62 1 49 39 52 83 12 24 85 30 32 94 59 -76 -35 -86 -37 -69 -42 -72 -56 -58 -67 -48 -2 -63 -47 -18 -88 -81 -95 -84 -96 -19 -16 -15 -80 -10 -53 -31 -93 -46 -61 -77 -71 -45 -66 -5 -8 -97 -17 -27 -38 -36 -87 -90 -29 -20 -55 -14 -78 -13 0
19 78 55 7 63 97 57 39 41 93 88 58 11 27 9 52 46 80 36 -34 -62 -48 -24 -96 -20 -33 -85 -38 -2 -40 -44 -5 -23 -91 -86 -66 -74 0
29 85 84 79 76 15 67 27 64 7 2 38 8 52 -14 -87 -3 -47 -60 -16 -51 -89 -93 -24 -31 -6 -77 -5 -62 -78 -13 -72 -17 0
71 28 96 99 17 25 94 78 -47 -58 -85 -69 -13 -34 -53 -11 -19 -24 -39 -36 -40 -5 -50 -49 0
86 30 35 99 59 43 3 81 49 19 71 34 53 52 22 90 76 63 15 58 97 42 98 45 14 66 11 95 31 23 83 24 56 41 73 16 51 77 96 75 55 85 33 27 8 12 94 -1 -25 -69 -21 -79 -36 -4 -87 -32 -88 -67 -82 -37 -6 -39 -60 -92 -5 -62 -70 -18 -38 -65 -26 -89 -20 -7 -57 -17 -29 -47 -78 -80 -91 -74 -72 -50 -44 -68 -61 -9 -48 -84 -10 -28 -54 -93 -64 -2 -46 0
71 12 54 88 41 84 60 1 30 48 5 22 75 92 2 14 23 15 55 8 52 10 27 39 73 51 24 9 96 6 87 78 63 90 45 31 83 67 42 93 3 37 38 97 34 56 82 59 29 -64 -80 -7 -50 -35 -18 -28 -99 -4 -58 -16 -72 -49 -17 -20 -77 -89 -33 -74 -95 -36 -26 -13 -40 -32 -53 -91 -94 -46 -43 -57 -61 -44 -62 -66 -65 -86 -47 -85 -19 -79 -11 0
94 96 -37 -29 -76 -20 -66 -19 -57 0
92 53 32 81 93 22 94 8 88 99 86 23 24 76 14 -85 -68 -95 -13 -33 -61 -25 -20 -83 -37 -60 0
44 41 71 58 94 79 52 28 10 35 99 92 25 17 89 54 90 5 34 95 69 47 61 70 66 14 20 87 9 27 -43 -37 -36 -30 -57 -77 -49 -60 -26 -11 -18 -73 -68 -98 -93 -6 -19 -76 -46 -45 -53 -29 -74 -8 -75 -59 -40 -39 -31 -82 -65 -38 -81 -80 -2 -12 -78 -51 0
23 50 99 82 79 45 66 19 17 74 6 92 80 59 83 48 10 36 68 40 14 96 70 35 39 30 94 61 88 31 75 33 44 62 69 63 13 21 58 87 1 98 20 2 26 84 51 43 3 -37 -4 -73 -12 -91 -34 -86 -71 -76 -41 -16 -32 -28 -85 -95 -55 -15 -78 -64 -8 -81 -57 -77 -97 -27 -42 -46 -89 -54 -56 -5 -29 -60 -65 -72 -24 -25 0
82 56 58 66 42 97 12 23 31 1 15 36 7 49 57 54 62 -86 -72 -24 -77 -35 -45 -48 -14 -21 -29 -68 -59 -20 -34 0
41 93 77 99 83 11 72 28 15 91 27 79 6 -81 -37 -35 -57 -38 -7 -56 -4 -66 -52 -59 -12 -10 -13 0
89 83 22 27 8 88 32 41 47 58 -73 -44 -59 -20 -67 -3 -31 -50 0
67 41 18 57 28 19 34 39 11 25 87 24 79 -76 -40 -7 -52 -75 -98 -84 -82 -2 -81 0
64 43 -41 -95 -1 -94 -40 -35 -90 -14 -72 0
28 73 96 79 -33 -36 -3 -10 -37 0
41 25 42 46 99 56 81 94 86 97 83 26 96 70 28 7 82 23 -32 -87 -43 -10 -67 -90 -4 -80 -8 -3 -62 -1 -40 -84 -78 -75 -21 -24 -27 -92 -72 -31 -5 0
65 49 43 50 76 3 91 13 34 85 16 70 18 39 59 66 29 98 68 5 90 77 14 41 36 92 95 47 64 30 63 72 8 79 1 2 31 37 82 45 83 78 71 12 6 10 -97 -4 -57 -44 -54 -46 -51 -40 -15 -48 -62 -56 -67 -28 -94 -69 -58 -60 -84 -32 -96 -93 -7 -17 -42 -27 -38 -53 -23 -55 -26 -25 -86 -52 -22 -75 -24 -74 -87 -33 -20 -35 -61 0
99 61 15 46 83 19 32 98 33 48 42 62 38 13 63 85 64 94 8 34 88 3 56 76 96 95 97 81 -68 -86 -78 -53 -22 -12 -59 -11 -90 -49 -30 -16 -54 -6 -79 -23 -51 -58 -21 -52 -69 -7 -72 -31 -25 0
50 84 19 80 29 60 56 99 30 63 58 45 18 70 65 48 26 -40 -74 -85 -92 -73 -1 -46 -76 -72 -42 -21 -9 -97 -71 -41 -12 -69 -87 -16 -49 0
21 22 48 87 85 96 5 89 42 62 20 50 17 38 -99 -77 -39 -79 -55 -12 -19 0
59 50 23 60 14 93 70 20 72 44 38 55 5 82 97 42 37 77 19 47 9 35 7 33 45 6 51 84 8 67 34 71 36 12 94 99 17 64 91 4 73 46 15 89 62 30 56 76 53 68 85 49 43 80 29 88 -96 -98 -57 -3 -16 -31 -26 -58 -25 -11 -22 -21 -65 -39 -18 -83 -95 -13 -52 -61 -2 -92 -74 -90 -63 -79 -75 -27 -24 -32 -69 -28 -86 -48 -66 -54 -81 -10 -41 0
11 51 94 43 50 9 28 58 72 -14 -22 -6 -46 -42 -29 -24 -79 -67 -64 -93 0
23 95 99 77 11 89 92 4 91 7 86 69 88 61 73 41 84 56 12 15 54 33 66 50 28 1 -13 -47 -74 -14 -72 -20 -97 -24 -83 -38 -64 0
62 56 60 74 30 21 84 69 11 59 87 45 5 97 76 31 99 79 40 53 73 75 7 43 57 92 15 51 10 32 47 81 86 55 64 63 96 25 12 93 2 27 26 82 9 44 89 90 -34 -6 -71 -19 -50 -36 -39 -70 -17 -94 -65 -20 -67 -52 -54 -37 -35 -88 -29 -83 -42 -38 -28 -33 -72 -78 -95 -18 -1 -3 -80 -85 -98 -24 0
17 32 87 23 67 43 39 36 75 93 38 42 37 -18 -65 -5 -19 -73 -53 -92 -94 -54 -20 -25 -8 -7 -74 -57 0
48 33 2 20 85 7 80 66 43 9 46 40 17 69 34 49 50 90 93 21 1 59 31 78 39 99 86 60 5 -81 -54 -12 -70 -92 -15 -61 -44 -19 -87 -74 -83 -76 -16 -57 -29 -75 -22 -27 -35 -96 -67 -32 -41 -45 -13 -30 -62 -98 -56 -26 -65 -11 -53 -10 -8 -37 0
35 39 25 16 18 32 23 34 30 89 78 7 99 62 21 44 55 97 61 91 38 33 29 4 60 82 87 84 12 59 24 76 79 10 36 41 28 11 77 71 3 86 50 57 47 -40 -73 -88 -27 -54 -31 -56 -96 -15 -72 -49 -66 -51 -13 -74 -64 -93 -94 -5 -98 -9 -1 -85 -68 -70 -90 -14 -37 -45 -8 -22 -48 -20 -42 -83 -63 -26 -2 -58 -92 -53 -75 0
71 69 22 64 5 92 93 54 61 45 81 89 6 44 85 75 62 50 74 14 4 68 19 41 11 49 76 79 -24 -31 -48 -88 -46 -67 -84 -91 -90 -28 -29 -8 -21 -97 -15 -87 -63 -78 -57 -20 -43 -42 -77 -53 -39 -33 -18 -2 -82 -65 -32 -1 -98 0
48 60 82 94 73 66 8 56 51 95 25 3 41 55 -19 -81 -61 -15 -83 -4 -76 -29 -2 0
24 98 1 73 -89 -99 -93 -39 0
38 40 69 89 60 25 3 35 90 48 -72 -50 -52 -30 -9 -26 -91 -12 -59 0
69 40 86 -70 -68 -67 -94 -9 0
56 8 54 91 57 68 58 89 82 48 47 13 64 86 30 52 76 22 79 45 26 61 96 15 1 88 44 36 53 10 74 66 81 21 41 94 20 46 90 32 35 34 -72 -11 -43 -59 -4 -25 -24 -49 -65 -51 -40 -87 -98 -19 -60 -17 -92 -55 -95 -37 -93 -80 -97 -6 -12 -18 -50 -5 -73 -39 -28 -3 -38 -70 -99 -77 -16 -14 -83 -7 -67 -33 -31 0
25 74 73 77 92 52 38 8 42 83 33 15 75 62 63 31 96 78 56 7 10 88 98 35 11 5 45 46 2 84 6 79 93 69 12 3 49 50 90 68 67 95 47 19 18 89 76 16 58 41 70 -4 -1 -40 -28 -59 -91 -23 -57 -39 -94 -80 -30 -26 -55 -51 -82 -22 -72 -97 -27 -34 -53 -21 -9 -86 -64 -71 -48 -32 -20 -87 -85 -44 -17 -65 -99 -61 -14 -24 -66 -29 -43 0
69 33 56 86 8 25 31 50 9 52 -91 -96 -92 -80 -81 -44 -55 -83 -1 -58 -95 -19 -64 -68 -2 -94 0
69 92 15 21 89 80 60 29 95 28 98 94 93 82 51 44 90 71 8 23 65 67 52 42 12 48 88 35 32 74 37 25 73 54 86 66 14 26 2 -83 -99 -91 -77 -1 -62 -78 -10 -31 -33 -79 -49 -58 -19 -63 -41 -7 -45 -22 -61 -20 -50 -16 -24 -34 -47 -59 -43 -13 -18 -85 -72 -17 -46 -11 -55 -96 0
1 6 94 95 67 78 71 99 34 14 7 5 23 29 15 91 54 18 26 92 33 77 79 64 13 25 35 16 47 30 76 62 -98 -52 -27 -53 -81 -9 -57 -3 -96 -72 -88 -65 -10 -41 -24 -46 -74 -86 -38 -50 -49 -66 -60 -4 -43 -28 0
75 -82 -97 0
60 5 62 27 30 47 77 15 98 33 29 36 96 48 94 14 40 -17 -23 -34 -85 -1 -21 -35 -53 -32 -3 -97 -45 -67 -7 -95 -87 -25 0
14 35 42 82 33 19 72 56 1 49 99 45 69 20 86 47 18 44 21 79 40 98 76 34 57 8 73 90 2 60 52 77 48 26 84 51 28 -88 -95 -66 -89 -17 -30 -11 -80 -58 -96 -9 -15 -46 -7 -54 -29 -64 -41 -97 -13 -4 -25 -31 -81 -75 -27 -63 -94 -74 -39 -83 0
87 57 38 72 -15 -80 -47 -19 0
13 1 96 55 38 66 31 78 54 51 14 18 39 71 5 21 94 84 17 34 70 76 23 65 52 75 53 93 91 28 26 67 7 9 97 68 61 3 36 43 99 44 29 -81 -60 -49 -25 -88 -47 -32 -15 -64 -27 -82 -98 -58 -46 -56 -90 -48 -24 -19 -86 -89 -4 -95 -63 -74 -50 -37 -42 -41 -12 -72 -83 -33 -92 -40 -2 -16 -35 -87 -79 0
11 18 60 96 48 30 22 83 58 32 73 14 80 20 41 46 37 15 40 7 16 5 55 86 81 45 76 6 53 78 25 47 98 70 71 38 57 -43 -4 -92 -19 -74 -63 -23 -3 -64 -67 -59 -8 -12 -50 -51 -28 -21 -33 -54 -1 -77 -49 -9 -10 -84 -27 -52 -97 -35 -24 -2 -94 -85 -56 -42 -88 -36 -61 -79 -69 -68 -66 -13 -89 -87 -29 -72 -65 -26 -44 0
13 50 23 91 59 69 39 2 45 24 54 98 75 29 36 80 58 77 96 21 95 3 11 33 28 76 73 93 20 62 -63 -55 -88 -34 -57 -60 -6 -44 -37 -32 -87 -79 -47 -86 -5 -41 -99 -56 -67 -35 -18 -31 -51 -17 -81 -82 -10 -90 -85 -14 0
75 55 51 33 56 57 53 14 99 67 8 68 70 26 4 61 29 28 9 34 -40 -60 -36 -88 -98 -37 -6 -66 -81 -10 -43 -45 -84 -3 -7 -46 -54 -11 -62 -76 -23 -89 0
75 54 9 77 6 37 93 79 60 31 57 28 70 76 56 10 48 65 52 61 1 23 69 17 72 42 55 24 -12 -45 -91 -15 -46 -33 -84 -43 -21 -98 -29 -83 -41 -86 -78 0
93 21 27 10 29 38 90 74 73 25 -82 -2 -88 -96 -67 -36 -86 -45 0
24 79 42 41 33 19 63 53 44 27 20 11 68 61 87 78 26 76 71 95 10 58 34 25 57 31 75 96 89 -92 -54 -52 -99 -18 -59 -47 -3 -77 -37 -90 -13 -72 -93 -56 -85 -67 -73 -43 -36 -5 -48 -70 -50 -23 -51 -21 -38 -7 -28 -64 -62 0
61 24 92 78 7 72 -75 -40 -33 -63 0
34 60 35 87 70 46 42 61 11 69 51 31 26 4 68 75 49 52 9 64 17 73 -45 -84 -2 -63 -97 -58 -1 -7 -55 -78 -13 -62 -27 -74 -44 -93 -83 -99 0
76 75 31 49 10 72 41 2 17 85 53 67 74 97 38 84 51 93 92 90 18 73 64 82 23 4 5 70 98 19 86 13 95 79 36 46 83 48 40 -11 -3 -44 -28 -8 -91 -7 -56 -27 -43 -57 -22 -24 -32 -15 -33 -89 -81 -29 -9 -12 -47 -35 -39 -68 -65 -78 -45 -25 0
65 88 34 56 8 14 85 17 6 63 99 40 44 28 -59 -73 -91 -26 -42 -23 -39 -1 -18 -13 -94 -82 -50 -96 -38 0
23 32 38 68 46 75 37 89 74 51 28 33 50 4 94 90 41 36 58 6 15 31 42 61 92 48 14 88 13 20 96 87 65 85 10 57 69 82 27 54 40 8 39 -81 -22 -56 -97 -16 -79 -29 -34 -99 -84 -60 -5 -26 -78 -44 -9 -83 -62 -86 -12 -47 -25 -45 -53 -70 -64 -71 -3 -43 -93 -76 -91 -52 -19 0
35 77 71 69 76 65 44 36 49 86 15 66 28 57 63 80 89 64 67 -92 -54 -23 -16 -50 -22 -41 -51 -25 -62 -38 -10 -19 -91 -13 -81 -11 -37 -3 -29 -61 -47 0
58 46 61 35 76 38 59 56 74 63 65 8 64 39 52 23 40 92 11 36 69 22 17 54 1 88 18 83 90 79 96 78 57 42 67 33 70 14 -66 -47 -30 -91 -94 -25 -95 -31 -55 -49 -28 -37 -41 -71 -99 -85 -73 -87 -29 -72 -43 -48 -77 -16 -10 -19 -84 -81 0
77 62 44 61 87 22 11 25 45 5 57 69 49 37 12 7 90 32 86 94 29 83 84 23 6 27 92 1 81 36 34 -10 -56 -50 -58 -48 -72 -21 -28 -31 -39 -68 -2 -4 -79 -80 -91 -26 -30 -41 -95 -18 -3 -82 -38 -88 0
15 23 98 4 25 42 67 54 24 96 53 60 12 14 19 61 86 2 8 13 76 28 37 80 62 5 99 47 43 92 59 97 56 40 34 44 31 32 27 95 73 33 90 -83 -70 -85 -17 -29 -48 -51 -10 -45 -71 -57 -9 -63 -91 -20 -6 -82 -79 -55 -66 -1 -52 -69 -78 -7 -26 -77 -87 -68 -81 -39 -38 -74 -21 -93 -72 -18 -84 -65 -94 -64 0
58 48 32 73 76 23 34 26 90 56 33 1 54 43 77 27 10 55 59 18 69 96 4 71 29 80 5 50 39 11 19 14 79 -24 -8 -75 -47 -57 -85 -64 -72 -82 -61 -7 -31 -41 -81 -93 -44 -12 -37 -78 -2 -98 -51 -88 -60 -40 -6 -16 -99 -91 -21 -87 -3 0
15 13 73 95 39 17 31 51 8 4 29 61 48 98 5 47 16 -10 -2 -85 -34 -23 -84 -67 -1 -90 -42 -21 -6 -71 -86 -22 -60 0
69 46 94 61 12 71 49 97 51 88 34 84 9 72 54 65 23 55 3 26 52 20 81 73 57 27 87 74 6 5 14 32 86 47 50 13 -90 -17 -98 -35 -80 -59 -48 -82 -21 -4 -28 -67 -79 -42 -1 -8 -33 -83 -10 -63 -45 -16 -66 -22 -40 -62 -38 -89 -75 -41 -2 -7 -58 0
37 88 73 29 50 21 64 66 83 93 71 81 80 42 3 54 99 26 70 89 16 63 60 5 67 38 36 1 7 51 48 59 87 98 2 65 79 61 8 40 85 6 30 11 19 39 18 25 96 90 15 -97 -13 -22 -47 -62 -14 -4 -57 -78 -35 -27 -43 -68 -84 -95 -52 -32 -12 -28 -72 -77 -46 -45 -41 -34 -92 -10 -20 -94 -33 -82 -91 -56 -49 -55 -69 -86 -31 -23 -9 0
97 44 25 49 27 74 31 91 34 29 13 2 14 89 56 59 45 93 65 94 10 37 82 47 17 64 36 62 9 28 -79 -6 -12 -53 -50 -40 -72 -22 -92 -7 -80 -84 -71 -15 -43 -21 -42 -55 -86 -87 -88 -16 -5 -70 -99 -69 -32 -96 -30 -8 -67 -26 -98 -85 -95 -24 -20 -4 -35 -38 -19 -90 -58 0
57 52 85 36 53 59 80 32 16 33 41 2 31 70 66 46 7 17 67 4 30 65 23 28 29 48 12 64 21 11 68 58 6 5 35 14 38 98 54 76 43 50 91 51 -26 -94 -25 -93 -97 -9 -22 -86 -15 -3 -88 -13 -74 -95 -34 -90 -45 -73 -39 -55 -47 -92 -81 -56 -84 -63 -42 -61 -37 -44 -60 -82 -83 -8 -87 -27 -19 -75 -89 -40 -77 -78 -20 -79 -10 -96 -18 -69 -49 -1 -71 -62 0
87 21 99 41 63 45 42 74 92 1 24 75 79 17 32 22 70 53 77 62 84 60 98 31 -29 -89 -90 -26 -11 -16 -91 -83 -52 -3 -69 -93 -23 -67 -61 -59 -43 -19 -13 -20 -86 -12 -72 -85 -44 -28 -30 -78 -88 0
70 84 25 65 39 12 22 35 89 29 16 -42 -23 -63 -67 -10 -88 -21 -53 -5 -34 -98 -27 -60 -28 -7 -61 -55 -90 0
73 21 27 1 64 69 18 85 92 61 32 25 55 65 26 56 8 87 44 45 48 88 68 6 82 20 86 14 70 39 51 50 47 53 -2 -7 -30 -91 -12 -19 -33 -11 -43 -31 -24 -9 -22 -59 -34 -5 -89 -62 -79 -93 -54 -84 -29 -76 -67 -23 -57 -74 -17 -16 -13 -46 -95 -28 0
39 59 89 35 85 41 84 74 25 56 46 -10 -20 -92 -1 -24 -22 -79 -99 0
2 90 21 62 50 95 8 32 1 -64 -9 -39 -6 -53 -89 -54 -28 -38 -43 0
25 94 -33 -70 -45 -82 0
49 81 38 12 45 11 41 18 93 69 64 78 8 20 99 31 53 10 6 67 21 9 95 83 30 86 25 72 39 91 63 27 3 4 14 17 74 33 85 32 94 61 28 48 43 51 22 59 5 56 60 77 -82 -57 -73 -40 -75 -58 -65 -90 -36 -96 -76 -54 -47 -44 -7 -97 -13 -23 -16 -26 -87 -19 -79 -89 -62 -92 -50 -68 -55 -1 -24 -52 -2 -98 -29 -88 -66 -71 -15 -34 -84 -37 -70 -80 -46 0
34 62 93 54 96 24 40 36 63 44 38 -92 -15 -59 -7 -94 -76 -89 -75 0
22 73 63 49 41 27 79 38 33 23 81 6 71 36 8 11 70 77 31 91 97 5 86 62 98 39 30 -45 -1 -10 -65 -16 -87 -3 -26 -72 -61 -99 -53 -35 -34 -42 -15 -80 -43 -9 -94 -29 -96 -89 0
46 22 61 63 58 90 26 44 95 2 77 67 97 13 82 39 60 14 81 -6 -12 -18 -57 -28 -94 -31 -74 -86 -35 -62 -21 -89 0
20 29 26 59 39 84 91 4 37 43 98 75 60 31 19 12 36 86 95 76 22 72 45 54 58 10 16 63 92 1 25 49 52 24 41 83 -73 -65 -8 -69 -32 -85 -57 -23 -56 -64 -6 -62 -7 -38 -48 -17 -87 -9 -35 -15 -55 -11 -89 -50 -81 -3 -47 -78 0
54 93 76 22 2 61 24 15 80 3 90 30 66 46 63 9 59 75 32 72 52 85 86 29 56 95 65 26 97 78 -96 -47 -73 -1 -18 -23 -91 -38 -99 -79 -5 -27 -67 -33 -53 -45 -98 -71 -60 -51 0
45 14 19 97 70 51 98 26 87 17 18 1 49 79 20 89 25 -74 -64 -72 -22 -9 -44 -67 -12 -73 -76 -2 -52 -96 -31 -46 -23 -6 -43 -13 -99 -36 -91 0
8 68 78 22 81 4 5 40 56 44 76 75 50 14 49 27 13 -19 -54 -98 -43 -53 -66 -45 -88 -30 -28 -39 -99 -48 -29 -31 -33 -24 -60 -52 -6 0
30 97 11 68 9 47 53 5 69 61 48 79 21 23 63 22 84 58 77 29 70 56 20 60 51 80 17 91 -94 -24 -42 -82 -31 -1 -3 -71 -14 -83 -46 -59 -38 -6 -4 -66 -65 -44 -99 -37 -55 -18 -73 -86 -45 -19 -39 -89 -43 -13 0
86 14 41 43 19 56 8 49 85 36 17 23 4 61 68 73 3 90 81 71 22 53 39 75 7 5 2 95 82 84 98 18 9 12 50 46 32 62 13 37 47 58 -72 -55 -30 -1 -21 -65 -15 -67 -64 -45 -60 -20 -63 -88 -92 -83 -48 -26 -42 -93 -27 -57 -10 -70 -25 -59 -66 -52 -69 -96 -6 -78 -97 -11 -87 -38 -34 -79 0
38 12 53 36 70 2 92 35 48 5 34 77 60 69 -31 -63 -14 -18 -47 -67 -72 -26 -52 -10 -97 -54 -76 -1 0
42 43 21 89 8 99 47 11 67 24 6 92 57 4 37 39 85 94 61 7 80 59 30 20 25 40 -3 -88 -46 -51 -14 -44 -9 -91 -93 -1 -35 -64 -79 -13 -72 -54 -5 -32 -58 -74 -48 -38 -28 -18 -98 -15 -82 -71 -36 -73 -86 -45 0
10 1 89 97 57 50 68 69 -20 -19 -6 -25 -2 -96 -79 -63 -40 -45 -12 0
10 7 50 49 -95 -99 0
97 64 60 4 61 31 90 36 29 71 47 18 26 33 54 17 78 2 95 50 35 74 81 55 65 48 -10 -70 -67 -89 -66 -53 -14 -52 -63 -51 -77 -88 -82 -16 -84 -13 -85 -24 -59 -23 -46 -30 -62 -6 -93 -1 -11 0
80 37 43 94 24 60 31 66 64 9 11 21 25 28 91 55 12 76 7 10 26 87 29 54 15 86 74 61 58 27 51 70 57 35 30 49 42 85 77 14 -46 -16 -69 -88 -20 -83 -41 -45 -52 -53 -2 -56 -75 -6 -59 -73 -5 -18 -3 -47 -8 -92 -72 -79 -78 -93 -38 -96 -63 -68 -81 -22 -1 -65 -33 -82 -34 -23 -62 -40 -84 -44 -67 -95 -99 -50 -97 -48 0
88 55 15 14 49 34 53 31 80 1 67 84 69 51 30 33 90 66 4 27 78 47 32 60 81 2 24 85 -54 -8 -29 -38 -16 -18 -28 -74 -9 -7 -20 -37 -59 -12 -82 -17 -52 -98 -62 -64 -77 -96 -75 -70 -73 -72 -93 -91 -3 -21 -6 -79 -87 -13 -11 -23 -61 -44 -99 -58 -57 -5 -41 -45 -25 0
53 54 88 56 51 48 55 46 83 22 27 44 24 76 61 59 95 91 33 26 42 -75 -87 -72 -14 -94 -50 -90 -93 -70 -12 -34 -45 -18 -40 -57 -69 -39 -92 -11 -15 -2 -4 -84 0
-26 -71 -2 0
76 12 55 49 26 27 31 3 78 63 90 96 61 8 32 98 17 85 1 -23 -65 -94 -92 -79 -44 -56 -41 -91 -34 -43 -4 -40 -30 -58 -14 -88 -89 0
22 36 83 55 -4 -1 -75 -78 -32 -67 -52 -90 0
71 64 44 62 36 5 47 76 40 8 89 67 33 22 59 3 85 84 -41 -61 -82 -32 -4 -34 -27 -99 -25 -73 -26 -95 -1 -96 -7 -28 -87 -15 -52 -58 -77 -21 -65 -78 -10 -35 -98 -75 -79 -91 -9 -49 -39 -57 -53 -45 -51 -50 -14 0
7 45 3 35 41 84 60 98 20 59 1 55 61 38 23 39 37 94 80 27 65 24 51 40 -63 -18 -8 -92 -47 -14 -44 -66 -49 -10 -67 -57 -2 -86 -42 -73 -16 -36 -97 -11 -69 -74 -21 -22 0
79 50 13 27 64 70 26 87 48 20 61 55 17 83 25 89 54 15 75 14 95 69 10 7 8 81 3 63 84 71 42 22 65 99 31 -29 -18 -67 -66 -68 -4 -41 -56 -80 -58 -39 -23 -62 -90 -93 -2 -37 -78 -6 -47 -74 -73 -44 -57 -38 -85 -91 -45 -33 -1 -59 -77 -60 -43 -24 -9 -34 -92 -52 -19 -53 -46 -97 -88 -28 -76 0
25 27 95 6 71 98 -79 -56 -44 -97 -74 -17 -38 0
31 88 1 28 13 60 78 67 95 -24 -68 -18 -40 -87 -59 0
13 14 -17 -7 -79 -92 -25 0
66 68 48 78 10 95 31 61 64 69 41 88 13 85 38 20 12 72 1 47 49 35 37 25 91 52 73 33 74 99 -8 -36 -96 -39 -97 -16 -89 -15 -21 -94 -14 -6 -44 -71 -32 -70 -84 -93 -75 -51 -77 -17 -53 -3 -34 -27 -46 -18 -22 -57 -92 -80 -4 -40 -24 -62 -11 0
86 19 95 11 99 26 81 29 70 55 48 75 94 -91 -65 -40 -60 -8 -66 -12 -47 -49 -68 0
76 5 36 63 15 79 88 18 80 67 26 72 45 83 93 19 70 77 75 59 6 24 1 28 37 50 82 71 23 41 68 92 7 99 -43 -91 -87 -21 -51 -2 -10 -90 -30 -34 -53 -22 -42 -29 -52 -56 -17 -57 -13 -39 -47 -89 -35 -16 -95 -49 -8 -73 -27 -14 -62 -9 -3 -44 0
70 44 10 15 93 -54 -96 -86 -79 -56 -17 -2 -47 -36 -69 -48 -73 -9 0
76 11 -70 -22 -66 -38 0
87 44 73 71 33 53 82 29 56 2 47 25 3 10 96 54 89 52 27 75 64 5 57 46 55 69 58 -48 -22 -77 -90 -26 -30 -4 -94 -67 -18 -51 -28 -80 -16 -14 -37 -35 -12 -23 -38 -34 -59 -6 -99 -9 -62 -43 -13 -32 -98 -66 0
