c NeuroCodeBench 2.0 CNF formula with verdict Sat
p cnf 56 490
6 33 17 44 29 3 11 18 48 56 45 19 2 22 28 27 52 26 50 24 -12 -20 -4 -16 -15 -30 -43 -25 -49 -53 -10 -5 -31 -35 -41 -8 -13 -9 -14 -36 -51 0
44 52 11 30 34 53 17 35 47 27 -16 -50 -1 -22 -25 -4 -2 -37 -7 -55 -29 -19 -46 -15 0
13 53 49 22 8 35 12 46 31 42 10 38 1 9 16 36 41 33 20 -29 -6 -51 -11 -50 -2 -44 -34 -47 -45 -52 -25 -5 -21 -15 -7 -30 -4 -39 -26 -27 -55 -32 -3 -17 -28 0
21 4 55 19 10 27 39 3 -31 -14 0
52 29 10 24 51 55 45 16 33 15 7 31 30 5 21 54 40 44 -38 -11 -49 -17 -34 -56 -41 -2 -53 -43 -28 -37 -12 -50 -23 -36 -14 -48 -39 0
1 47 15 41 20 40 50 -2 -39 -19 -44 0
13 7 22 33 47 14 51 26 42 35 18 15 52 10 -36 -31 -16 -28 -38 -32 -49 -46 -12 -21 -27 -3 -11 -54 0
19 32 50 40 35 44 -38 -45 -15 -2 -14 -7 0
6 55 41 14 36 53 28 40 2 30 -31 -11 -39 -32 -19 -45 -13 -9 -25 -8 -12 -5 -23 -15 -18 -20 0
47 34 46 54 27 48 6 -4 -9 -3 -15 -2 -37 -55 0
5 22 42 12 14 33 29 31 54 48 32 7 25 16 15 13 50 6 38 46 -44 -2 -39 -19 -4 -20 -36 -37 -1 -9 -43 -17 -35 -40 -41 -56 -52 -34 -28 -11 -55 -8 -21 -26 -45 -47 -23 -24 -10 0
28 40 36 31 -15 -2 -37 -14 -22 -5 -33 -23 0
49 24 22 52 41 40 13 -21 -42 -1 -15 -28 0
43 16 25 10 19 -45 -56 -8 0
19 25 36 53 2 46 34 13 20 45 35 8 49 7 16 -42 -6 -48 -30 -14 -26 -5 -32 -18 -37 -11 -9 0
12 39 13 48 41 33 45 7 15 35 23 5 38 -29 -43 -34 -53 -31 -51 -4 -25 -20 -6 -11 -17 -27 -3 -56 -8 -10 -50 -26 -37 -32 -40 -22 0
18 17 46 50 13 16 -11 -53 -5 -45 -31 -26 0
39 28 7 2 3 49 34 1 53 46 27 51 37 52 10 12 29 19 26 17 43 38 23 -40 -8 -47 -4 -18 -41 -45 -44 -9 -35 -6 -33 -20 -16 -11 -5 -54 -48 -14 -24 -31 -25 -42 -13 -22 -15 -30 -32 -36 -21 -55 0
53 22 56 45 39 40 14 20 41 16 44 52 -46 -10 -15 -28 -37 -5 -27 -13 -29 -32 -51 -19 -30 -6 -11 0
48 22 47 19 12 39 28 50 7 26 53 41 18 29 15 27 42 16 3 4 56 54 -13 -9 -55 -31 -33 -2 -40 -37 -44 -8 -1 -17 -10 -14 -32 -51 -34 -11 -23 -6 -46 -52 -38 0
44 43 24 30 7 12 14 42 36 27 33 56 16 34 31 25 -38 -26 -21 -6 -55 -23 -47 -40 -3 -46 -9 -52 -28 -20 -18 -29 -17 0
7 20 34 47 50 35 14 26 23 -1 -31 -32 -6 0
49 32 31 33 1 52 19 28 5 27 41 12 15 23 21 30 42 51 11 7 20 -50 -38 -35 -18 -48 -6 -46 -14 -10 -13 -47 -40 0
53 50 14 5 55 18 40 36 35 3 6 38 29 37 20 28 46 42 39 49 7 54 11 24 -33 -15 -52 -13 -32 -31 -8 -45 -44 -43 -27 -34 -22 -30 -1 -56 -21 0
18 38 11 53 30 31 44 34 1 19 32 2 37 6 -29 -13 -46 -17 -9 -47 -21 -55 -3 -51 0
6 49 4 45 17 29 14 31 28 22 56 10 23 33 9 16 5 -7 -15 -39 -55 -12 -21 -46 -18 -36 -43 -25 -26 -53 -47 -38 0
22 6 11 -44 -18 -36 -28 -31 -39 -54 0
16 46 55 22 35 38 25 54 6 20 26 14 53 27 28 43 39 30 -36 -29 -19 -7 -52 -18 -5 -23 -1 -21 -45 -4 -12 -24 -8 -32 0
3 51 33 11 49 39 34 29 56 21 32 6 54 26 30 14 46 48 18 22 12 7 -5 -15 -17 -20 -36 -27 -42 -4 -41 -38 -2 -50 -53 -44 -8 -40 -47 -45 -31 -16 -37 -23 0
52 18 4 44 2 1 33 15 29 26 27 -12 -45 -48 -11 -41 -13 -21 -55 -36 -9 -28 -47 -49 -8 -16 -42 0
19 21 55 34 37 24 25 9 1 23 11 56 41 14 -35 -39 -22 -42 -8 -15 -44 -27 -40 -52 -36 -47 -7 -26 -54 -6 0
17 24 33 15 23 38 46 22 42 5 21 52 56 36 7 40 39 28 9 53 25 34 -41 -35 -20 -8 -2 -14 -51 -37 -1 -19 -16 -55 -49 -54 -44 -10 -47 0
41 49 4 43 42 14 54 6 20 5 45 12 37 18 32 48 34 -24 -13 -25 -21 -17 -22 -52 -36 -55 -27 -47 -16 -40 -23 -19 -1 -28 -8 0
28 36 14 42 31 56 49 12 5 1 33 37 25 48 11 15 21 18 40 -35 -17 -13 -4 -23 -6 -52 -55 -22 -50 -32 -8 -51 0
29 39 56 48 55 52 38 13 43 6 24 1 28 -11 -3 -33 -30 -40 -5 -22 -26 -32 -54 -46 -53 -51 -44 -35 -14 -17 -12 0
45 37 42 44 35 48 32 43 54 8 18 50 39 23 26 9 40 56 17 20 46 -22 -52 -33 -21 -24 -53 -25 -14 -10 -31 0
26 16 29 39 23 22 33 40 34 -28 -6 0
37 6 39 36 -46 0
38 15 23 36 40 -49 -17 -1 0
24 11 1 39 7 19 50 20 -53 -40 -41 -29 -45 -35 -5 -3 -18 0
12 22 34 37 27 16 50 4 21 17 -38 -5 -49 -29 -54 -28 -53 -19 -20 0
18 33 -23 -47 -8 -12 -20 0
41 -6 -21 -46 -30 -20 0
33 48 49 21 3 14 23 7 12 25 44 51 27 29 46 -31 -36 -15 -41 -54 -28 -17 -20 -42 -38 -45 -9 -1 -53 -40 -18 -56 -26 0
3 16 6 -30 -22 -29 0
20 23 14 44 0
47 14 44 12 24 6 49 3 40 -26 -7 -50 -33 -19 -20 -39 0
48 31 50 27 35 28 26 43 3 52 15 18 46 13 5 44 9 32 6 17 -45 -14 -7 -56 -24 -38 -47 -36 -4 0
35 46 6 18 30 8 5 17 56 28 39 27 22 3 47 -7 -31 -45 -23 -43 -4 -36 -33 -34 -40 -37 -2 -16 -54 0
11 43 41 4 24 28 20 38 -45 -35 -6 -52 -2 -12 -47 -1 -30 -7 -13 -36 0
24 56 33 4 22 46 11 16 14 17 43 29 23 31 1 5 54 48 15 3 28 25 -21 -19 -9 -32 -44 -47 -34 -2 -50 -38 -27 -13 -36 -20 -49 -42 -35 -45 0
39 18 32 46 29 14 3 54 8 16 15 23 40 17 25 45 13 22 4 33 10 20 35 31 -42 -34 -11 -26 -36 -49 -21 -44 -1 -53 -28 -43 -6 -7 -24 -41 -51 -47 -37 -5 -12 -30 -55 -27 -38 -2 -48 -19 -52 0
44 51 15 52 11 23 13 54 3 25 -18 -10 -53 -41 -39 -46 -35 0
26 15 27 8 -55 -9 0
14 1 21 13 11 42 34 56 17 52 41 35 46 -33 -22 -54 -49 -7 -5 -24 -2 -53 -50 -16 -31 -47 -19 -29 -28 -51 -15 -55 -38 -48 0
28 45 10 31 37 50 35 36 41 -12 -46 -32 -34 0
23 52 26 53 18 38 -20 -21 -8 -46 -47 -54 -36 0
38 51 34 1 15 12 7 32 39 25 2 43 41 40 3 19 56 20 22 48 45 44 31 6 55 -33 -13 -35 -24 -47 -42 -29 -11 -30 -18 -14 -9 -36 -4 -5 -46 -50 -8 -53 -16 -21 -10 -17 -49 -54 -23 -52 -27 -37 0
36 14 45 2 16 51 23 -1 -46 -22 0
29 38 42 5 47 48 -36 -34 -30 0
6 13 25 14 12 21 31 34 54 52 36 49 18 29 -10 -8 -23 -40 -50 -15 -28 -30 -11 -20 -17 -53 -37 -38 -42 -19 -39 -56 0
40 15 34 -42 -12 -22 -33 -56 0
13 5 28 53 47 1 25 39 34 40 19 -30 -29 -52 -31 -9 -23 0
2 46 -17 0
16 29 7 44 28 8 50 4 -18 -45 -11 -27 -23 -52 -15 0
6 31 33 19 5 7 46 2 3 48 22 56 43 45 26 52 1 41 -8 -29 -4 -18 -36 -16 -11 -14 -47 -15 -49 -34 -32 -42 -35 -13 -24 -55 -20 -50 -37 0
55 54 35 19 33 10 30 13 12 8 44 38 24 4 7 -37 -53 -31 -23 -49 -9 -18 -32 -36 -16 -21 -48 -43 -40 -6 -17 -52 -42 0
49 19 46 14 32 2 29 56 30 28 55 31 23 37 20 52 -27 -35 -24 -47 -4 -43 -3 -16 -53 -5 -44 -21 -39 -40 -33 -11 -12 -42 -15 0
26 41 35 29 -56 -19 -31 -10 -20 0
2 30 -23 -6 -8 -52 -18 -12 -31 -22 0
49 10 43 33 32 47 -30 -2 -34 -42 0
35 19 20 6 44 14 10 13 40 21 22 42 37 25 47 9 36 53 17 -34 -50 -32 -51 -46 -5 -29 -56 -28 -43 -11 -24 -45 -55 -54 -1 -38 -4 -7 -41 -33 -3 -23 -49 -12 -8 -48 -52 -15 -31 -30 0
10 29 15 33 5 31 44 18 37 14 42 8 20 47 12 38 30 41 -11 -22 -7 -16 -13 -34 -4 -56 -45 0
49 39 6 31 12 21 27 52 37 10 28 46 45 13 1 2 53 38 18 16 23 19 40 34 48 5 -7 -15 -30 -43 -24 -14 -29 -8 -26 -17 -55 -51 -42 -11 -56 -4 -36 -32 -25 -3 -41 -9 -33 -44 -35 0
50 37 5 18 46 21 2 12 41 17 55 7 30 31 6 32 56 48 -44 -1 -42 -43 -29 -4 -51 -40 -10 -33 -47 -35 -9 -45 -27 -25 -20 -53 -15 -23 -36 -26 -13 0
25 23 10 30 4 40 22 37 24 11 36 27 49 15 53 55 20 12 29 42 31 35 16 2 46 1 -7 -33 -6 -54 -13 -56 -14 -45 -44 -9 -48 -8 -21 0
11 24 55 14 47 44 12 9 -46 -7 -41 -8 -23 -29 -17 -40 -45 -22 -25 -18 -56 -52 0
38 16 17 2 51 54 55 24 4 14 31 5 46 44 42 35 49 28 -56 -1 -32 -19 -43 -34 -26 -40 -50 -11 -27 -10 -52 -45 -12 -18 -29 -15 -22 -39 -7 -30 -6 -47 -9 -13 -8 -25 -21 -33 0
8 45 34 39 47 44 16 20 21 50 15 31 1 43 2 19 55 30 -3 -56 -36 -17 -53 -37 -51 -4 -54 -6 -26 -49 -22 -28 -18 0
50 45 53 37 42 41 9 29 36 4 6 25 30 26 18 10 24 49 22 48 35 19 51 -27 -55 -20 -34 -31 -43 -11 -5 -40 -1 -23 -17 -7 -47 -3 -54 -38 -33 -44 -56 -21 -13 -15 -12 -14 -28 -46 -52 -32 -16 0
37 13 2 55 10 -32 -50 -5 -35 -51 -3 -1 -30 -23 -17 0
39 22 32 30 6 33 35 49 2 24 9 7 48 25 5 16 10 14 29 45 -55 -38 -56 -3 -36 -47 -54 -13 -34 -43 -28 -46 -17 -21 -1 -40 -53 -31 -4 0
40 54 7 11 48 9 39 13 55 53 34 33 46 24 15 51 17 56 -47 -36 -43 -5 -28 -6 -41 -25 -20 -31 -35 -14 -22 0
33 32 28 13 12 55 46 9 27 41 17 16 4 47 -25 -20 -24 -38 -37 -15 -2 -7 -30 -11 -42 -26 -49 -34 -3 0
14 11 36 42 41 22 -47 -26 -27 -56 -13 -18 0
2 49 29 8 20 -37 -36 0
51 35 26 12 3 43 40 -21 -27 -32 -16 -13 0
22 20 12 40 3 19 29 10 50 52 44 11 35 17 6 21 54 56 28 -9 -42 -18 -1 -2 -41 -23 -14 -31 -47 -32 -33 -27 -38 -25 -34 -13 -49 -55 -5 -16 0
29 9 13 2 12 21 11 8 31 37 34 27 56 51 45 20 16 22 42 55 39 28 6 52 -4 -17 -47 -3 -36 -10 -23 -7 -54 -32 -53 -15 -24 -41 -30 -19 -18 -25 -50 -26 -43 -48 0
30 35 10 32 22 39 53 49 41 5 6 17 40 2 29 23 55 18 3 37 38 52 54 25 -27 -43 -26 -44 -1 -24 -33 -47 -12 -11 -13 -50 -4 -19 -9 -20 -8 -16 -14 -34 -36 -42 -31 -21 -46 0
16 47 54 48 53 5 4 56 38 11 33 1 40 50 31 6 15 22 29 30 9 19 14 -39 -52 -44 -36 -17 -13 -34 -46 -55 -32 -3 -49 -37 -51 -35 -10 -28 -45 -27 0
23 46 27 6 38 16 44 19 8 5 3 -14 -17 -52 -45 -34 -36 -18 -29 -1 -11 -25 -22 -47 -20 0
6 33 35 54 1 20 16 26 39 9 45 53 -38 -46 -7 -29 -43 -13 -44 -32 -5 -3 -30 -49 -55 0
24 19 23 49 28 25 56 34 35 2 54 33 21 18 50 27 44 43 37 42 52 47 13 40 14 3 31 1 38 41 12 39 -30 -45 -7 -11 -22 -5 -36 -15 -9 -55 -8 -29 0
48 31 9 8 52 35 10 43 24 40 21 25 28 29 45 18 5 14 4 12 -56 -49 -23 -2 -22 -44 -27 -41 -50 -55 -7 -33 -51 -46 0
50 31 34 45 33 9 36 5 2 1 -29 -54 -15 -35 -46 -38 -28 -12 -47 0
22 39 27 30 20 35 28 53 41 44 10 25 26 1 40 37 19 43 46 32 2 33 21 24 12 13 8 14 16 51 55 -49 -50 -54 -29 -6 -31 -4 -17 -36 -45 -38 -34 0
27 2 35 55 23 56 13 43 10 8 38 29 -3 -32 -36 -39 -40 -52 -41 -24 -54 -18 -42 -7 -49 0
12 36 45 11 34 2 38 13 44 42 49 46 33 30 31 6 5 18 50 22 1 17 -54 -15 -48 -25 -9 -52 -24 -20 -53 -10 -43 -4 -35 -55 -39 -28 -56 -23 -21 -29 -32 -16 -8 -14 -47 0
8 14 17 13 30 27 37 24 18 43 19 44 53 38 -23 -36 -15 -55 -29 -52 -10 -31 -49 -6 -33 -39 -26 -20 -1 -54 -3 -28 0
18 39 9 8 45 -44 -38 -11 -42 -48 0
14 22 44 37 46 17 11 21 43 18 12 16 53 45 20 24 28 56 54 3 23 39 47 5 -40 -19 -26 -34 -55 -32 -51 -36 -7 -35 -10 -31 -13 -8 -1 -49 -41 -2 -29 -33 -27 -30 -15 -4 -38 -25 -50 -6 -9 0
54 45 34 41 53 16 5 25 24 52 20 11 13 10 7 21 27 36 3 2 51 28 55 22 23 46 -50 -35 -47 -39 -26 -19 -49 -44 -56 -29 -9 -15 -8 -40 -14 -48 -17 -42 -30 -32 0
26 38 43 11 30 8 29 12 50 35 3 52 33 -4 -49 -51 -5 -24 -41 -46 -44 -37 -47 -55 -53 0
54 51 49 56 6 4 -22 -34 -5 -16 0
6 20 40 15 16 23 18 33 31 -35 -19 -9 -5 -48 -2 -27 -52 -11 0
33 13 49 42 44 40 52 1 25 3 56 32 17 53 47 48 36 4 39 9 7 6 45 30 37 -26 -28 -8 -15 -19 -5 -41 -16 -51 -10 -2 -24 -31 -20 -46 -43 -11 -38 -21 -35 -27 -34 -23 -18 -12 -50 -14 -22 -55 -54 0
44 9 13 56 16 -5 -30 -2 -40 -34 -22 0
1 35 54 53 6 17 50 3 52 51 46 10 29 56 -45 -34 -40 -49 -41 -11 -55 -4 -44 -16 -28 -32 -23 -21 -27 -33 -7 0
51 31 1 9 27 55 29 32 7 4 53 37 38 33 42 49 12 30 16 43 17 28 -40 -25 -8 -39 -14 -18 -44 -22 -26 -47 -34 -2 0
2 15 31 38 16 17 52 22 4 30 5 39 48 56 28 21 51 49 7 20 54 55 -25 -1 -24 -42 -41 -27 -47 -26 -6 -12 -14 -18 -44 -8 -13 -32 -43 -29 -33 -3 0
34 53 7 44 37 25 18 14 32 46 47 20 26 12 15 4 -8 -11 -16 -6 -3 -43 -9 -5 -28 -39 -40 -27 -54 -13 -48 -29 -31 0
31 41 2 19 36 43 26 28 48 17 35 50 49 21 16 51 38 -7 -45 -15 -10 -39 -13 -55 -12 -54 -14 -32 -52 -47 -3 -6 -27 -9 -33 0
4 39 14 27 30 50 32 8 53 36 7 52 11 1 38 19 26 5 13 56 47 55 23 10 12 49 16 6 -15 -44 -43 -2 -33 -34 -48 -21 -40 -28 -18 -17 -31 -45 -37 -20 -46 -3 -41 -24 -9 -22 0
46 11 10 40 41 14 17 42 16 8 36 5 56 7 23 -51 -19 -15 -27 -35 -45 -28 -2 -18 -39 -13 -49 -22 -48 -43 -4 -53 -21 -44 -50 -6 -29 -54 -47 0
8 44 34 32 16 11 12 50 55 2 31 1 42 51 10 54 17 40 45 52 20 30 29 48 -3 -23 -49 -33 -13 -38 -22 -18 -21 -37 -41 -24 -39 -26 -5 -14 -56 -27 -36 -15 -28 -19 -43 0
33 48 40 18 43 7 11 29 30 10 38 2 31 45 56 55 12 22 -23 -41 -15 -9 -54 -26 -13 -32 -51 -47 -16 -49 -14 -28 -52 -42 -20 -17 -39 -5 -19 -50 -3 -8 -53 0
30 49 5 3 55 50 22 16 21 19 44 1 13 10 31 36 45 38 14 -41 -47 -39 -7 -27 -54 -28 -46 -34 -20 -15 -56 -37 -25 -11 -8 -17 -29 -43 -42 -48 -6 -9 -23 0
30 20 -27 -29 -18 -36 0
33 46 12 6 37 10 31 41 34 54 48 38 40 14 27 43 47 55 30 39 51 -19 -5 -2 -23 -15 -56 -22 -16 -26 -53 -7 -35 -49 -28 -24 -18 -1 -20 -4 -50 -13 -9 -42 -3 -45 0
37 4 41 9 28 31 23 52 49 5 30 45 -47 -7 -36 -40 -53 -21 -33 -32 -16 -46 -2 -3 0
35 44 40 46 31 -51 -16 -10 -20 -8 -15 0
12 47 26 4 25 33 38 30 14 16 15 36 29 46 -3 -13 -34 -43 -5 -10 -45 -40 -21 -2 -50 -31 -35 -18 -11 -19 -32 -55 -17 -51 -52 0
44 46 48 42 20 14 43 19 32 49 4 -18 -34 -37 -28 -50 -12 -5 -54 -26 -13 -27 -2 -51 -55 -24 0
40 25 -37 -3 -47 0
6 9 3 16 -28 -31 -13 0
47 34 1 50 4 14 17 31 3 48 -13 -26 -10 -20 -30 -43 -24 -36 -7 -27 -45 -21 -6 -5 -42 -49 -41 -9 0
13 36 16 49 54 4 10 14 3 35 38 39 17 50 48 37 43 8 22 31 34 -33 -1 -20 -11 -41 -51 -9 -56 -42 -2 -15 -27 -30 -12 -32 -25 -55 -53 -44 -47 -23 -46 -19 -24 -26 -52 -21 -45 -40 -6 -7 -29 0
2 27 16 49 21 19 -42 -1 -48 -56 -15 0
50 6 8 11 53 20 46 44 36 10 7 34 3 35 5 54 4 14 12 19 13 25 16 38 37 1 21 55 47 -33 -23 -15 -31 -27 -39 -49 -42 -2 -28 -56 -22 -29 -18 -51 -45 -30 -9 -24 -43 -41 -17 -52 -48 -40 0
52 51 32 47 12 25 33 44 17 31 -13 -41 -37 -27 -30 -14 -3 -29 -9 -38 -18 -7 -10 -56 -24 0
23 22 45 42 54 7 3 14 19 41 56 27 24 39 35 16 11 48 26 30 34 50 6 25 18 10 37 -55 -51 -28 -46 -31 -53 -47 -12 -20 -29 -8 -15 -38 -4 -1 -13 -44 -9 -33 -32 -17 -43 -52 0
43 13 23 47 37 14 -55 -24 -46 -48 -33 0
14 50 40 13 42 15 12 9 32 23 54 11 21 41 43 46 1 26 39 7 6 47 18 22 38 4 8 27 51 2 -49 -31 -35 -19 -55 -24 -33 -20 -44 -17 -25 -3 -16 -29 -52 -45 -10 -5 -56 -36 -34 0
29 30 10 14 33 21 44 28 53 35 16 38 3 -18 -13 -1 -55 -12 -51 -43 -56 0
6 45 22 55 10 28 16 56 29 37 1 51 39 52 -43 -49 -9 -25 -53 -11 -5 -17 -48 -2 -33 0
24 47 27 55 48 10 56 43 52 5 17 19 42 28 41 8 4 -50 -20 -37 -51 -38 -39 -44 -25 -45 -46 -11 -21 -15 -6 -22 -13 -3 -2 -9 -33 0
32 44 4 16 31 -8 -5 -27 -23 -30 0
16 28 34 21 37 55 10 4 29 46 14 26 36 12 9 35 15 -52 -48 -39 -3 -42 -27 -5 -44 -8 -45 -24 -49 -6 -1 -51 -43 -53 -13 -7 0
-8 0
31 48 10 33 34 45 8 -27 -7 -20 -26 -32 0
11 21 30 20 10 35 1 9 36 53 45 55 24 47 5 44 7 43 51 18 12 8 2 48 -28 -13 -37 -32 -46 -23 -22 -3 -52 -29 -16 -34 -50 -49 -26 -40 -27 -17 -15 -6 -31 -39 -38 -25 -4 -42 -33 -14 -54 -19 -56 0
29 7 41 17 54 52 12 11 5 47 2 25 34 51 56 38 53 8 15 28 49 22 50 46 6 33 4 -42 -55 -31 -40 -44 -37 -48 -1 -14 -30 -45 -32 -19 -13 -9 -26 -36 -3 -43 -35 -18 -10 -23 -24 -21 -27 -16 0
20 55 24 34 45 2 11 1 7 4 -3 -17 -14 -50 -44 -46 -37 -31 0
30 -48 -19 0
49 46 38 33 10 6 53 56 23 -12 -28 -55 -36 -51 -43 -47 -18 -54 -21 -48 -8 -52 -22 0
56 42 19 28 40 44 47 18 26 -5 -50 -7 -41 -36 -1 -35 -39 0
53 9 2 4 29 18 5 -56 -33 -17 -15 -28 -50 -10 -51 -11 0
42 23 29 36 13 47 26 33 7 43 21 -46 -19 -50 -28 -6 -32 -49 -27 -31 0
51 23 43 55 31 35 19 44 3 -24 -32 -38 -39 -22 -20 -48 -56 -6 -49 -37 -46 -16 -8 -33 0
55 17 35 53 20 43 1 22 45 51 5 50 29 14 40 3 15 28 32 37 31 7 33 23 4 54 13 48 10 -47 -34 -30 -11 -26 -21 -38 -49 -19 -2 -46 -39 -36 0
54 16 34 9 52 42 1 12 -38 -10 -4 -35 -19 -47 0
40 46 5 38 53 -51 -43 -16 -29 -19 -15 0
31 3 19 4 14 32 42 34 11 45 21 40 17 2 55 6 47 7 28 15 41 9 43 10 5 48 51 23 -8 -39 -35 -30 -18 -53 -22 -16 -37 -36 0
23 24 3 55 35 16 19 27 28 7 -50 -17 -5 -33 0
13 32 52 10 5 7 8 4 30 51 55 24 16 35 -29 -42 -37 -17 -36 -43 -47 -15 -31 -49 -53 0
24 54 16 26 37 34 55 1 10 39 2 44 3 30 -50 -51 -56 -29 -40 -36 -49 -52 -42 -41 -35 -45 0
1 20 42 35 29 33 15 25 14 10 37 27 41 48 43 9 46 52 31 17 34 39 40 12 50 30 54 -32 -18 -28 -21 -5 -2 -23 -16 -45 -51 -44 -22 -6 -55 -24 -13 -53 -56 -19 -47 -3 -36 -7 -26 -11 -4 0
9 1 19 3 53 8 35 23 55 -14 -2 -18 -45 -24 -11 -13 -25 0
17 46 49 34 1 32 16 45 13 4 9 23 56 27 2 54 26 52 42 3 39 33 -7 -12 -51 -22 -24 -19 -47 -14 -38 -55 -36 -50 -43 -5 -30 -15 -8 -35 -18 -6 -53 -10 -40 -41 -37 -11 -48 0
25 17 29 54 10 36 31 30 3 22 44 18 53 46 32 9 12 14 8 15 20 40 -1 -33 -42 -24 -41 -5 -34 -26 -45 -47 -35 -51 -6 -11 -55 -27 -49 -52 -48 0
20 38 43 27 12 44 45 39 56 28 -5 -1 -15 -4 -50 0
20 31 3 55 50 51 7 37 17 43 35 53 44 48 40 4 16 38 46 56 22 47 2 29 26 -5 -49 -11 -39 -15 -10 -18 -13 -41 -52 -19 -30 -54 -28 -32 -6 -1 -8 -25 -24 -36 -33 -23 -27 -45 -9 -34 -12 -14 0
34 32 11 49 53 1 6 24 8 37 7 47 21 20 40 19 39 31 9 25 27 38 3 56 -13 -48 -44 -35 -12 -5 -28 -51 -14 -30 -4 -45 -16 -23 -18 0
14 49 47 55 12 9 39 35 29 36 40 48 43 20 37 52 28 15 45 7 56 16 21 -24 -26 -54 -3 -23 -17 -38 -22 -50 -5 -25 -1 -4 -33 -42 -51 -18 -2 -13 -19 -32 -44 -34 -10 -11 0
22 9 17 35 39 56 33 2 13 52 26 38 4 24 21 7 49 23 29 42 -28 -11 -20 -44 -36 -8 -43 -55 -54 -45 -5 -12 -48 -1 -32 -40 -14 -51 0
17 25 14 13 45 27 5 36 55 -22 -20 -33 -29 -16 -10 -39 -52 -23 -54 -46 -37 0
31 50 12 23 25 17 56 44 24 15 26 18 -3 -43 -27 -41 -11 -16 0
51 30 -55 -21 0
10 29 5 22 54 20 23 52 42 17 19 8 32 36 40 3 50 24 7 18 1 46 38 47 6 35 56 51 -30 -12 -27 -37 -39 -25 -31 -55 -49 -11 -41 -43 -9 -45 -53 -13 -44 -15 -14 -26 -33 -28 -34 -4 -16 0
21 8 47 10 1 11 33 31 15 52 41 42 53 35 23 30 29 14 19 3 -50 -24 -6 -18 -12 -44 -38 -51 -9 -34 -37 -45 0
32 10 21 1 54 17 4 24 36 11 19 7 56 44 34 43 16 28 25 -20 -26 -35 -40 -13 -45 -33 -22 -27 -41 -55 0
33 10 -42 -43 0
8 38 49 15 55 31 46 29 18 6 41 32 11 54 43 52 56 17 39 19 35 21 -42 -36 -30 -33 -45 -2 -9 -48 -3 -16 -12 -25 -40 -24 -13 -26 -37 0
29 13 30 1 22 35 24 52 37 44 3 38 20 16 10 2 19 51 15 4 17 9 50 41 -56 -55 -21 -40 -54 -53 -39 -48 -45 -23 -8 -25 -43 -12 -33 -49 -42 -31 -46 -14 -34 0
49 30 37 36 13 43 14 45 10 38 25 51 19 6 33 15 21 48 2 35 17 46 24 53 34 11 4 54 -27 -3 -7 -31 -16 -22 -23 -41 -56 -29 -26 -8 -28 -9 -18 -40 -20 -39 -42 -50 -47 -32 -1 -5 -44 0
52 41 54 5 -8 -47 -39 0
44 35 45 7 4 -25 -46 -31 -40 -2 0
52 40 50 7 -41 -1 -34 -56 -4 -13 0
19 12 38 14 40 53 35 29 1 18 -30 -9 -41 -4 -43 -42 -49 -52 0
18 50 14 56 53 45 22 -17 -4 -26 -30 -19 -33 -1 -29 0
9 33 48 53 32 20 36 1 50 15 24 49 44 23 5 13 56 34 30 26 -25 -52 -46 -19 -40 -22 -21 -28 -14 -8 -10 0
26 3 13 44 15 2 37 12 49 5 56 32 48 34 -42 -30 -25 -1 -21 -23 -55 -8 -29 -51 -6 -52 -19 -17 -46 -22 -41 -10 -11 -50 -40 0
53 24 10 45 28 8 13 35 56 48 30 36 17 3 7 55 12 16 49 51 1 27 23 14 21 -42 -26 -54 -4 -11 -32 -25 -39 -43 -40 -50 -6 -18 -5 0
3 52 45 38 31 11 9 27 19 17 14 -35 -21 -40 -20 -7 -12 -41 -8 -53 -50 -33 -43 -16 -47 -23 -37 -34 -18 -55 -30 0
26 19 9 40 21 44 27 2 20 50 32 8 33 4 28 55 30 25 6 3 39 13 41 12 48 35 -53 -46 -43 -49 -17 -10 -1 -5 -36 -54 -51 -18 -22 -14 -47 -42 -11 -38 -31 -52 -37 -23 0
6 33 21 37 36 52 1 18 49 12 39 25 38 55 22 31 27 20 43 46 45 14 9 29 -13 -4 -41 -30 -15 -16 -19 -2 -51 -48 -10 -26 -23 -24 -42 -3 -40 -8 -34 -7 -32 0
30 50 3 24 23 55 5 32 19 53 27 14 28 -38 -44 -25 -4 -40 -34 -42 -6 -51 -52 -35 -56 -48 -12 0
2 32 21 38 11 36 -48 -3 -15 -7 -12 -18 -37 -31 -44 -42 0
40 33 24 2 41 21 50 27 16 38 34 23 1 18 -25 -12 -45 -10 -42 -56 -55 -29 -20 -30 -48 -43 -4 -49 -14 -36 -8 -5 -19 -26 -9 -17 -3 -51 0
14 17 11 25 10 38 9 51 42 43 55 45 15 1 29 44 50 22 40 27 -24 -31 -34 -48 -49 -56 -36 -16 -37 -18 -54 -52 -28 -20 -8 -39 -33 -2 -32 -23 -5 -12 -35 -7 -53 0
51 28 36 22 49 19 44 21 3 11 16 56 -47 -2 -5 -30 -43 -17 -54 -53 -34 -35 -48 -46 -52 -50 -29 -37 0
5 9 37 18 24 21 31 35 29 34 28 51 50 17 44 47 46 53 54 23 1 11 49 14 19 -13 -55 -52 -41 -25 -12 -39 -33 -42 -30 -20 -56 -45 -8 -2 -32 -36 -22 -40 -48 -15 -6 -43 -16 -10 -38 -27 -3 -26 0
48 51 50 -15 0
30 24 4 22 43 14 6 51 28 47 49 50 31 46 12 7 27 -21 -45 -44 -9 -38 -36 -32 -3 -48 -25 -16 -29 -26 -18 -40 -19 0
24 33 51 20 10 3 -19 0
39 35 28 21 41 5 15 54 25 -46 -13 -53 -9 -24 -1 -52 -27 -4 -44 -17 -40 -2 -50 -48 -51 -56 -26 0
41 14 24 19 17 39 32 -22 -56 -30 -8 -42 -43 0
47 27 40 14 33 25 30 18 54 12 7 26 32 20 34 36 42 55 5 10 38 52 19 1 37 44 48 -23 -53 -21 -16 -24 -50 -3 -11 -35 -9 -56 -45 -15 -43 -6 -17 -22 0
40 54 34 13 17 23 45 39 51 -5 -2 -49 -37 -20 -6 -27 -41 -24 0
21 5 3 38 -14 0
23 28 10 29 47 43 39 50 -21 -2 -14 -8 -12 -55 -26 -56 0
14 7 1 20 50 46 -12 -33 -9 -43 -25 -13 -11 -32 -45 0
6 43 34 16 12 21 1 29 31 32 14 5 53 56 46 54 8 24 23 37 47 40 30 36 49 10 38 27 -18 -44 -11 -26 -39 -50 -45 -15 -7 -3 -19 -35 -9 -33 -48 -4 -51 -17 -20 -55 -22 -41 -28 -42 -13 -52 -25 0
35 55 33 19 15 38 1 56 39 9 10 52 21 6 48 46 -24 -4 -8 -2 -23 -44 -31 -32 -45 -41 -47 -12 -29 -25 -22 0
9 -28 0
36 33 7 26 43 46 13 30 3 1 12 24 21 6 29 42 11 9 41 51 32 48 52 47 5 54 20 14 -23 -2 -18 -15 -56 -55 -22 -28 -27 -34 -40 -17 -37 -49 0
20 41 2 18 -40 -37 0
7 51 48 15 36 11 39 3 56 41 18 45 35 14 33 53 1 -32 -6 -13 -54 -4 -17 -10 -27 -55 -25 -31 -5 -12 -30 -24 -8 -40 -22 -16 -47 -21 -23 -9 -38 -29 -28 -50 -49 0
52 14 22 12 20 16 33 44 5 18 53 54 32 9 55 29 23 28 25 26 24 1 27 3 -56 -39 -34 -35 -10 -46 -37 -36 -47 -4 -48 -15 -45 -43 -19 -2 -30 -11 -40 -51 0
22 6 9 35 31 51 56 11 17 15 43 18 13 14 36 4 37 28 -5 -42 -38 -20 -34 -8 -24 -39 -29 -52 -21 -40 -25 -47 -7 -49 -27 -23 -10 -50 -46 -41 0
35 38 47 7 5 56 52 44 16 27 19 11 24 10 17 6 13 8 55 45 28 30 25 29 26 33 43 21 -31 -46 -49 -41 -9 -12 -39 -50 -2 -1 -18 -23 -32 -53 -15 0
36 52 19 38 12 2 18 25 28 15 47 50 51 29 14 6 5 34 4 3 44 56 37 16 -27 -32 -20 -42 -10 -8 -7 -33 -1 -24 -46 -31 -55 -13 -17 -43 -35 0
45 42 19 49 50 52 39 17 11 30 4 1 27 24 36 2 56 16 9 12 43 -55 -35 -38 -48 -32 -34 -26 -28 -23 -15 -44 -40 -22 -54 -20 -46 -8 -21 -6 -13 -41 -18 -37 -14 -5 -31 -47 -29 -10 -51 -7 -33 -53 -25 0
25 40 4 8 22 43 12 9 36 10 11 16 42 30 26 46 -5 -37 -48 -44 -27 -51 -50 -56 -1 -17 -39 -32 -19 -55 0
45 6 31 13 39 47 23 -33 -20 -18 -26 -42 -1 -40 -46 -17 -52 -48 -37 -34 -29 0
32 51 8 4 9 49 55 2 12 18 29 31 24 46 45 53 41 5 3 33 36 -21 -11 -15 -37 -14 -20 -47 -39 -17 -19 -30 -34 -56 -38 -40 -6 -1 -26 -25 -28 -52 -23 -54 -10 -50 0
20 3 35 51 47 32 18 24 15 -53 -6 -12 -30 -1 0
9 2 19 32 13 52 7 48 6 25 53 55 38 40 20 42 12 37 -43 -22 -18 -29 -39 -36 -5 -41 -28 -50 -11 -31 -46 -4 -27 -24 -1 -34 0
56 44 27 8 43 5 7 52 9 53 49 20 21 42 55 31 46 13 30 18 15 6 12 24 37 -28 -26 -1 -25 -2 -14 -36 -22 -16 -10 -29 -32 -35 -47 -41 -48 -45 -50 -39 -3 -54 -33 -17 -38 -19 -51 -4 -11 -34 0
32 36 1 13 23 47 49 18 7 42 9 35 53 17 29 27 8 30 44 5 51 38 2 33 -50 -45 -6 -16 -19 -56 -39 -10 -4 -3 -25 -54 -14 -46 -40 -11 -34 -48 -15 -28 -52 -21 -24 -43 -37 -31 -55 -12 0
2 21 38 3 12 34 49 43 35 8 4 30 18 11 32 51 6 44 19 10 33 50 56 28 20 -5 -15 -25 -29 -47 -7 -39 -48 -40 -37 -52 -45 -23 -14 -22 -46 -53 -17 -9 -16 0
29 30 14 8 19 43 4 -45 -28 -33 -10 -40 -54 0
42 37 45 30 53 27 49 35 36 14 34 -32 -44 -15 -16 -22 -50 -2 -56 -43 -52 -10 -29 -28 -47 -41 0
1 9 25 42 15 -40 -5 -55 -28 -7 -27 -29 0
22 -36 -28 0
1 12 15 48 43 35 21 39 31 30 47 36 49 38 45 32 19 11 34 26 18 6 55 33 50 5 -4 -20 -27 -40 -51 -24 -37 -56 -53 -14 -29 -13 -10 -25 -8 -28 -9 -2 -44 -41 -22 -42 -17 -23 -46 -52 -3 0
26 48 22 55 32 8 20 1 7 37 52 -25 -5 -11 -53 -42 -50 -27 -47 -6 -23 0
39 31 33 13 56 19 9 7 26 55 43 49 2 42 3 41 27 48 5 30 40 29 -21 -20 -37 -15 -53 -36 -44 -25 -46 -1 -10 -12 -35 -17 -54 -8 -24 -6 -32 -4 -50 0
34 20 45 43 48 49 2 51 53 31 5 1 29 38 36 13 11 6 3 17 52 -40 -28 -14 -39 -44 -37 -27 -33 -24 -54 -8 -56 -9 -47 -35 -21 -50 -42 -16 -12 -19 -18 -23 -46 0
12 9 27 36 21 -31 -32 -16 -4 -54 -20 0
53 46 13 6 33 10 30 44 -48 -36 -12 -54 -7 -55 -24 0
27 2 56 -15 -4 -51 -1 -18 -10 -7 0
27 54 25 53 33 31 7 41 -39 -30 -14 -9 -13 -4 -46 -8 -40 0
37 49 47 -30 -9 -27 -55 -35 0
24 15 44 2 22 29 49 46 30 32 6 19 40 31 8 35 27 28 -47 -41 -25 -16 -10 -18 -52 -54 -17 -33 -26 -3 -51 -12 -4 -39 -5 -20 -36 -23 -42 -56 -37 -43 -50 0
5 35 51 55 56 -42 -28 -1 -20 -32 -34 -10 -45 -12 -47 0
49 35 48 52 12 34 43 14 33 55 6 24 39 -10 -51 -8 -18 -37 -23 -22 -5 -30 -31 -13 -40 0
56 47 54 2 13 14 9 45 46 55 1 23 -49 -37 -28 -52 -19 0
28 25 -2 -5 -48 -39 0
51 49 9 37 53 24 11 45 34 46 2 32 -33 -8 -38 -17 -27 -40 -41 -14 -43 -7 -35 -31 -48 -25 -13 -23 -47 0
44 18 20 16 40 43 4 29 38 17 19 7 28 1 52 49 13 15 45 14 30 35 36 47 5 55 10 21 12 32 46 3 -2 -56 -31 -53 -51 -6 -34 -23 -33 -37 -8 -25 -26 -27 -41 -39 -50 -54 -42 -11 -24 0
6 8 13 26 31 1 34 44 56 17 52 36 23 21 32 2 19 -49 -38 -43 -53 -5 -46 -42 -11 -24 -22 0
8 27 53 10 11 -13 -4 -49 -37 -22 0
53 7 6 18 37 51 5 12 46 19 34 31 8 41 -39 -3 -33 -42 -38 -13 -16 -11 -2 -52 -32 -43 -27 -9 -1 -47 -49 -48 -14 -29 -28 -45 0
44 34 20 40 5 31 4 11 35 12 47 49 -1 -19 -7 -10 -26 -39 -50 -3 -6 -14 -46 -27 -37 -51 -22 -56 -32 0
11 53 56 42 15 14 51 36 2 31 45 33 28 23 20 34 37 18 10 13 43 54 25 44 52 27 55 40 -1 -5 -24 -38 -32 -19 -7 -22 -12 -48 -50 -41 -9 -21 -29 -26 -6 -35 -4 -46 -17 -39 -47 0
40 27 -52 -23 0
27 28 7 12 15 6 43 53 35 13 42 26 11 1 2 44 32 8 5 -3 -19 -55 -51 -4 -40 -30 -9 -29 -52 -39 -49 -21 -17 -22 -50 -14 -38 -36 -25 -41 -23 -45 -33 -54 -20 -56 -18 0
17 10 26 15 51 30 53 50 25 23 32 41 4 27 44 5 7 2 19 -49 -33 -39 -34 -37 -22 0
19 37 10 7 18 22 48 47 36 13 46 4 25 32 12 5 3 9 56 15 17 49 51 52 -42 -20 -44 -41 -28 -54 -31 -55 -33 -8 -43 -50 -53 -23 -35 -45 -6 -14 -16 -11 -30 -38 0
4 14 48 -50 -18 -56 -24 -33 -31 -27 0
21 49 1 20 56 45 52 50 47 42 2 40 13 51 34 54 18 17 10 32 9 27 44 -3 -46 -48 -24 -19 -23 -11 -25 -4 -14 -41 -15 -8 -26 -30 -29 -36 0
41 56 22 16 47 9 42 7 26 45 43 34 46 17 27 52 19 30 12 -3 -28 -25 -2 -53 -20 -54 -10 -49 -36 -44 -39 -33 -15 -50 -14 -6 -23 -40 0
5 43 32 26 12 22 17 10 -30 -44 -16 -8 -33 -23 -25 -19 -46 -28 -9 -13 -36 -24 -55 0
26 48 41 6 37 28 7 39 31 40 47 12 -25 -8 -30 -54 -32 -51 -38 -3 -35 -29 -55 -56 -43 0
27 36 51 15 37 17 24 12 3 44 49 39 30 52 48 45 50 -13 -10 -4 -31 -28 -22 -16 -5 -35 -25 -26 -54 -55 -23 -43 -6 -2 -32 -40 -41 -8 0
1 47 49 52 8 53 39 21 12 32 -46 -55 -30 -24 -17 -26 -2 -31 -51 -38 -7 -14 -44 -45 0
50 48 6 43 34 56 45 47 5 -3 -39 -20 -22 -31 -24 -35 -29 -32 0
35 50 3 44 30 55 13 11 24 52 6 41 15 14 56 21 33 -16 -48 -54 -38 -2 -12 -9 -10 -39 -45 -20 -46 -32 -51 -27 -23 -34 -5 0
31 49 52 7 56 14 44 11 40 36 18 9 28 38 50 1 15 43 29 5 12 10 22 16 17 54 24 35 4 -32 -19 -48 -21 -53 -33 -23 -3 -46 -8 -6 -55 -26 -41 -27 -34 -13 -47 -45 -39 -51 -2 -25 -20 -42 -37 0
35 7 26 10 34 52 28 39 -36 -47 -51 -53 -46 -24 -30 -48 -23 -25 -32 -27 0
21 56 14 43 17 32 51 29 54 37 25 20 55 30 44 39 40 35 -6 -27 -31 -10 -9 -41 -3 -38 -36 -24 -50 -42 -47 -49 -45 -11 -33 -18 -4 -12 -53 -15 0
40 48 4 52 38 35 21 2 53 9 -39 -25 -3 -54 -45 -26 -29 -31 0
33 56 1 35 3 15 -12 -48 -50 -18 -51 -13 -44 -2 -22 -27 -4 -41 -21 -52 -9 -37 -39 -47 -20 -54 -6 0
54 15 33 20 17 -1 -53 -51 -11 -36 -28 -40 -41 -56 -37 0
5 24 14 -8 0
35 55 40 27 13 5 14 29 16 26 9 20 38 56 3 7 4 47 46 44 28 36 37 -53 -17 -51 -54 -30 -23 -18 -39 -45 -48 -33 -24 -11 -2 -34 -19 -22 -32 -52 -41 -50 -1 -10 -21 -6 -31 0
2 41 49 45 54 21 33 10 52 55 17 5 38 56 34 -16 -40 -31 -39 -3 -35 -19 -6 -51 -36 -8 -46 -12 -22 -48 -1 0
39 22 10 50 45 32 14 30 2 23 4 47 5 33 31 44 19 56 11 25 12 29 17 49 41 -13 -6 -52 -48 -55 -27 -8 -36 -37 -35 -9 -28 -26 -38 -51 -40 -42 -24 -54 -53 -43 -16 0
6 11 47 10 55 48 16 19 56 7 50 25 46 34 44 -20 -36 -18 -2 -9 -21 0
29 40 31 34 49 41 7 43 11 33 19 20 35 17 42 47 12 5 18 25 28 9 38 8 -21 -4 -32 -26 -54 -36 -6 -52 -55 -45 -13 -39 -50 -24 -56 -2 -1 -48 -22 -46 -53 -10 -14 0
36 37 31 -3 -10 -33 -2 0
4 53 27 56 33 11 -17 -48 -2 -26 -39 -41 -35 -55 -34 0
12 37 44 -49 -6 -19 -14 -8 0
32 5 49 -48 -38 -12 0
47 50 41 7 12 22 -11 -3 -52 -38 -18 -14 -44 -30 0
32 29 54 56 52 13 30 31 49 8 3 48 -6 -45 -40 -25 -18 -20 -39 -15 -42 -33 -27 0
4 43 13 29 37 3 9 47 20 26 25 11 44 2 6 -52 -49 -54 -38 -46 -18 -51 -22 -12 -10 -39 -16 -19 -17 0
21 7 -26 -42 -19 -13 -18 -39 -29 -53 -30 -37 -16 -17 0
32 6 11 56 4 3 2 27 15 54 35 12 25 37 18 9 49 48 -26 -8 -55 -17 -22 -36 -42 -44 -52 -50 -47 -34 -39 -1 -45 0
52 23 38 41 7 43 30 44 9 51 13 14 48 5 21 32 45 29 56 37 42 47 11 10 26 22 19 55 15 4 -1 -12 -16 -46 -54 -24 -50 -18 -8 -27 -49 -34 -31 -25 -28 -36 -40 -20 -53 -2 -35 -3 -39 0
26 15 33 20 47 29 14 36 8 3 7 10 53 21 4 9 34 12 1 30 48 19 -43 -46 -51 -35 -56 -18 -13 -5 -45 -16 -54 -42 -23 -6 -24 -27 -55 -52 -41 -44 -40 -49 -17 -11 -31 0
18 43 44 33 49 53 -34 -9 -45 -40 -35 -22 -54 0
53 43 14 5 13 21 22 28 27 17 -45 -48 -29 -30 0
41 9 26 27 42 47 31 35 14 3 11 46 8 -51 -39 -1 -44 -19 -18 -29 -22 -50 -10 -48 -23 -32 -24 0
26 7 22 10 20 40 34 44 25 28 12 5 27 56 49 4 41 8 19 36 21 23 45 13 16 37 -55 -38 -1 -47 -54 -39 -46 -9 -53 -43 -3 -6 -35 -33 -29 -51 -32 -15 -17 -18 -11 -42 -48 -24 -52 -50 -2 -30 0
28 33 50 26 30 4 5 20 11 2 24 54 3 12 19 27 7 47 45 10 49 29 9 8 35 43 -56 -1 -37 -48 -25 -14 -16 -23 -18 -34 -53 -46 -32 -42 -55 -51 -36 -52 -38 -31 -22 -40 -13 -17 -44 -41 -21 0
6 33 25 9 4 47 44 53 24 2 17 14 50 18 30 43 49 7 48 46 35 28 19 40 26 54 3 39 51 20 -8 -13 -16 -38 -15 -42 -55 -32 -10 -29 -45 -37 -27 -56 -5 -22 -23 -52 -1 -11 -41 -34 -36 0
16 18 32 22 34 47 25 52 27 6 29 39 42 31 51 33 9 4 43 -21 -35 -53 -24 -45 -55 -40 -15 -1 -20 -10 -2 -28 0
34 32 -7 -45 -2 -10 -22 0
16 23 53 6 32 52 50 10 27 19 24 8 37 36 13 55 3 1 26 43 5 21 -30 -42 -49 -11 -9 -34 -56 -31 -22 -51 -54 -39 -35 -14 -7 -48 -20 -46 -4 -18 -15 -41 -17 -45 -12 -2 0
27 23 43 2 38 16 9 26 52 4 -48 -7 -5 -40 -50 0
20 6 45 30 50 9 53 44 31 11 52 51 43 55 38 49 47 35 21 17 23 -22 -42 -19 -18 -54 -15 -36 -10 -33 -12 -26 -8 -46 -41 -2 -40 -37 -14 -56 -29 -28 0
5 40 55 18 1 32 20 28 25 21 -10 -11 -42 -43 -33 -45 -2 -23 0
50 7 37 17 44 21 32 5 9 4 26 35 41 24 52 15 18 40 49 34 45 29 31 14 56 -25 -51 -47 -38 -55 -46 -10 -53 -2 -3 -33 -42 -27 -23 -43 -39 -36 -1 -13 -30 -22 -6 -20 -8 -12 -54 -48 -11 0
43 -27 -2 -28 -23 -24 -47 -12 -49 0
17 55 24 42 40 16 3 44 37 10 4 12 27 18 50 33 32 41 49 34 5 46 36 2 52 -23 -19 -47 -7 -30 -11 -25 -31 -14 -26 -39 -56 -43 -21 -9 -54 -38 -51 0
43 25 55 19 16 32 5 44 27 47 24 1 49 37 50 -15 -35 -10 -4 -17 -48 -28 -52 0
20 47 29 2 43 25 22 53 48 34 3 7 50 -6 -33 -24 -15 -13 -11 -16 -19 -44 -28 -45 -9 -49 -36 -41 -51 0
5 31 36 2 22 19 7 20 47 23 13 43 -49 -17 -41 -28 -46 -12 -30 -29 -1 0
6 16 47 54 30 8 -46 -22 -15 -26 -4 -28 -18 -24 -23 -25 0
45 22 8 5 26 3 38 17 9 14 33 6 18 4 30 16 40 15 35 11 49 2 46 19 24 1 -41 -20 -13 -31 -47 -39 -50 -42 -36 -43 -51 -44 -25 -28 -10 -53 -7 -37 -29 -27 -54 -12 -32 -23 -34 -56 -48 -21 0
28 8 38 20 7 36 41 37 45 -21 -40 -16 -30 -34 -51 -22 -48 -3 0
1 48 9 42 17 22 5 15 30 -37 -23 -46 -50 -45 -33 -24 -18 -6 -44 -35 -12 0
26 23 1 19 22 28 17 10 12 43 30 56 21 44 55 36 34 25 37 51 13 14 38 48 31 -46 -3 -2 -4 -15 -32 -9 -27 -8 -35 -18 -54 -41 -7 -49 -24 -33 -45 -47 -29 -53 -16 -6 -40 -50 -42 -20 -52 0
41 30 24 43 42 31 3 32 33 49 29 2 40 27 56 13 4 54 -14 -36 -44 -35 -45 -37 -8 -10 -7 -16 -23 -17 -34 -11 -21 -39 -19 -5 0
47 22 33 30 0
16 38 23 47 6 17 24 49 55 45 56 5 27 35 11 54 34 1 32 20 44 53 3 42 15 25 21 -7 -30 -14 -28 -9 -33 -41 -2 -37 -13 -10 -51 -52 -31 -50 -8 -46 -12 -22 -48 -4 0
23 32 42 24 25 39 15 28 5 46 16 17 51 1 -18 -3 -47 -7 -48 -44 -12 -35 -34 0
49 40 43 30 26 -33 -6 -50 -34 -38 -53 -7 -14 0
4 33 11 26 55 49 6 17 37 29 10 50 45 9 -19 -7 -8 -21 -25 -35 -42 -14 -41 -18 0
54 26 9 30 3 28 -43 -36 -50 -32 0
55 15 26 37 13 20 43 -2 -51 -50 -10 -56 -17 -32 -36 0
56 35 12 11 43 51 26 38 20 50 -23 -17 -48 -31 -5 0
42 15 16 0
10 5 35 32 45 49 18 2 29 48 13 17 56 50 47 20 -27 -3 -24 -8 -9 -16 -7 -6 -42 -51 -36 -12 -11 -52 -1 -19 -43 -55 -15 0
6 3 10 35 18 37 21 -1 -47 -23 -46 -7 -45 -54 -30 -14 -48 -44 0
8 46 16 -38 -44 -31 -55 -3 -35 0
15 14 46 29 38 28 13 43 1 21 -42 -9 -5 -54 -44 -27 0
19 6 39 40 7 50 37 53 51 22 33 42 8 47 32 -9 -56 -45 -31 -1 -11 -52 -28 -13 -41 -26 -18 -23 -54 0
52 40 18 8 20 19 31 28 33 24 4 36 3 35 25 38 5 29 39 32 11 -41 -6 -27 -44 -37 -55 -10 -23 -26 -22 -56 -45 -42 -17 -30 -50 -7 -2 -47 -49 -46 -53 0
41 3 18 45 10 14 1 43 42 27 38 39 33 21 53 16 29 55 2 28 17 -25 -9 -54 -15 -32 -34 -20 -24 0
49 35 8 37 18 51 20 39 17 22 19 11 52 31 21 29 24 43 4 16 -48 -33 -6 -50 -25 -40 -55 -56 -38 -15 -3 -30 -41 -9 -32 -26 -53 -46 -1 -36 -28 -23 -42 -45 -5 -34 -47 -14 -44 -54 -10 -2 0
41 51 20 32 12 8 17 2 30 50 53 7 38 29 54 35 -40 -10 -5 -15 -37 -34 -24 -18 -55 -28 -44 -39 -6 -1 -11 -45 -49 -26 -27 -9 -22 -23 -52 -43 -46 -48 -56 -25 -3 -14 -4 0
45 37 7 -43 -49 0
27 19 -21 -15 0
17 23 44 38 56 15 26 31 37 19 27 9 25 5 2 42 47 4 36 24 -8 -52 -20 -49 -29 -14 -45 -3 -30 -43 -48 -16 -32 -40 -21 -13 -54 -6 -28 -22 -7 -41 -1 -33 -18 0
32 3 21 47 39 19 31 37 35 33 54 1 34 -12 -13 -26 -18 -42 -10 -25 -53 -9 -38 -16 -28 -8 -30 0
11 2 13 1 17 31 8 12 50 39 56 41 10 3 18 34 48 52 25 26 36 55 20 30 14 44 7 -6 -9 -42 -54 -4 -22 -32 -38 -29 -49 -40 -33 -35 -24 -5 -23 -27 -46 -19 -51 -15 0
43 32 24 41 34 29 13 5 46 3 52 15 20 33 22 19 49 36 6 27 51 40 16 54 30 39 -37 -38 -45 -31 -10 -56 -1 -26 -21 -18 -2 -50 -35 -4 -12 -14 -8 -25 -44 -42 -9 -53 -55 -11 -17 -28 -7 -47 -23 0
56 52 39 10 3 47 14 42 18 -4 -5 -1 -27 -2 -51 -53 -50 -54 -35 -9 -46 0
9 17 4 30 24 10 31 45 20 21 37 6 44 54 52 -3 -1 -28 -23 -8 -35 -16 -40 -42 -15 -12 -48 -53 -11 -49 -19 -13 -33 -25 -56 -38 -36 -41 -29 -55 -7 -27 -47 -2 -34 -39 -46 -51 0
9 5 48 28 46 27 7 15 19 23 14 49 33 18 43 6 -53 -47 -29 -37 -17 -4 -12 -3 -55 -22 -54 0
21 6 31 13 37 55 39 47 1 18 34 20 7 51 49 12 -22 -15 -14 -4 -17 -27 -36 -28 0
14 32 27 25 16 26 42 -6 -43 -4 -37 -21 -13 -31 -23 -47 0
46 21 39 55 43 3 56 16 -32 -26 -33 -20 -14 -25 -15 -2 -29 0
4 53 52 34 17 3 18 43 50 6 7 56 20 1 26 46 39 35 49 8 5 30 24 33 -44 -45 -47 -32 -28 -37 -51 -23 -9 -29 -13 -40 -25 -48 -11 -41 -12 -55 -27 -15 -2 0
24 31 14 23 1 47 52 7 53 56 25 34 42 9 -54 -27 -22 -43 -29 -48 -33 -3 -55 -11 -28 -41 -18 -5 -17 -44 0
5 29 0
19 49 48 4 6 -18 -22 -12 -14 -11 -3 -32 -17 -44 -7 -21 -35 0
14 -49 -55 0
53 34 28 37 1 39 50 14 16 45 26 40 7 31 18 2 38 9 49 27 23 -56 -8 -13 -12 -6 -42 -54 -24 -25 -55 -22 -41 -43 -47 -21 -33 -46 -29 -10 0
9 45 7 34 55 38 21 31 19 17 56 24 23 2 40 35 15 -3 -53 -41 -54 -46 -30 -11 -29 -44 -6 -42 -37 -14 -39 -26 -32 -25 -20 -33 -4 -43 0
43 30 52 44 46 16 20 21 40 53 22 35 39 45 1 25 15 56 41 3 11 23 49 -42 -37 -13 -54 -38 -19 -50 -7 -55 -17 -28 -48 -9 -51 -29 -24 -31 -5 -18 -36 -47 -4 -14 -33 -26 -2 -32 -8 -6 -10 -12 -27 0
55 31 43 1 21 18 -38 -6 -35 -26 -56 -27 -7 -32 -30 -53 -50 0
56 23 15 34 13 18 41 33 10 3 19 -39 -36 -51 -22 -44 -31 -9 -26 -55 -4 -11 -54 -8 -25 -12 -24 0
45 50 38 32 -6 0
4 50 12 14 15 21 26 32 40 55 30 37 2 10 49 -53 -51 -39 -31 -44 -43 -23 -13 -54 -19 -20 -9 -34 -16 -56 -18 0
32 53 17 49 20 13 41 22 -37 -47 -48 -42 0
23 28 16 47 14 46 15 48 49 7 -54 -19 -56 -40 -33 -51 -24 -6 -45 -38 -17 -8 -29 -13 -12 -11 0
45 19 35 26 8 21 22 18 23 14 44 50 -47 -1 -5 -31 -39 -46 -38 -9 -54 0
1 46 47 15 10 29 2 18 37 12 33 11 25 13 5 20 35 38 -32 -7 -8 -40 -56 -14 -23 -22 -49 -45 -3 -54 -50 -53 -17 0
13 48 18 25 21 36 -9 -15 -7 -5 -12 -54 -40 -2 0
44 25 51 9 36 45 22 12 23 13 53 54 20 21 4 50 47 17 31 29 43 -11 -1 -6 -26 -19 -27 -42 -28 -34 -8 -37 -32 -10 -16 -3 -5 -38 -56 -40 -33 -52 -15 0
48 30 7 18 52 12 27 41 16 10 54 42 32 5 8 24 4 26 31 33 56 15 6 -21 -39 -29 -50 -36 -28 -9 -46 -13 -47 -3 -38 -25 -53 -40 -45 -17 -2 -55 -51 -1 0
24 41 16 2 17 19 33 49 28 56 52 32 30 14 15 31 20 34 25 36 50 29 6 -18 -3 -12 -27 -5 -43 -23 -1 -4 -7 -51 -48 -37 -55 -8 -38 -54 -10 0
25 44 12 16 26 17 23 42 1 8 14 49 -18 -40 -41 -50 -5 -33 -6 -45 -21 -46 -31 -29 -36 0
27 14 26 39 37 48 36 32 30 1 40 18 -43 -17 -20 -21 -25 -11 -31 -24 -54 -2 -47 -56 -50 -52 -19 -33 -51 -7 -44 -9 0
17 23 7 51 52 28 54 -31 -53 0
36 55 21 7 53 16 48 33 56 -12 -14 -38 -29 -3 -10 -45 -42 -39 -19 -15 -52 -30 -46 -37 -32 0
35 45 52 38 49 32 18 25 47 8 43 30 20 27 56 34 41 19 7 13 5 51 2 26 55 22 -10 -42 -1 -29 -36 -3 -40 -37 -24 -17 -50 -21 -14 -39 -16 -54 -12 -15 -44 -33 -31 -53 -46 0
-10 0
43 40 30 32 53 33 34 41 17 54 25 51 39 49 2 37 27 56 21 28 -6 -1 -42 -45 -14 -11 -18 -29 -47 -38 -4 -52 -10 -22 0
36 28 29 -39 -1 -34 0
4 33 39 1 15 18 48 21 38 9 8 44 25 24 28 17 34 7 11 50 2 27 -29 -56 -45 -22 -43 -23 -52 -26 -13 -36 -54 -49 -3 -55 -30 -14 -6 -37 -10 -53 -20 -12 -5 -51 -16 -32 -35 -41 -40 -47 -46 -19 -31 0
49 -5 -12 0
52 50 48 -13 0
49 23 27 35 26 37 34 -25 -30 -3 -32 -55 0
37 12 54 1 19 38 47 26 7 53 23 6 42 39 40 27 46 13 34 17 22 56 33 8 35 45 43 -16 -14 -36 -28 -10 -24 -48 -15 -49 -30 -11 -31 -51 -9 -44 -29 -25 -52 -3 -20 -50 -55 -4 -5 -18 -2 -41 -32 0
5 17 46 8 31 24 13 43 41 27 18 6 32 51 37 1 55 45 47 25 38 11 49 2 53 -3 -20 -9 -12 -54 -30 -14 -44 -40 -15 -56 -4 -48 -22 -10 -26 -35 -34 -42 -7 -50 -29 -52 -39 -28 -21 0
43 8 53 4 -26 -39 -2 -23 -22 -46 -11 -40 0
51 7 1 41 24 43 -21 -45 -25 -40 -29 -2 -27 0
46 55 56 28 15 42 41 12 7 16 27 51 54 14 52 33 34 5 13 11 23 -25 -32 -10 -26 -19 -24 -38 -44 -4 -6 -17 -22 -45 -29 -21 -53 -31 -9 -40 -49 -50 0
22 53 15 56 32 31 14 30 20 55 52 39 7 5 37 16 44 18 29 13 17 46 34 4 12 54 23 27 25 33 26 6 45 9 -8 -42 -49 -24 -48 -19 -47 -38 -28 -40 -36 -1 -50 -11 -21 -2 -3 0
14 2 -10 -18 0
25 32 33 41 47 23 51 10 49 12 39 36 28 -2 -27 -11 -13 -31 -22 -42 -17 -50 -4 -1 -44 -30 -5 -16 -18 -7 -15 -9 -20 -55 -26 0
15 20 35 7 42 44 4 17 3 43 12 54 -53 -51 -16 -38 -10 -18 -48 -46 -27 -31 -22 -23 -21 -56 -40 -5 -11 -34 -19 -6 -26 -49 -29 -24 -2 -45 -50 -36 -28 0
-51 0
39 42 41 33 8 1 55 51 49 26 3 20 17 35 54 11 43 27 40 23 -32 -30 -24 -34 -52 -29 -45 -50 -31 -16 -28 -7 -21 -13 -5 -4 -19 -6 -14 -56 -12 -37 -15 -38 0
49 12 43 25 7 36 54 51 17 8 37 16 53 46 13 15 38 42 31 55 2 44 1 -33 -28 -20 -56 -34 -39 -50 -27 -6 -30 -32 -24 -10 -47 -35 -3 -41 -4 -23 0
47 35 22 56 32 41 13 43 16 30 29 17 12 20 55 1 7 50 38 39 15 10 52 14 -26 -28 -19 -21 -46 -54 -45 -40 -27 -6 -23 -33 -49 -36 -18 -4 -37 -34 -9 -48 -3 -42 -24 -25 -2 0
33 21 44 3 1 43 51 38 4 36 37 19 -24 -27 -48 -31 -10 -17 -49 -9 -56 0
53 42 32 27 13 12 47 31 43 35 15 18 9 52 -55 -45 -20 -26 -1 -8 -34 -56 -48 -2 -7 -17 -11 -28 -6 -40 -4 -39 -10 -5 -44 -54 -33 -23 -41 0
49 8 13 -31 -3 -50 -9 -19 0
22 29 30 19 37 48 36 1 42 53 27 49 23 44 4 55 24 -35 -10 -41 -14 -46 -56 -16 -7 -45 -51 -20 -5 -31 -17 -32 -9 -12 -34 -2 -8 -21 -18 -13 -11 -54 -26 -38 -43 -6 0
23 53 27 24 47 37 45 41 31 26 38 34 -5 -7 -48 -35 -18 -10 -6 0
44 16 14 29 28 19 2 1 42 5 39 11 15 7 8 34 37 52 13 47 21 10 48 46 9 35 40 22 -50 -4 -18 -26 -6 -27 -32 -20 -33 -23 -41 -3 -30 -56 -25 -45 -53 -51 -24 -55 -31 -36 -17 0
14 56 15 26 22 3 19 49 16 52 33 31 48 27 42 55 2 17 50 45 21 11 7 46 47 25 6 -1 -39 -20 -23 -24 -54 -12 -18 -51 -38 -53 -40 -13 -9 -36 -4 -10 -41 0
2 32 23 22 8 1 38 45 53 48 11 16 46 51 37 -56 -49 -52 -9 -7 -21 -44 -43 -40 -27 -42 0
48 40 46 20 55 27 52 -30 -49 -1 -12 -37 -19 -36 -6 -38 0
41 18 27 54 17 50 40 22 28 42 33 26 14 36 19 9 45 35 23 11 47 46 -49 -43 -7 -52 -12 -37 -10 -31 -53 -56 -29 -25 -16 -5 -6 -55 -13 -21 -8 -34 -2 -48 0
55 20 39 21 14 23 29 40 16 35 13 19 32 15 -52 -41 -22 -27 -6 -5 -48 -56 -44 -25 0
6 16 17 1 36 30 5 52 27 25 2 42 50 46 49 56 53 -43 -15 -31 -41 -40 -4 -32 -9 -11 -35 -26 -13 -39 0
39 27 16 22 9 32 31 7 24 46 41 18 33 21 54 25 53 37 -55 -12 -10 -40 -30 -44 -56 -26 -51 -13 -5 -15 -8 -45 -17 -19 0
2 50 52 40 47 49 8 33 36 11 22 30 16 29 17 -13 -15 -1 -34 -28 -55 -44 -4 -20 -42 -38 0
29 36 30 25 -44 -26 -16 -6 -18 -39 -45 -11 -22 -9 -14 -28 0
36 28 25 26 40 39 34 18 14 4 38 53 3 33 48 31 8 10 30 24 56 50 27 -7 -41 -35 -9 -45 -43 -1 -29 -37 -13 -54 -19 -49 -51 -46 -6 -32 -55 -44 -16 -20 -23 -12 -52 -22 -47 -15 -2 -42 -11 -17 0
35 40 11 55 -43 -2 -20 -49 -52 -44 0
30 34 47 36 2 32 6 52 15 21 53 37 38 46 26 17 1 55 11 14 42 12 -3 -50 -16 -28 -51 -8 -29 -43 -49 -13 -4 -19 -41 -39 -54 -10 -44 -48 -56 -40 -25 -18 -7 0
28 32 51 15 16 47 37 54 17 22 21 34 -5 -25 -40 -8 -55 -39 -44 -46 -53 -2 -35 -19 -27 -41 0
1 7 55 11 25 14 33 56 10 43 51 6 13 47 22 24 16 19 53 42 41 -44 -52 -12 -4 -15 -20 -39 -28 -27 -54 -18 -21 -37 -17 -3 -38 -5 -34 -45 -23 -35 -8 -32 -49 -2 -46 0
24 14 26 12 15 1 47 -43 -32 0
48 55 31 44 45 56 17 42 20 8 38 35 2 4 6 29 37 10 36 -47 -49 -25 -11 -34 -54 -51 -50 -41 -52 -21 -23 -18 -30 -3 -7 -12 -46 -28 -24 0
40 7 29 53 11 30 55 16 47 39 23 31 36 -14 -10 -18 -6 -26 -32 -35 -24 -27 -34 -38 -51 -44 -8 -13 -3 -25 -2 -43 -28 0
31 -5 -43 -46 -10 -25 -28 -17 0
53 1 26 51 49 47 52 23 33 32 16 46 36 -56 -48 -54 -41 -18 -2 -6 -50 -8 -42 -35 0
30 -25 -38 -29 0
-21 -25 0
9 28 27 37 56 51 18 30 26 42 16 -20 -53 -48 -6 -25 -19 -2 -3 -54 -13 -35 -22 -40 -34 -50 -41 -38 -12 -8 -36 -39 -21 -23 -47 -14 0
31 13 4 17 11 27 37 43 18 48 -38 -21 -44 -32 -33 -50 -20 -12 -51 -19 -15 -8 -6 -54 -26 -29 -42 -56 0
54 38 22 42 56 16 41 35 18 12 28 3 24 46 -39 -32 -29 -53 -20 -40 -55 -33 -31 -17 -7 -49 -51 -13 -48 -1 -8 -37 -43 -23 0
30 33 26 21 34 15 36 10 9 7 38 2 11 49 51 18 16 8 54 56 48 -3 -43 -32 -23 -17 -24 -5 -55 -47 -53 -1 -20 -22 -50 -39 0
3 8 34 21 35 6 27 29 7 43 -40 -12 -17 -9 0
42 32 54 3 21 46 13 51 47 36 50 -1 -26 -19 -24 -31 -40 -52 -44 -5 -14 -56 -7 -16 -15 -27 -11 -25 -41 0
42 9 47 53 32 13 30 23 36 34 11 10 6 19 14 -40 -2 -16 -33 -20 -17 -5 -15 -44 -55 -18 -27 -37 -21 -52 -39 -1 -38 -49 0
44 36 23 26 42 15 50 25 14 3 12 35 45 51 18 21 49 53 47 13 16 24 39 17 -34 -40 -30 -32 -43 -20 -52 -48 -38 0
37 54 12 3 53 22 10 31 41 24 52 20 8 29 48 27 1 51 34 9 40 -21 -4 -11 -36 -45 -35 -17 -26 -23 -32 -18 -2 -49 -25 -39 -28 -15 -7 -6 -43 0
5 41 -37 0
55 -6 -21 -12 0
44 27 34 10 6 36 4 31 42 5 55 13 22 11 38 35 43 41 46 54 30 2 -32 -9 -12 -52 -50 -8 -14 -33 -51 -18 -25 -26 -17 -45 -53 -49 -19 -40 -28 -47 -15 -20 -16 -24 -39 -37 -29 -7 -56 -23 -48 -3 -21 0
4 34 37 45 43 -44 -7 -8 -38 -24 -10 -15 -1 0
31 16 3 21 40 2 33 7 55 10 12 28 17 22 53 48 4 41 50 42 51 35 26 11 38 45 -29 -37 -14 -23 -27 -43 -18 -6 -47 -9 -20 -44 -56 -46 -1 -24 -54 -15 -52 -39 -32 -36 -5 -19 -49 -13 0
52 -12 -20 -38 -8 0
29 28 12 7 55 53 5 35 32 52 15 34 27 18 37 43 23 38 24 50 56 4 36 30 20 51 9 11 42 -54 -44 -13 -19 -22 -40 -41 -3 -17 -2 -10 -45 -8 -6 -47 -48 -31 -26 -49 -46 0
14 40 8 7 12 21 6 32 4 35 15 50 46 48 16 39 38 56 1 9 2 36 20 -27 -17 -34 -28 -51 -31 -25 -53 -5 -26 -10 -24 -52 -45 -42 -43 -29 -33 -11 -37 -22 -18 -54 -13 -19 0
32 25 23 5 29 16 40 13 21 26 -39 -19 -35 -14 -48 -20 -18 -34 -17 -51 0
40 51 8 39 12 11 -30 -18 -41 -47 -44 -26 -5 -53 -14 -56 -36 0
11 29 42 53 27 21 10 33 37 14 12 5 46 52 18 28 -20 -32 -47 -2 -44 -55 -8 -56 -13 -35 -16 -41 -23 0
18 24 26 37 22 46 34 4 5 29 38 17 2 35 12 44 1 52 55 48 54 23 42 43 -13 -30 -14 -51 -47 -6 -40 -39 -7 -32 -3 -21 -31 -20 -33 -27 -8 -36 -10 -56 -16 -15 -9 -11 -45 -19 -25 -41 -49 -53 -50 0
26 39 25 2 46 17 6 3 19 48 14 28 51 13 43 22 16 18 33 -9 -54 -27 -55 -41 -31 -15 -45 -37 -36 -38 -21 0
1 15 32 49 48 -19 -42 -6 -21 -17 -25 -34 -50 -43 0
10 18 27 17 20 30 31 23 33 36 40 15 -16 -14 -13 -56 -53 -7 -4 0
48 9 50 55 18 2 17 14 6 12 41 36 25 43 46 38 -23 -13 -3 -24 -7 -35 -5 -29 -37 -42 -21 -49 -40 -30 -47 -16 0
21 26 54 0
29 19 39 7 -41 -28 -10 -48 -38 0
18 39 51 48 50 6 20 26 54 19 43 34 14 3 7 25 56 47 36 44 42 29 49 45 8 4 23 1 2 11 -40 -37 -38 -10 -28 -55 -27 -52 -9 -46 -5 -30 -12 -13 -32 -53 -35 -31 -21 -33 -17 -22 -24 -16 0
28 42 41 12 46 37 18 51 4 19 26 13 49 30 -10 -39 -17 -5 -56 -1 -7 -50 -53 -27 -48 -54 -32 -33 -34 -3 -47 -23 -24 -35 -8 0
3 20 41 31 51 16 53 18 36 10 44 37 29 9 13 55 24 46 -5 -34 -50 -40 -26 -43 -35 -4 -23 -14 -49 -33 -30 -2 -22 -12 -27 -42 -17 -28 -45 -48 -6 -25 0
7 22 5 9 52 13 28 39 44 30 47 4 41 31 18 21 24 8 25 38 20 45 55 -12 -33 -27 -11 -16 -35 -43 -54 -49 -37 -50 -26 -23 -15 -29 -40 -17 -56 -34 -14 -1 -46 0
46 -28 -34 0
7 10 52 2 18 36 32 26 30 53 35 21 8 44 45 38 6 25 27 41 43 4 9 24 31 39 -47 -37 -14 -19 -13 -55 -49 -17 -50 -20 -15 -34 -12 -28 -51 -40 -48 -3 -5 -56 -23 -33 -1 -16 -42 -46 0
45 12 8 21 2 56 16 6 9 -25 -14 -13 -18 -54 -41 -11 -20 -26 -5 -50 -48 -39 -31 -38 0
55 48 27 56 6 40 46 20 9 33 44 29 5 12 23 35 7 25 8 24 49 28 38 11 34 -32 -51 -13 -19 -54 -26 -16 -14 -45 -42 -39 -47 -43 -4 -50 -1 -31 -41 -2 -37 0
40 12 3 11 20 56 31 49 33 35 13 26 41 37 2 29 1 15 8 48 5 55 10 -51 -17 -54 -42 -18 -21 -32 -53 -52 -14 -6 -28 -19 -25 -44 -23 -22 -47 -45 -16 -39 -36 -38 -34 0
40 37 55 20 11 45 54 46 -22 -53 -23 -52 -48 -27 -49 -29 -50 -38 -43 -3 0
32 10 29 1 -52 0
17 51 10 11 30 4 54 45 52 33 32 28 9 50 12 29 56 53 40 31 -43 -26 -15 -1 -24 -37 -5 -36 -7 -20 -2 -18 -22 -19 -47 -44 -6 -13 -8 0
22 52 -28 -39 -14 0
55 24 38 42 25 8 17 47 45 52 7 21 51 20 33 46 19 39 53 6 31 50 40 36 32 37 48 13 11 -4 -12 -26 -34 -56 -15 -2 -54 -35 -23 -10 -28 -27 -16 0
9 16 35 38 25 55 23 17 29 14 56 46 12 15 11 39 2 6 19 41 31 5 7 27 -47 -49 -8 -21 -53 -52 -3 -28 -30 -32 -44 0
55 4 39 24 23 22 51 17 1 15 53 -30 -16 -52 -44 -32 -11 -46 -3 -13 -42 -31 -56 -37 -28 -7 0
11 24 0
55 36 12 14 40 32 5 21 30 1 35 19 26 8 53 25 48 28 10 54 41 46 22 -23 -15 -52 -9 -49 -29 -24 -42 -47 -38 -16 -7 -39 -43 -37 -56 -50 -11 -45 -6 -27 -13 -4 0
56 12 17 24 -41 -31 0
28 11 17 4 2 20 12 21 18 53 36 29 43 24 26 -47 -1 -7 -33 -41 -37 -40 -15 -25 -38 0
14 45 1 3 48 9 17 47 26 32 6 4 10 40 37 51 -16 -33 -28 -7 -49 -55 -25 -52 -27 -20 -42 -22 -8 -19 -54 -36 -5 -38 -29 -56 0
9 45 15 11 55 3 20 47 13 17 27 38 2 24 54 28 1 37 42 18 44 -25 -34 -22 -23 -7 -35 -39 -5 -48 -16 -33 -46 -30 -8 -6 -14 -19 0
3 50 39 51 10 48 8 40 9 7 1 5 22 25 44 28 41 52 16 32 -12 -56 -27 -49 -2 -21 -14 -13 -6 -30 -31 -54 -18 -33 0
34 11 5 24 45 29 40 8 36 44 25 39 4 56 1 46 41 50 20 33 48 6 28 -14 -37 -55 -16 -51 -27 -3 -15 -42 -38 -54 -12 -2 -17 -7 -19 -35 -22 -43 -26 -31 -23 0
31 32 48 33 -28 -47 -15 -52 0
31 54 50 43 5 56 10 37 32 47 51 46 55 22 14 40 19 26 25 4 49 52 15 -33 -11 -27 -1 -13 -24 -38 -39 -2 -20 -34 -23 -18 -42 -35 -45 -30 -3 -29 -41 -48 0
19 55 53 40 30 52 18 16 28 24 36 48 42 -47 -14 -46 -56 -29 -4 -45 -37 -8 -23 -33 -20 -25 -2 -22 -39 -50 -27 0
47 24 6 30 34 3 8 42 2 20 37 51 54 31 53 13 48 19 52 -1 -28 -27 -49 -4 -26 -7 -55 -38 -29 0
48 35 41 25 16 8 10 44 15 27 23 24 -6 -5 -55 -45 -18 -40 -11 -52 -1 -36 -22 -32 -42 -2 -43 -26 -30 0
43 24 1 56 19 6 20 50 22 49 32 29 51 36 53 13 38 42 31 -7 -41 -18 -52 -12 -54 -28 -5 -17 -55 -26 -9 -21 -45 -46 -14 -44 -39 -40 -3 -30 -48 -16 -8 0
46 37 16 29 53 14 8 49 19 41 28 47 45 3 43 5 27 36 42 51 7 17 32 20 39 44 1 10 -34 -12 -21 -50 -56 -22 -35 -6 -31 -18 -13 -54 -25 0
15 37 42 40 12 23 24 9 20 1 13 45 3 35 38 52 29 10 11 2 33 -5 -18 -21 -43 -53 -36 -25 -41 -39 -4 -30 -56 -19 -7 0
2 27 50 53 10 44 19 54 5 -46 -43 -55 -7 -1 -4 -20 -31 0
28 20 46 45 30 10 27 23 -15 -29 -2 -48 -52 -7 -54 -14 0
14 54 7 4 23 27 20 34 49 1 32 18 37 39 2 48 36 38 25 15 40 12 30 3 35 56 -33 -29 -51 -55 -9 -17 -44 -50 -45 -8 -52 -28 -46 -11 -42 -41 -47 -31 -6 -24 -5 -13 -19 -10 -26 -16 -53 -43 -21 0
3 7 31 9 35 2 13 44 34 49 47 29 30 32 24 -14 -42 -54 -51 -46 -23 -26 -53 -33 -17 -50 0
41 4 19 18 36 13 24 29 44 47 52 32 25 40 7 20 38 -12 -50 -49 -23 -42 -43 -3 -33 -26 -9 -39 -21 -17 -30 -1 -6 -16 -10 -35 -8 -27 -55 -37 -22 -31 0
56 1 18 29 27 28 53 19 50 24 31 43 37 3 40 21 16 51 -39 -30 -49 -44 -15 -17 -38 -12 -10 -22 -5 -36 -55 -35 -46 -23 -42 -45 -9 -54 -33 -34 -14 -48 -7 -26 -32 -8 -25 -52 -13 -6 0
28 32 23 33 21 41 51 -9 -53 -52 -36 -43 -42 0
18 13 30 22 41 37 39 52 12 55 2 6 11 10 44 33 5 27 35 19 34 20 26 8 31 48 46 -53 -24 -45 -28 -16 -42 -56 -51 -17 -1 -38 -47 -36 -49 -23 -15 -40 -9 -25 -3 -29 -32 -14 -4 -54 -43 -50 -7 0
55 27 7 -52 -53 -17 0
9 2 18 32 41 29 7 5 10 50 54 19 13 -3 -15 -6 -26 -16 -48 -31 -46 -43 -45 -33 -47 -17 -30 -14 -44 0
23 7 20 10 12 4 1 -18 -40 -13 -49 0
55 53 29 30 25 1 13 34 16 14 10 19 8 47 5 28 -2 -39 -48 -18 -54 -45 -41 -6 -24 -40 -7 -44 -52 -43 -46 0
9 51 29 45 55 37 35 2 22 34 13 3 49 33 15 31 27 10 46 11 8 54 32 52 17 23 18 28 -40 -16 -50 -5 -56 -42 -4 -41 -38 -43 -36 -24 -21 -7 -6 -47 -1 -44 -20 -30 -53 -26 -48 -19 -25 -39 0
34 49 43 29 53 42 41 6 8 45 31 3 51 52 2 37 55 22 36 47 16 44 27 35 -24 -7 -9 -12 -17 -56 -30 -20 -26 -18 -40 -33 -46 -39 -48 -14 -13 -54 -28 -25 0
6 55 48 45 44 7 19 21 12 33 36 39 -5 -13 -28 -32 -51 -1 -50 -14 -26 -54 -23 -46 -11 -20 -10 -41 -17 -9 -29 0
25 35 3 5 50 31 9 51 1 8 54 26 -13 -42 -21 -12 -48 -36 -47 -29 -49 -4 -27 -28 -33 -7 -46 0
47 3 20 23 5 38 2 4 7 6 35 36 26 37 17 34 10 21 55 41 46 42 14 -32 -9 -50 -39 -30 -15 -24 -51 -11 -19 -31 -27 -29 -16 -28 -13 0
19 37 4 23 56 -29 -34 -16 -44 -7 -21 -41 -39 -25 -18 -17 0
33 29 8 20 6 25 -3 -46 -41 -35 -51 -39 0
41 40 19 48 37 17 47 43 44 56 11 30 46 6 36 26 27 23 29 1 4 52 45 18 3 8 -32 -9 -54 -25 -28 -5 -39 -10 -22 -33 -51 -38 -42 -21 -15 -14 -13 -35 -34 -55 -7 -31 -2 -20 0
50 32 27 43 24 31 38 12 56 55 48 8 36 29 7 39 30 5 16 -22 -23 -28 -52 -49 -13 -46 -40 -25 -35 -37 -34 -15 -44 -3 -1 -53 -9 -51 -47 -45 -19 -41 -10 -20 -6 -54 -21 -2 -17 -11 -26 -33 -42 -14 -4 0
43 53 24 1 51 45 41 36 8 42 56 12 34 46 47 5 50 15 31 10 6 21 20 22 -2 -39 -37 -33 -4 -30 -13 -3 -23 -40 -9 0
