c NeuroCodeBench 2.0 CNF formula with verdict Sat
p cnf 79 306
28 39 75 13 1 53 41 45 32 35 38 26 60 74 77 65 25 14 58 71 -56 -47 -63 -44 -33 -43 -34 -5 -37 -42 -67 -40 -8 -30 -73 -24 -48 -46 -69 0
8 65 9 76 63 42 15 59 40 5 53 31 67 56 26 20 57 74 13 52 47 17 22 29 34 12 51 50 66 70 79 16 7 61 2 -60 -30 -46 -62 -23 -43 -1 -6 -33 -14 -39 -4 -55 -35 -72 -41 -77 -45 -37 -68 -49 -78 -71 -38 -36 -18 -24 -27 0
48 76 42 77 28 5 66 2 68 67 1 -52 -65 -45 -59 -11 -50 -24 -73 -36 -54 -40 -37 -56 0
19 -60 -23 0
2 18 49 79 -25 -15 -44 -16 -60 -58 -46 -64 -47 0
23 1 28 31 15 61 67 7 65 37 76 13 3 54 77 27 34 60 42 20 30 43 63 33 10 79 35 18 16 39 29 4 70 55 59 50 68 24 72 25 -45 -12 -32 -5 -44 -48 -17 -57 -78 -26 -58 -6 -41 -71 -40 -62 -51 -73 -49 -38 -56 -21 -14 -36 -52 -46 -74 -53 -2 0
78 73 44 13 18 76 79 70 67 63 38 74 3 56 30 50 24 11 66 21 55 40 72 69 25 16 19 47 39 59 -12 -1 -15 -10 -57 -58 -26 -46 -48 -17 -65 -28 -7 -54 -62 -71 -45 -37 -32 -36 -33 -68 -51 -41 -49 -53 0
43 76 21 52 13 -65 -20 -67 -54 -77 -48 0
47 68 69 34 -31 -66 -35 0
7 13 34 22 19 3 41 33 32 5 71 10 58 2 11 76 28 47 15 61 53 56 38 17 62 72 50 69 70 44 51 78 30 18 36 60 -39 -42 -45 -29 -59 -21 -46 -8 -49 -77 -40 -73 -1 -55 -43 -37 -75 -79 -35 -16 -23 -9 -24 -66 -20 -63 -65 -27 -26 -74 -25 -67 0
12 70 72 77 23 76 10 14 11 41 60 79 21 67 16 46 68 40 13 74 35 7 25 50 59 64 73 -5 -38 -33 -44 -1 -51 -65 -63 -31 -28 -69 -66 -75 -56 -8 -20 -53 -27 -32 -78 -22 -30 -17 -19 -61 -2 -18 -34 -29 -54 -37 -9 -49 -24 -52 -47 -6 -15 -71 -55 -57 -42 -36 -45 -43 -58 -39 -62 -26 -48 0
9 29 79 42 56 24 34 64 12 26 36 57 45 22 52 37 69 -70 -50 -5 -18 -63 -11 -49 -10 -74 -17 -61 -38 -68 -47 -30 -59 -7 -20 0
33 39 2 60 56 16 55 52 26 46 29 41 6 58 57 59 15 17 38 19 13 69 11 77 24 18 44 12 9 49 45 10 -14 -50 -61 -3 -28 -37 -71 -8 -7 -65 -63 -22 -75 -31 -43 -30 -1 -40 -70 -73 -72 -23 -51 -67 -35 -5 -62 -20 -36 -68 -64 -78 -4 -54 -47 -34 -21 -79 -48 -25 -53 0
50 16 23 8 63 30 36 27 72 52 11 24 17 1 41 42 61 39 35 69 60 5 70 7 25 75 77 9 38 14 33 15 78 29 2 13 19 43 -56 -44 -48 -46 -64 -68 -4 -31 -6 -22 -28 -65 -57 -49 -45 -10 -74 0
75 5 13 8 23 58 54 29 34 24 59 25 11 76 40 71 36 66 17 7 27 50 6 20 68 49 70 64 -18 -26 -61 -41 -21 -35 -12 -57 -42 -55 -14 -65 -46 -48 -77 -60 -37 -45 -31 -56 -72 -2 -79 -9 -15 -74 -3 -1 -52 0
15 22 20 1 18 71 61 16 70 30 48 38 23 52 63 6 57 32 34 45 24 73 44 35 43 27 72 46 51 11 42 5 68 17 78 -66 -33 -47 -41 -49 -29 -54 -50 -59 -39 -64 -4 -40 -8 -28 -10 -25 -60 -65 -19 -53 -7 -56 -67 0
3 41 50 21 47 63 61 31 53 22 17 52 33 9 19 24 59 25 57 43 71 34 20 56 8 30 27 -37 -11 -77 -32 -38 -15 -23 -62 -39 -48 -65 -6 -64 -44 -66 -35 -76 -7 -12 -67 -28 -60 -18 -54 -79 -78 -45 -40 -16 -5 0
35 29 45 26 -64 -59 -3 -6 0
41 64 40 74 24 50 7 18 21 60 36 38 45 17 25 5 72 39 33 46 26 15 11 49 3 16 47 79 10 53 58 -43 -12 -76 -28 -1 -67 -66 -23 -20 -78 -29 -14 -56 -51 -55 -69 -57 -77 -52 -63 -19 -13 0
60 46 71 54 15 33 27 76 52 73 5 36 3 37 16 79 47 8 75 69 58 43 41 -19 -22 -6 -1 -13 -53 -2 -20 -57 -14 -23 -9 -32 -48 -50 -11 -24 -61 0
5 59 38 73 75 48 60 62 18 13 61 63 23 29 39 -25 -55 -9 -51 -19 -74 -42 -41 -71 -66 0
50 71 30 56 54 17 61 72 36 1 78 22 40 31 11 15 43 37 21 29 55 75 28 -7 -48 -69 -33 -16 -42 -8 -68 -41 -60 -3 -76 -67 -12 -23 -53 -74 -24 -34 -79 -9 -10 -19 -49 -18 -46 -27 -6 0
40 79 77 61 10 75 6 73 1 12 13 8 49 54 52 5 64 33 51 50 -26 -56 -23 -3 -70 -39 -38 -16 -44 -31 -15 -34 -57 -27 -22 -19 0
71 74 31 41 49 23 75 34 45 60 19 44 2 37 32 16 13 64 68 21 35 40 11 77 24 57 5 6 73 25 9 72 -8 -10 -3 -62 -4 -69 -67 -55 -12 -27 -61 -54 -47 -50 -18 -78 -51 -39 -48 -46 -59 -36 -76 -53 -28 -65 -29 -20 -56 -38 -14 -79 -30 -1 -58 -70 -33 -63 0
65 25 78 33 24 7 12 66 62 77 48 40 -14 -47 -34 -18 -15 -5 -3 -9 -23 -1 -8 -11 0
52 33 39 5 53 67 38 35 73 79 26 31 41 78 23 3 64 18 27 58 6 76 54 51 29 9 15 74 44 72 22 8 32 57 17 -10 -25 -24 -55 -69 -71 -77 -47 -70 -75 -40 -63 -16 -14 -7 -49 -62 -1 -28 -45 -42 -34 -30 -4 -2 -11 -46 -36 -12 -21 -59 -60 -20 -66 -50 -13 -43 -61 -68 0
14 34 76 42 47 26 52 46 66 40 57 -15 -68 -70 -7 -28 -77 -74 -25 -29 -78 -5 -17 0
55 69 22 29 16 12 56 53 25 51 72 10 37 63 -5 -47 -17 -75 -8 -64 -11 -59 -60 -24 -52 -62 -41 -48 -13 -1 -20 -57 -73 0
42 76 75 74 1 53 68 64 41 31 67 45 49 65 17 22 47 26 34 37 5 21 70 2 69 -43 -51 -79 -56 -33 -38 -4 -3 -7 -18 -59 -25 -12 -19 -46 -73 -14 -54 -11 -60 -16 -40 -55 -78 -39 -30 -63 0
36 3 21 -72 -79 -54 -60 -35 -68 -11 -64 -73 -22 -63 -15 -69 0
31 25 79 42 14 18 33 45 26 57 39 69 71 21 -72 -67 -24 -30 -41 -77 -8 0
73 3 66 32 22 56 41 27 75 18 44 15 19 79 42 24 29 21 72 50 60 23 7 31 59 65 77 -76 -13 -33 -78 -54 -68 -9 -2 -12 -70 -47 -40 -43 -38 -35 -6 -11 -17 -58 -48 -39 -69 0
38 13 58 1 44 65 37 26 27 19 57 54 35 8 72 45 2 41 69 17 49 15 78 70 -6 -75 -50 -24 -61 -43 -34 -67 -79 -77 -74 -28 -55 -21 -46 -7 -9 -47 -20 -14 -36 -64 -12 -33 -76 -23 0
18 54 1 64 67 45 48 41 29 65 40 4 25 74 17 69 26 33 13 32 62 16 23 -7 -9 -2 -11 -66 -75 -37 -10 -5 -63 -59 -68 -24 -22 -8 -52 -46 -34 -20 -19 -76 -61 -12 -73 -49 -57 -78 -71 0
18 12 63 50 53 74 54 10 75 72 11 62 57 43 46 36 41 -29 -37 -73 -2 -8 -32 -30 -60 -64 -31 -19 -34 -24 -38 -58 -49 -71 -61 -66 -25 -52 0
30 49 24 8 75 52 39 51 41 59 60 9 21 12 32 17 20 61 64 1 79 63 53 73 -15 -3 -18 -66 -33 -14 -5 -26 -38 -67 -25 -6 -7 -35 -58 -10 -50 -76 -37 -78 -70 -19 -74 -48 0
54 74 65 73 63 14 66 8 70 43 48 49 72 40 33 4 58 71 76 78 34 5 17 57 29 -18 -12 -2 -36 -61 -68 -60 -22 -9 -32 -38 -45 -51 -3 -62 -7 -42 -1 -10 -11 -77 -19 0
26 5 -14 -74 -45 -25 0
21 31 79 49 58 55 42 78 13 28 63 72 30 26 8 44 36 60 77 18 54 1 76 50 -65 -67 -5 -14 -12 -11 -70 -43 -40 -29 -53 -37 -10 -4 -41 -9 -51 0
16 46 65 -72 -70 -17 0
8 14 9 11 64 -25 -52 -33 -61 -29 0
10 38 2 41 48 7 67 43 13 71 31 66 77 3 32 6 53 63 57 79 4 54 27 64 28 52 46 62 70 25 36 18 74 -40 -16 -19 -8 -23 -72 -20 -65 -33 -56 -44 -37 -42 -59 -29 -78 -21 -55 -35 -26 -51 -9 -61 -15 -50 -24 -39 -12 -11 -45 -58 -34 -76 -60 -14 0
54 6 2 24 66 40 30 7 18 75 26 36 3 63 29 27 69 52 61 56 43 -32 -72 -10 -57 -25 -37 -59 -33 -14 -45 -38 -46 -73 -13 -60 -78 -1 -65 -62 -64 -28 -41 -76 -17 -47 -77 -39 -51 0
68 21 35 34 27 76 1 74 -26 -42 -69 -72 -29 -79 -52 -56 -33 -28 0
68 13 47 57 36 62 28 6 10 9 32 66 78 31 11 58 -33 -61 -34 -2 -65 -25 -43 -49 -8 -15 -52 -56 -4 -59 -1 -21 -26 -22 -14 -41 0
9 46 70 61 31 63 34 44 13 1 54 65 -74 -21 -59 -55 -57 -53 -36 -40 -17 -32 -69 -43 -66 -38 -22 0
58 75 38 34 27 56 8 22 61 4 64 29 3 30 77 13 23 35 72 59 60 21 44 16 10 65 18 55 24 76 31 42 53 71 33 73 49 12 6 19 -48 -52 -14 -39 -5 -78 -66 -41 -32 -43 -57 -17 -74 -70 -20 -26 -68 -36 -54 -15 -45 -11 -37 -40 -50 -47 -62 -63 -67 -7 -69 -28 -2 -79 -51 -9 0
36 12 62 21 79 69 57 10 56 34 77 70 28 51 73 38 7 48 74 3 26 52 54 58 -30 -39 -18 -61 -65 -64 -40 -15 -32 -43 -45 -31 -46 -20 -8 -19 -33 -53 -42 -59 -75 -66 -23 0
33 12 43 52 31 44 57 38 70 76 74 5 2 11 42 67 61 65 68 6 29 7 51 -79 -66 -25 -47 -15 -10 -50 -73 -4 -40 -37 -8 -14 -59 -21 -69 -53 -35 -55 -19 -75 -28 -27 -23 -18 -24 0
51 60 67 32 59 14 30 21 25 48 75 8 79 50 57 18 27 49 76 66 64 63 26 37 61 1 72 62 5 23 70 43 39 -31 -7 -46 -17 -11 -52 -42 -77 -22 -58 -2 -55 -38 -20 -9 -36 -33 -54 -73 -65 -78 -13 -3 -34 -35 -15 -47 -12 -68 -24 -69 -19 -45 -71 -44 -41 -10 -29 -53 -16 0
48 53 31 1 63 26 24 59 23 46 18 20 64 76 62 57 58 72 56 73 7 17 3 8 65 55 38 25 40 68 77 67 71 -61 -29 -19 -22 -37 -14 -47 -51 -41 -11 -9 -79 -15 -36 -75 -54 -12 -2 -16 -27 -70 -50 -66 -45 -49 -10 -42 0
10 16 72 36 7 39 60 33 67 77 71 73 42 21 4 12 63 5 66 78 24 76 14 34 8 46 22 13 37 51 26 59 56 30 27 -1 -54 -79 -9 -44 -38 -6 -28 -17 -47 -11 -62 -61 -25 -29 -50 -49 -70 -75 -69 -20 -58 -3 0
75 13 -44 -67 -27 0
54 50 56 33 58 63 16 24 36 64 70 73 5 15 7 32 10 51 1 62 78 34 12 40 35 27 55 60 48 8 41 26 23 18 49 19 -74 -42 -71 -75 -47 -31 -29 -77 -43 -69 -3 -66 -9 -61 -4 -67 -2 -25 -72 -17 -39 -11 -46 -65 -6 -22 -13 -30 -57 -20 -14 -59 -53 -68 -44 -38 -45 -52 0
62 67 37 29 71 6 61 3 7 63 76 48 36 64 34 78 68 54 58 44 55 65 31 10 69 2 73 13 21 -22 -33 -30 -50 -24 -70 -75 -46 -47 -27 -43 -26 -28 -79 -15 -72 -74 -66 -16 -38 -52 -49 -45 -51 -14 -17 -12 -18 -4 -23 -5 -56 0
44 32 53 12 55 46 26 33 45 15 21 67 35 78 42 70 2 76 79 69 36 39 8 24 38 22 -50 -52 -31 -41 -37 -62 -58 -34 -64 -14 -71 -49 -40 -59 -18 -7 -3 -27 -4 -43 -6 -13 -1 -75 -66 0
9 41 53 74 58 25 63 51 50 48 -39 -14 -1 -62 -19 -40 -26 -29 -70 -64 -57 -10 0
72 31 32 67 69 59 16 78 34 48 5 45 37 53 22 51 15 13 12 79 63 43 14 54 -77 -2 -40 -44 -71 -26 -8 -57 -23 -49 -46 -25 -1 -20 -76 -61 -9 -11 -60 -41 -6 -35 -17 -28 -27 -3 -42 -7 0
45 53 23 44 60 67 66 47 26 30 65 39 24 63 77 4 51 32 34 38 58 74 29 -48 -9 -15 -43 -72 -8 -52 -73 -12 -25 -54 -76 -13 -36 -46 -3 -56 -22 -50 -41 -42 -61 -57 -7 -33 -31 -49 -40 -69 -6 -5 -14 0
18 4 13 30 71 25 40 36 12 58 74 5 54 57 6 2 64 79 24 48 62 68 34 21 28 49 47 72 -11 -39 -19 -53 -73 -66 -75 -77 -46 -50 -8 -10 -78 -3 -26 -59 -70 -56 -43 -38 -17 -60 -69 -51 -42 -31 -20 0
47 15 64 37 32 20 41 60 4 -28 -78 -48 -74 -62 -39 -29 -49 -13 -6 -35 -3 -7 -38 -9 -31 -65 0
57 69 42 39 5 27 72 67 22 13 74 71 31 49 -47 -55 -70 -68 -44 -25 -76 -75 -61 -65 -24 -34 -19 -6 -41 -64 -16 0
64 4 9 41 5 30 1 17 16 21 55 19 79 58 52 57 11 63 47 -54 -15 -68 -25 -24 -36 -23 -6 -3 -42 -50 -29 -61 -43 -37 -75 -76 -62 -45 -59 0
2 9 56 14 42 36 71 11 62 78 18 73 50 48 35 -51 -47 -58 -46 -59 -21 -8 -57 -24 -63 -28 -34 -7 0
13 41 32 21 45 33 40 43 71 68 25 42 34 14 64 4 16 5 11 72 46 60 52 55 27 49 37 74 57 29 44 69 56 -23 -75 -61 -24 -70 -22 -3 -7 -10 -48 -51 -1 -35 -66 -59 -17 -39 -36 -20 -18 -15 -30 -73 -26 -6 -9 -38 -2 -8 -77 -54 0
15 6 18 10 79 9 24 12 51 44 30 38 69 4 28 52 54 78 43 33 37 49 47 23 60 55 20 13 17 48 -19 -72 -66 -11 -42 -35 -8 -67 -1 -74 -41 -65 -29 -39 -68 -32 -3 -50 -16 -70 -2 -31 -73 -22 -61 -40 0
40 4 62 41 2 33 24 17 3 54 5 46 35 64 60 44 15 7 23 56 14 45 18 48 55 71 29 32 58 74 70 30 31 43 11 61 6 26 47 -16 -68 -13 -34 -27 -51 -38 -65 -1 -19 -79 -77 -21 -49 -75 -37 -50 -9 -12 -73 -10 -63 -22 -72 -53 -78 -39 -66 -28 -36 -67 -59 -25 -42 -52 -8 0
7 3 19 73 52 23 43 79 21 14 47 25 65 16 29 48 63 13 28 64 9 59 66 -61 -40 -58 -20 -51 -57 -10 -74 -50 -67 -39 -18 -26 -62 -2 -72 -76 -53 0
76 14 39 40 1 16 56 34 74 7 10 4 69 20 28 37 13 66 26 41 19 21 27 59 62 25 48 32 71 73 43 67 29 9 42 68 78 -53 -45 -63 -64 -18 -6 -15 -23 -50 -46 -51 -24 -31 -35 -55 -72 -47 -75 -79 -3 -54 -22 -57 -61 -5 -30 -77 -17 -12 -58 -52 -65 -36 -44 -8 -70 -33 -2 -49 -11 0
5 63 24 44 9 37 47 30 25 39 18 11 45 26 71 33 16 -58 -42 -1 -21 -65 -23 -68 -27 -79 -56 -32 -61 -14 -53 -46 -3 -51 -8 -2 -74 -10 -64 -43 -60 -67 -29 -70 -73 -66 -19 0
77 67 3 16 50 6 47 7 74 35 46 8 36 24 78 43 -4 -39 -34 -5 -27 -69 -14 -65 -53 -20 -1 -18 -54 -22 -70 -48 -17 -12 -57 -52 0
73 70 8 25 14 17 52 18 41 53 23 65 47 28 24 3 7 -21 -5 -1 -54 -12 -46 -68 -43 -22 -35 -32 -59 -48 -37 -29 -15 -57 -19 -49 -13 -11 -50 -42 -36 -61 -58 -31 -72 -6 -78 0
27 79 46 -38 -65 -70 -14 -78 0
68 11 28 26 39 33 16 34 -13 -47 -17 -77 -54 -36 -69 -50 -72 -46 -9 -53 -63 -21 -64 -49 -5 -55 -75 -51 -70 -31 0
41 13 76 51 5 46 3 38 20 -33 -10 -47 -60 -24 -65 -77 -52 0
71 79 20 8 5 15 25 22 12 4 11 31 58 61 56 9 45 6 3 37 23 -16 -67 -19 -49 -14 -7 -60 -32 -63 -68 -51 -57 -77 -44 0
12 13 0
51 55 35 67 17 43 22 33 16 6 74 42 41 21 23 31 62 12 71 -75 -64 -30 -47 -25 -5 -39 -66 -10 -63 -65 0
57 78 49 39 70 8 48 73 4 21 29 45 37 32 74 52 15 63 -44 -14 -12 -11 -60 -58 -9 -51 -10 -65 -41 -66 -33 0
-15 -27 -75 -79 0
24 14 65 72 36 56 32 -19 -60 -53 -28 -3 -1 -21 -51 -13 0
13 34 21 12 -7 -62 -30 -55 -47 0
78 64 32 46 12 69 48 24 28 72 59 68 71 21 73 19 79 37 -50 -14 -41 -74 -43 -58 -15 -65 -2 -36 -8 -4 -75 -42 -62 -23 -40 -26 -70 -44 -77 -18 -10 -45 -67 -30 -22 -7 -11 -76 -17 -6 -53 0
76 47 59 10 40 42 6 2 9 13 21 65 67 46 51 25 68 56 34 -15 -41 -55 -39 -1 -77 -50 -62 -36 -8 -16 -3 -24 -54 -23 -52 -30 -29 -48 -66 -26 0
7 61 45 62 74 32 15 38 34 25 71 67 33 52 37 18 60 46 8 79 21 14 27 50 26 5 41 17 23 65 36 78 -13 -22 -4 -20 -56 -73 -72 -51 -77 -48 -43 -63 -68 -47 -10 -70 -55 -31 -1 -6 0
73 -76 -35 -33 -34 0
25 67 68 41 75 3 38 53 45 1 14 27 35 77 57 44 59 26 63 31 30 21 4 10 36 16 33 13 64 40 29 24 17 60 7 12 -52 -50 -54 -74 -43 -61 -66 -70 -65 -73 -34 -18 -5 -6 -37 -2 -78 -22 -47 -79 -76 -32 -71 -19 -46 -55 -62 -20 -15 -48 -28 -9 -49 -69 -58 -8 0
35 27 67 21 51 2 8 71 -23 -61 -65 0
73 18 31 22 39 11 32 34 50 45 12 36 55 48 66 24 53 19 21 30 61 17 74 -63 -67 -16 -69 -79 -68 -51 -40 -56 -9 -6 -72 -71 -3 -58 -41 -64 -57 -49 -13 -23 -10 0
57 6 58 53 78 66 47 26 65 52 68 30 72 32 14 45 42 -3 -49 -41 -29 -44 -74 -60 -31 -59 -34 -63 -56 -8 -39 0
58 14 38 29 17 3 6 31 57 49 70 66 59 37 27 61 10 8 77 -7 -75 -46 -47 -9 -76 -56 -22 -5 -67 -69 -72 -30 -4 -16 -68 -79 -65 0
61 49 43 34 62 26 20 32 68 18 10 22 6 9 40 69 60 44 2 28 7 48 30 65 1 17 39 25 56 71 76 70 72 54 -38 -31 -3 -64 -50 -5 -4 -75 -37 -19 -41 -15 -58 -11 -74 -45 -46 -33 -73 -8 -36 -35 -52 -24 -53 -66 -47 -21 -27 -59 -12 -23 -29 -42 0
24 7 29 26 57 65 39 58 48 70 20 79 36 28 72 55 64 54 63 75 51 45 60 32 49 61 22 4 40 -73 -66 -42 -1 -44 -34 -17 -35 -38 -74 -25 -12 -9 -53 -3 -41 -13 -21 -78 -5 -15 -59 -62 -37 -46 -47 -52 -16 -33 -30 -31 -14 -8 -71 -76 -56 0
16 77 71 75 28 18 20 63 15 9 47 72 19 54 50 58 29 4 59 23 10 32 46 36 26 43 52 21 35 -27 -68 -40 -60 -65 -57 -62 -31 -24 -76 -14 -13 -41 -22 -33 -39 -61 -78 -1 -66 -11 0
77 75 -13 -69 -35 -70 -53 -5 -38 -54 0
39 26 30 38 10 73 70 14 66 5 69 58 17 25 56 61 6 29 3 7 62 23 59 27 72 71 52 46 18 49 -55 -74 -16 -44 -75 -31 -63 -43 -2 -11 -76 -35 -65 -54 -53 -8 -41 -34 -13 -1 -47 -20 -50 -4 -45 -64 -42 -77 -78 -67 0
65 45 35 50 68 13 43 59 17 16 51 18 57 -27 -75 -5 -21 -74 -41 -12 -61 -30 -56 -32 -6 -49 -28 -63 -71 -1 -39 -11 0
54 -52 0
14 18 10 -29 -57 -20 0
11 63 1 27 37 15 69 61 -5 -4 -8 -68 -60 -74 -21 -16 -29 -46 -19 -56 0
35 9 14 67 59 13 4 62 26 50 55 78 27 74 53 29 52 66 -41 -10 -36 -6 -46 -75 -79 -7 -17 -57 -23 -38 -19 -71 -2 -70 -16 0
17 9 28 73 2 7 38 21 5 70 -42 -54 -33 -50 -1 -67 -56 -71 -78 -4 -52 -69 0
51 30 18 36 7 55 3 68 24 53 76 66 41 34 16 28 15 -38 -69 -50 -22 -11 -56 -78 -4 -59 -47 -60 0
48 75 17 21 62 64 49 25 77 9 -39 -29 -79 -60 -22 -78 0
79 44 25 76 19 11 50 43 6 67 33 36 2 55 38 51 15 49 26 18 46 71 29 7 74 59 20 37 64 34 -78 -73 -24 -3 -63 -17 -32 -22 -40 -23 -1 -35 -62 -58 -52 -39 -60 -4 -75 -13 -56 -16 -69 -48 -14 -66 -10 -47 -41 -77 -72 -65 0
45 51 25 29 30 7 23 60 32 66 70 64 22 48 -11 -61 -34 -53 -59 -16 -50 -40 -74 -55 -65 0
5 22 51 66 17 25 39 21 76 11 75 41 7 70 -56 -1 -35 0
53 30 8 55 2 46 35 -48 -14 -74 -43 -1 0
37 35 48 45 36 38 73 58 17 59 47 -15 -49 -55 -12 -65 -70 -1 -16 -68 -66 -78 -44 0
50 10 32 74 30 37 54 75 19 68 73 36 20 29 59 55 11 -51 -78 -23 -48 -77 -22 -26 -40 -25 -71 -16 -46 -7 -12 -72 0
62 4 60 11 3 39 17 47 40 68 53 71 42 74 16 66 6 10 28 22 73 41 55 8 37 29 38 26 -77 -50 -35 -44 -65 -61 -46 -45 -63 -5 -57 -56 -49 -2 -27 -64 -30 -12 -15 -33 -48 -78 -24 -54 -51 0
39 3 76 23 78 46 60 11 34 56 9 27 50 29 40 17 70 18 51 59 24 21 55 47 4 -12 -15 -22 -31 -63 -25 -37 -61 -13 -6 -14 -67 -30 -36 -2 -19 -49 -52 -5 -74 0
34 4 73 39 71 54 5 32 74 58 56 55 9 44 75 18 6 -20 -12 -43 -53 -21 -7 -35 -79 -36 -13 0
51 45 57 9 48 -73 -79 -4 -35 -61 -30 -67 -10 -76 0
50 11 15 2 1 38 54 43 6 58 5 70 25 32 4 49 45 41 24 40 67 13 26 74 57 55 61 33 73 -65 -35 -12 -59 -39 -22 -60 -14 -9 -19 -7 -53 -71 -69 -47 -30 0
17 7 31 -22 0
72 70 71 55 17 -28 -57 0
52 11 15 24 50 17 76 74 45 30 33 56 40 73 -79 -8 -31 -48 -34 -59 -5 -57 -75 -63 -67 -69 -44 0
12 2 17 36 71 63 50 25 41 64 33 77 30 7 45 15 54 46 20 62 78 28 72 8 -65 -29 -42 -70 -53 -75 -68 -52 -11 -22 -60 -38 -55 -69 -27 -48 -3 -4 -56 -13 -37 -61 -10 -67 -74 -47 -21 -58 -57 -39 -66 -19 -51 -31 -16 -76 0
12 -65 0
2 18 57 45 58 51 12 44 21 -36 -34 -24 -30 -6 -4 -49 -42 -54 0
10 11 51 69 31 3 7 42 8 70 47 9 48 37 43 73 41 17 72 54 6 59 19 35 27 67 18 71 68 -49 -75 -60 -65 -52 -56 -23 -15 -40 -12 -1 -78 -32 -58 -38 -45 -2 -29 -4 0
22 70 50 2 47 21 52 40 42 24 33 30 48 1 46 34 28 6 68 11 27 3 63 31 74 45 44 25 36 12 73 55 8 9 37 43 -79 -29 -71 -66 -76 -78 -59 -60 -54 -35 -20 -61 -72 -18 -38 -65 -69 -17 -10 -62 -51 -67 -13 -4 -39 -32 -53 -77 -75 -15 -5 -41 0
-23 -65 -66 0
21 75 41 1 15 38 79 56 54 8 55 11 47 3 31 43 5 64 12 48 18 76 74 24 59 77 26 66 45 22 70 62 50 25 69 19 35 51 4 -67 -33 -53 -61 -16 -7 -73 -17 -52 -71 -63 -13 -34 -44 -36 -9 -68 -14 -57 -28 -40 -72 -46 -10 -6 -20 -37 -65 -49 -2 -32 -58 0
67 46 15 72 77 52 8 7 66 -13 -18 -25 -45 -61 -3 -78 -10 -38 -22 -41 -33 -59 -65 -74 -43 -57 -37 0
70 77 69 66 52 44 8 65 26 48 51 1 23 28 61 9 -34 -60 -63 -72 -20 -33 -39 -64 -19 -30 -29 -13 -16 -55 -18 -41 -11 -58 -38 -57 -36 -25 -74 -46 0
1 58 70 29 48 73 17 8 23 55 10 43 78 47 3 11 14 50 -4 -25 -37 -32 -46 -77 -44 -63 -62 -56 -5 -36 -7 -28 -49 0
42 41 45 64 70 39 27 14 77 66 37 78 40 8 22 72 75 23 56 28 73 44 50 48 -69 -51 -24 -62 -76 -29 -17 -60 -38 -43 -46 -65 -55 -59 -18 -52 -9 -16 -30 -1 -12 -5 -47 -49 -26 -61 -32 -53 0
35 6 49 3 58 53 68 17 38 5 76 46 18 45 77 55 1 20 12 4 10 70 7 24 36 66 -56 -50 -63 -39 -64 -69 -23 -79 -47 -19 -72 -14 -73 -60 -67 -22 -52 -15 -11 0
18 9 35 8 54 20 63 15 7 41 67 19 34 38 42 66 58 13 3 16 57 30 44 70 21 4 56 36 32 -10 -31 -46 -6 -28 -48 -11 -1 -24 -43 -45 -78 -26 -5 -14 -72 -47 -29 -33 -51 -75 -49 -61 -60 -39 -77 0
69 20 38 75 22 58 35 36 16 51 42 43 14 -68 -48 -7 -59 -12 -56 -24 -10 -73 -52 0
39 29 71 72 68 64 38 57 41 78 36 69 51 12 8 25 37 58 54 -31 -46 -60 -35 -22 -1 -49 -40 -77 -65 -18 -5 -4 -20 -17 -52 -19 -56 -9 -48 -15 -30 -53 -76 -61 -33 -63 -45 -55 -21 -7 -11 -44 -67 -3 0
65 3 69 19 14 13 49 26 75 70 39 8 47 45 77 74 40 51 79 -33 -2 -36 -58 -28 -11 -55 -21 -25 -20 -61 -76 -38 -18 -57 -16 -46 -52 -9 -66 -35 0
23 27 26 21 9 30 29 19 47 62 66 79 55 65 42 45 59 20 37 35 78 67 46 73 38 50 2 24 72 41 40 33 68 -13 -14 -75 -15 -69 -31 -44 -3 -17 -16 -39 -61 -18 -1 -5 -32 -53 -56 -76 -70 -60 -8 -43 -77 -25 -63 -22 -4 -6 -36 -10 -49 -57 0
44 39 1 33 4 37 75 17 45 62 24 70 28 25 20 68 50 -77 -40 -55 -19 -34 -41 -2 -64 -14 -67 -29 -76 -21 -65 -43 -3 -36 -32 -10 -35 -72 -11 -74 0
59 23 60 58 69 36 67 78 -45 -66 -70 -26 -34 -61 -31 -53 -18 -40 -48 -35 0
14 61 58 71 -42 -22 -68 -67 0
62 43 50 15 3 64 9 74 70 58 45 7 37 2 59 79 68 73 47 6 52 53 23 30 -22 -29 -34 -11 -1 -31 -13 -17 -72 -61 -32 -4 -75 -40 -51 -24 -66 -65 -39 -36 -35 -78 -56 -46 -38 -49 -10 -14 -77 -42 -12 -48 -8 -19 -18 -16 0
1 50 24 64 51 7 32 78 13 20 30 23 21 28 18 2 56 52 16 61 77 57 8 31 17 48 10 65 29 34 71 47 46 40 12 49 27 -66 -69 -39 -63 -44 -41 -70 -3 -37 -45 -43 -59 -53 -60 -14 -5 -76 -6 -35 -73 -75 -79 -55 -42 -38 -67 -33 0
73 79 13 69 -49 -1 -57 -15 -65 -29 -20 -76 0
7 2 71 52 12 32 55 47 17 -5 -3 -45 -70 -28 -69 -66 -77 -14 -60 -24 -35 -46 -68 -20 -72 0
69 4 64 35 49 51 76 56 60 28 58 29 11 8 36 78 71 1 20 42 22 47 50 48 16 27 55 70 2 54 31 6 -19 -79 -72 -74 -18 -13 -62 -37 -45 -52 -66 -68 -23 -44 -77 -5 -67 -63 -39 -7 -46 -10 -32 -21 -26 -25 -24 -12 -15 -38 -17 -33 -57 -73 -41 -9 -40 -53 -43 -59 0
54 8 15 48 23 59 65 9 35 30 66 36 2 61 55 29 20 -69 -18 -12 -4 -17 -56 -44 -7 -52 -19 -32 -6 -14 -31 -11 -64 -49 -16 -47 -34 -38 0
38 69 68 48 75 63 19 60 47 37 23 13 49 44 25 15 77 72 18 70 55 71 31 34 32 42 14 26 4 -53 -8 -22 -78 -76 -50 -29 -10 -11 -24 -21 -33 -61 -46 -9 -45 -35 -74 -73 -17 0
65 3 75 70 72 67 4 13 51 11 59 15 56 78 79 26 24 69 1 53 44 63 58 34 23 -61 -5 -37 -39 -66 -55 -43 -46 -16 -6 -45 -28 -36 -14 -49 -38 -25 0
2 75 68 54 20 49 76 43 3 50 27 67 53 58 45 25 48 14 36 57 1 33 47 9 70 10 32 23 -8 -73 -12 -17 -38 -77 -11 -72 -44 -42 -79 -26 -19 -65 -4 -52 -69 -7 -24 -39 -56 -35 0
53 55 13 52 67 29 6 26 73 60 22 18 -33 -35 -74 -59 -54 -12 -8 -57 -36 -37 -48 -21 -17 -49 -24 -62 -76 -70 -27 -77 -61 -34 -11 -3 -51 -28 -71 -10 -50 0
16 46 34 47 36 10 14 58 52 63 67 51 37 32 56 61 78 71 79 8 7 17 12 33 74 20 9 65 38 43 70 77 3 62 29 68 -76 -72 -42 -27 -19 -50 -39 -30 -44 -22 -53 -35 -41 -28 -15 -2 -60 -59 -26 -64 -5 -57 -31 -23 -54 -18 -4 -73 -66 -1 -75 -40 -6 -48 -11 -45 -24 -21 -49 -69 -55 -25 0
63 18 51 59 23 22 13 25 57 53 62 35 8 27 2 74 37 79 33 6 41 31 4 32 68 72 70 64 34 10 38 44 71 54 40 69 21 -67 -39 -45 -50 -77 -36 -56 -49 -19 -3 -73 -76 -66 -65 -15 -1 -47 -43 -5 -78 -28 -52 -11 -46 -20 -26 0
49 30 51 57 25 73 12 13 20 2 9 63 32 50 79 31 18 34 33 62 41 38 28 45 3 19 -54 -26 -65 -69 -16 -66 -71 -15 -23 -11 -70 -64 -7 -10 -4 -8 -74 -67 -72 -44 -37 -43 -21 -56 -52 -36 0
28 66 77 64 15 -54 -24 -53 -73 -31 -29 -1 0
1 63 20 56 27 49 6 29 13 14 39 31 41 28 46 50 30 69 51 78 9 33 47 42 45 57 76 22 38 19 15 7 32 55 71 3 25 5 -75 -72 -59 -24 -54 -65 -26 -70 -16 -21 -34 -66 -36 -62 -77 -53 -68 -58 -12 -60 -18 -67 -37 -35 -8 0
40 7 62 30 31 -21 -59 -24 -15 -37 -29 -17 -60 -28 -73 0
61 28 18 46 44 19 6 59 9 43 -8 -12 -37 -49 -41 -2 -68 0
6 21 58 75 14 66 15 78 63 28 61 40 42 50 1 49 52 59 46 -43 -55 -48 -16 -22 -3 -74 -8 -2 -69 -56 -47 -57 -4 -33 -37 -19 -10 -71 0
33 3 42 9 20 54 8 1 22 59 30 74 52 43 41 65 73 48 39 11 36 -6 -79 -35 -70 -32 -61 -64 -2 -27 -26 -16 -58 -45 -34 -13 -55 -71 -40 -68 -12 0
31 65 13 52 22 1 54 49 44 14 55 -75 -2 -36 -19 -3 -79 -47 -27 -16 -71 -23 -41 -68 -78 -37 -4 -51 0
65 26 17 9 32 13 77 70 67 59 71 4 2 76 61 54 28 66 44 29 53 37 64 21 42 18 60 20 58 50 55 33 46 36 -52 -27 -6 -39 -22 -48 -74 -51 -57 -75 -1 -3 -23 -68 -15 -19 -62 -40 -14 -30 -56 -47 -69 -38 -78 -11 -35 -49 -79 -31 0
62 26 14 24 16 31 45 47 52 57 58 1 7 39 17 10 46 22 75 20 30 -61 -13 -5 -70 -11 -43 -19 -48 -53 -72 -34 -29 -54 -55 -23 -25 -49 -12 -4 -28 -38 -40 -78 -76 -32 -65 -44 -59 -18 -2 -42 -9 -35 -33 0
44 31 52 72 37 10 63 -78 -32 0
34 25 3 14 74 37 30 65 48 -18 -28 -40 -66 -45 -53 -17 -33 -67 -11 0
68 50 49 31 6 24 67 62 34 11 -69 -5 -1 -32 -29 -35 -15 -41 -71 -21 -27 0
78 73 18 69 42 46 41 9 10 27 74 44 66 7 67 1 40 25 47 32 14 21 36 23 70 3 50 60 52 54 58 71 31 29 19 22 30 33 -15 -13 -34 -63 -2 -16 -65 -57 -5 -28 -48 -55 -61 -51 -38 -72 -68 -8 -35 -64 -26 -37 0
13 19 61 21 72 62 8 26 56 20 69 64 28 46 45 71 9 37 67 75 42 40 44 17 78 74 23 65 1 70 32 53 59 14 49 77 79 18 2 52 47 -22 -15 -41 -24 -16 -73 -12 -38 -68 -76 -7 -58 -60 -43 -35 -33 -66 -3 -36 -27 -31 -6 -51 -57 -4 -55 -63 -25 -29 -48 -34 -54 -10 0
17 50 49 46 6 -44 -33 -15 -64 -71 -68 -31 -61 0
40 6 74 54 57 60 26 25 36 78 37 5 75 63 31 23 47 33 67 41 2 13 10 46 12 69 4 70 62 -1 -20 -53 -44 -65 -77 -29 -66 -48 -50 -28 -35 -17 -7 -34 -14 -51 -22 -45 -21 -49 -68 -19 -72 -58 -79 -61 -8 -56 -11 -38 -43 -16 -73 -71 -3 -64 -59 -24 -9 -55 -52 -30 0
25 24 69 41 1 34 46 7 50 -43 -64 -27 -75 -3 -37 -49 -29 -17 -19 -52 -51 -74 0
79 69 72 28 32 52 43 1 24 64 15 4 36 18 33 3 68 73 5 40 9 76 38 48 -35 -21 -50 -6 -11 -46 -62 -53 -56 -17 -31 -60 -74 -34 -44 -47 -23 -26 -71 0
68 1 37 71 10 24 63 4 51 77 30 33 55 45 17 59 57 74 12 23 64 54 48 43 25 42 2 27 44 52 28 39 6 69 75 -66 -29 -15 -56 -41 -32 -18 -22 -7 -67 -40 -49 -50 -21 -65 -79 -20 -76 -70 -3 -61 -53 -36 0
26 31 69 7 33 68 35 73 40 71 18 8 24 67 72 51 48 22 9 20 5 3 13 12 27 75 36 -41 -25 -49 -15 -23 -29 -44 -66 -21 -43 -37 -42 -65 -74 -57 -19 -61 -11 -6 -56 -55 -78 -38 -59 -53 -79 -4 -70 -52 0
19 54 63 44 46 58 52 64 71 26 59 16 24 75 68 35 50 -72 -18 -11 -55 -69 -34 -5 -8 -45 -14 -74 -22 -47 -32 -6 -70 0
18 11 1 6 56 73 21 61 45 27 59 36 25 24 51 -23 -58 -50 -8 -44 -70 -3 -66 -15 -28 -47 -37 -5 0
71 37 5 -65 -36 -77 0
49 16 77 19 71 31 15 70 26 68 53 51 8 54 38 62 47 9 -75 -44 -56 -5 -61 -45 -60 -46 -59 -17 -21 -2 -73 -57 -65 -74 -36 -23 -40 -78 0
7 16 8 11 62 24 58 71 23 55 42 33 -73 -46 -48 -72 -52 -27 -1 -35 -14 -61 -67 0
58 39 79 -55 -74 0
11 8 39 30 55 60 23 69 41 15 -40 -2 -79 -3 -38 -43 -26 -42 -68 0
64 36 20 45 19 39 10 62 53 70 16 46 41 7 48 5 78 68 63 55 72 38 73 12 -15 -17 -26 -58 -47 -18 -69 -56 -14 -67 -61 -44 -54 -2 -25 -51 -3 -9 -23 -35 -65 -30 -29 -74 -4 -40 -8 -49 -27 -33 -13 -22 -32 -79 -75 0
1 53 59 58 67 40 50 77 27 16 51 -7 -72 -47 -11 -33 -17 -9 -79 -30 -44 -34 -22 -56 -64 -45 -70 0
38 64 56 35 1 11 55 25 48 57 34 31 72 68 -24 -22 -60 -12 -50 -33 -66 -62 -28 -39 -78 0
40 76 7 65 43 11 31 63 58 3 20 47 17 25 75 26 74 45 21 49 55 22 52 39 67 42 34 66 -48 -23 -54 -46 -41 -29 -60 -13 -14 -30 -62 -16 -27 -36 -50 -72 -37 -5 -64 -44 -6 -19 -33 -35 -28 0
20 31 25 77 35 21 58 2 16 45 24 15 -59 -44 -11 -19 -72 -30 -36 -74 0
71 24 76 -49 -17 -52 -30 -8 -42 -48 -55 -58 0
12 64 46 50 22 70 16 55 23 73 44 18 7 74 5 43 54 -69 -2 -29 -21 -9 -1 -78 -49 -71 -14 0
7 31 2 41 48 66 45 1 62 33 37 18 16 74 72 79 34 49 57 -17 -26 -58 -59 -51 -69 -55 -21 -10 -75 -15 -53 -65 -77 -14 -40 -8 -30 -35 -52 0
58 78 79 30 31 -16 -73 -49 -22 -69 0
10 1 21 38 65 24 23 30 57 18 -13 -53 -6 -77 -25 -69 -4 -7 -5 0
71 79 44 45 19 18 2 13 49 42 32 39 60 23 47 21 73 70 8 66 69 65 12 -57 -37 -48 -61 -75 -53 -55 -6 -58 -36 -27 -26 -4 -41 -16 -24 -33 -34 -31 -74 -76 -46 -54 -63 0
65 43 8 4 31 57 51 74 2 23 56 29 62 32 35 27 26 13 -66 -76 -77 -64 -50 -53 -79 -69 -25 -3 -15 -22 -59 -33 -34 -55 -39 -14 -5 -61 -11 -46 -21 -41 -54 -52 0
19 20 54 23 45 29 55 68 26 42 38 4 30 9 51 21 56 57 67 8 -72 -52 -12 -6 -1 -13 -73 -32 -10 -62 -53 -25 -44 -18 -64 -34 -17 -63 -70 -28 -2 -3 -39 -78 0
53 42 79 31 6 61 28 3 11 -15 -57 -70 -29 -62 -5 -43 -72 0
51 8 53 11 23 46 55 50 63 24 3 39 15 75 54 47 67 43 25 9 37 26 12 44 77 69 61 1 48 79 32 -41 -19 -71 -73 -59 -36 -49 -16 -34 -52 -72 -29 -66 -22 -4 -70 -18 -33 -2 -58 -30 -57 -20 -68 -7 -64 -14 -27 -5 0
17 9 79 19 44 49 14 38 57 64 32 52 56 30 2 51 1 10 58 62 16 35 67 54 -18 -6 -76 -20 -34 -74 -45 -59 -7 -4 -23 -21 -27 -77 -75 -12 -25 -28 -55 -50 -63 -22 -73 -15 -40 -5 -70 -53 -60 -41 0
27 2 68 44 71 5 -73 -75 -38 -40 -42 -78 -33 -69 -29 -60 0
52 17 51 18 22 33 47 19 56 32 73 16 57 12 50 27 71 58 11 75 65 72 8 60 68 7 61 -55 -74 -29 -30 -59 -42 -63 -36 -69 -15 -78 -79 -3 -38 -4 -45 -26 -34 -9 -13 -39 -21 -76 -14 -20 -1 -35 0
47 79 63 49 74 39 57 54 38 55 22 61 76 18 6 8 -75 -46 -62 -51 -36 -35 -73 -12 -21 -27 -68 -44 -65 -77 0
-43 -59 -75 0
59 61 72 17 28 23 36 15 10 48 73 14 12 54 30 74 79 46 19 67 6 11 33 64 50 45 71 43 78 49 34 31 -4 -55 -40 -21 -60 -70 -16 -41 -42 -27 -18 -39 -3 -76 -2 -62 -5 -57 -22 -63 -69 -75 -52 -53 -58 -24 -65 0
2 -43 -64 -6 -55 -1 -57 -5 -58 -32 0
67 59 19 1 29 69 63 61 35 5 76 39 60 2 27 70 8 32 46 25 31 56 52 33 -16 -49 -7 -47 -15 -34 -68 -40 -24 -79 -66 -38 -58 -26 -14 -65 -28 -64 -41 -54 -57 -73 -3 -17 -78 -11 -71 -37 -42 -23 -51 0
49 8 70 48 50 7 37 18 72 3 12 30 56 66 17 6 53 2 47 5 20 16 10 14 74 38 60 15 41 39 25 21 27 59 23 75 65 36 76 71 -13 -67 -46 -29 -61 -77 -35 -11 -45 -26 -78 -58 -1 -68 -62 -69 -79 -52 -19 -44 -42 -24 -4 -40 -9 -73 -54 -43 -57 -63 -51 -64 -34 -22 -32 -33 -31 0
39 68 2 32 40 67 45 34 22 55 17 52 75 43 30 42 61 79 47 33 57 53 50 36 66 56 19 60 14 48 16 73 25 10 49 -31 -21 -3 -63 -11 -24 -58 -6 -70 -28 -27 -59 -71 -38 -1 -4 -35 -62 -44 -78 -76 -9 -20 -29 -26 -64 -37 0
24 34 22 16 52 14 27 63 31 4 39 45 74 28 53 77 70 73 69 48 67 15 18 35 21 50 65 -3 -72 -71 -42 -47 -75 -8 -10 -1 -23 -58 -19 -36 -12 -55 -5 -61 -40 -29 -37 -32 -66 -64 -7 -43 -11 -59 -26 -30 -57 -25 -38 -20 -33 -13 -2 -51 -44 -17 -68 -54 -9 -46 -62 -56 -78 -49 0
64 37 33 16 41 76 66 13 4 72 28 55 32 26 30 74 42 45 11 52 53 31 54 23 70 29 27 39 17 48 73 56 46 12 63 24 7 -69 -36 -49 -57 -3 -68 -44 -21 -9 -14 -6 -34 -18 -65 -60 -77 -35 -61 -51 -47 -25 -50 -43 -71 -78 -59 -58 -62 -5 -20 -40 -79 -67 -22 -19 -8 -38 -1 -15 0
22 28 54 56 50 23 24 20 48 47 52 75 68 -25 -46 -27 -60 -65 -62 -12 -37 -71 -49 -35 -40 -53 -31 -45 -63 -18 -70 -64 -78 -19 -61 -67 -57 -58 -5 0
41 38 69 23 76 72 39 49 71 -46 -44 -60 -64 -25 -6 -56 0
76 67 -71 -28 -51 -35 0
51 16 4 45 22 21 29 36 11 39 31 52 38 55 5 15 8 30 24 47 50 74 62 33 34 58 63 44 78 66 -12 -41 -35 -25 -77 -61 -49 -79 -73 -14 -6 -28 -17 -7 -19 -60 -53 -18 -13 -10 -76 -2 -37 -72 -59 0
4 35 5 -22 -58 -2 -8 0
75 71 58 77 35 44 16 47 70 7 53 48 45 62 66 1 61 20 38 65 43 5 67 14 -64 -50 -27 -12 -29 -59 -60 -55 -41 -3 -78 -56 -9 -69 -32 -28 -13 -39 -52 -49 -23 -68 -63 -34 -18 -25 -51 -17 -10 -37 -30 -57 -40 -22 -31 -36 -2 -21 0
30 47 22 74 28 78 49 27 79 33 71 44 8 57 73 70 19 17 -13 -24 -46 -42 -54 -36 -15 -7 -38 -2 -56 -21 -66 -9 0
24 25 -20 -73 -6 -7 0
78 45 9 67 12 59 50 76 15 48 -28 -27 -16 -6 -13 -5 -1 -3 -75 -64 -57 -41 -72 -66 -21 -7 0
11 13 64 3 78 28 37 51 55 72 8 47 16 12 66 7 32 43 57 38 71 60 9 18 45 40 74 27 10 70 1 -61 -58 -69 -79 -63 -54 -5 -4 -75 -53 -6 -23 -62 -50 -2 -19 -14 -24 -29 -41 -39 -17 -44 -77 -73 -67 0
70 11 3 22 39 13 7 67 69 48 27 -42 -52 -76 -10 -19 -56 -32 -43 -68 -17 -35 -23 -54 -58 -62 0
39 73 61 70 25 7 37 38 43 2 67 57 72 48 78 32 17 76 46 26 4 12 66 8 64 75 71 20 11 3 19 65 27 69 59 -55 -35 -40 -29 -52 -31 -15 -60 -63 -62 -23 -50 -18 -1 -41 -44 -49 -53 -47 -30 -21 -33 -51 -58 -74 -68 -16 -34 -45 -36 -54 -79 -22 -13 -42 -24 -77 -5 -9 -56 -10 0
76 56 -60 0
37 43 24 56 60 8 67 27 78 49 30 52 3 35 25 13 61 12 42 16 68 4 36 18 74 73 11 77 75 64 1 79 38 -46 -71 -48 -47 -34 -53 -58 -54 -63 -17 -69 -10 -51 -29 -26 -57 -28 -2 -66 -20 -39 -31 -21 -41 -40 -9 -45 -44 -55 -72 -5 -22 -6 -14 -76 -19 -15 -70 -62 -33 0
33 16 50 26 38 55 5 76 58 32 15 52 73 63 61 19 46 49 12 39 7 11 -6 -72 -36 -59 -17 -48 -2 -41 -18 -23 -13 -28 -25 -44 -71 -29 -56 -45 -8 -74 -66 -53 -65 -3 -68 -43 -10 -75 -9 -34 -21 -37 -27 -40 -4 -47 -62 -67 -51 0
78 6 56 69 25 22 66 38 16 49 23 47 39 37 58 54 70 12 77 24 73 31 43 -21 -28 -45 -72 -3 -26 -30 -52 -4 -68 -55 -34 0
6 75 37 44 13 45 68 28 47 30 -69 -67 -10 -22 -14 -7 -4 -32 -63 -50 -46 -8 0
13 36 58 38 31 4 56 22 64 57 16 60 41 26 9 14 61 27 44 69 37 17 70 46 76 5 59 67 3 18 73 -42 -33 -53 -74 -68 -63 -43 -30 -15 -32 -28 -6 -66 -72 -25 -51 -1 -2 -75 -39 -35 -47 -48 -45 -62 -29 -50 -7 -54 -49 -65 -40 -71 -23 -55 -24 -12 -20 -79 -78 -21 0
52 15 19 38 -63 -10 -25 -3 -57 0
1 72 14 70 10 -60 -44 -23 -6 0
54 11 22 45 36 2 68 -70 -21 -34 -9 -17 -53 -24 -77 -43 -72 -58 -5 -79 -16 0
25 26 61 35 50 58 60 1 5 9 30 -28 -41 -78 -31 -44 -66 -72 -69 -18 -16 -7 -20 0
12 57 23 21 -16 -45 -63 -6 -2 0
64 73 56 54 69 1 -20 -36 -30 0
33 12 3 27 43 -38 -62 -45 -51 -11 -4 -65 -39 -41 0
21 65 33 31 11 77 51 50 55 4 35 37 43 56 62 1 26 75 6 66 72 69 63 59 28 27 64 17 39 7 44 22 29 38 -16 -40 -60 -25 -5 -76 -61 -41 -13 -2 -68 -48 -67 -10 -12 -46 -73 -32 -57 -45 -20 -19 -8 -24 -14 -58 -18 -47 0
49 43 42 57 11 -41 -61 -16 -24 -6 -65 0
16 61 28 54 76 15 59 57 77 68 71 66 45 10 64 31 40 25 51 67 62 24 26 1 17 50 63 56 30 34 23 7 -9 -12 -42 -49 -6 -37 -73 -44 -29 -78 -65 -75 -21 -22 -60 -47 -11 -36 -55 -27 -69 -35 -58 -41 -14 -20 -18 -8 -43 -74 -46 -33 -32 -13 -4 -70 -79 -53 -3 -38 -19 -52 -72 0
15 79 4 22 75 65 59 19 55 8 36 29 62 39 25 18 49 46 72 43 35 42 11 48 51 61 24 54 -13 -3 -77 -74 -7 -78 -28 -9 -67 -57 -60 -70 -16 -14 -69 -41 -45 -2 -63 -27 -56 -1 -31 -58 -12 -66 -73 -32 -40 -52 -71 -26 -47 0
48 31 21 50 -17 -13 -69 -75 -36 -51 -18 -5 -61 -6 0
31 33 77 22 38 43 51 36 10 30 25 65 42 78 13 55 41 35 26 73 59 27 21 49 50 69 61 34 14 58 32 -16 -37 -53 -71 -2 -5 -28 -3 -76 -52 -8 -48 -23 -57 -11 -17 -18 -29 -1 -72 -39 -9 -24 -74 -54 -46 -44 -7 0
78 52 35 79 5 59 44 4 72 28 34 43 37 11 48 75 27 46 51 45 31 24 50 55 74 58 67 36 13 16 64 25 40 73 38 39 -6 -49 -18 -20 -33 -10 -42 -32 -19 -62 -60 -8 -15 -2 -12 -26 -70 -1 -66 -56 -14 -17 -61 -77 -68 -57 -53 -71 -54 -9 -29 -7 -47 0
19 59 78 2 71 16 55 45 9 24 41 66 79 -31 -75 -47 -25 -65 -46 -8 -17 -40 -4 -44 -38 -50 -49 -28 0
46 16 45 42 34 54 35 58 27 50 62 47 -78 -33 -60 -7 -66 -3 -52 -15 -74 -55 -65 -44 -48 0
29 72 17 34 22 26 44 8 70 19 37 -68 -57 -20 -76 -28 -50 -30 -74 -58 -69 -6 -11 -38 -78 -9 -55 -14 -40 0
33 68 14 53 21 19 36 48 44 56 30 57 61 66 62 38 37 47 69 -26 -17 -50 -3 -24 -32 -35 -51 -54 -58 -18 -42 -71 -52 -10 -55 -73 -41 -43 -45 -13 -64 0
69 54 48 63 17 23 26 2 52 5 15 1 19 51 72 62 13 75 78 45 29 47 -18 -46 -7 -64 -76 -34 -58 -40 -37 -77 -4 -59 -57 -61 -65 -25 -60 -31 -35 -41 -21 -22 -30 -27 -24 -6 -3 0
12 24 18 32 54 35 11 44 -66 -74 -57 -28 -56 0
77 74 69 51 59 57 22 52 54 44 23 43 15 4 6 25 63 30 46 42 2 33 58 45 16 68 32 -79 -26 -5 -13 -48 -35 -66 -18 -20 -56 -53 -14 -3 -37 -61 -47 -65 -8 -78 -27 -1 -17 -7 -21 -12 -9 -72 -55 -75 -24 -19 0
12 40 47 45 27 33 30 53 7 73 50 31 2 44 51 55 76 -63 -37 -18 -24 -20 -23 -61 -56 -34 -19 -38 0
16 30 79 37 43 12 65 8 63 76 14 53 45 73 40 10 5 69 60 34 1 31 33 58 51 19 44 55 49 78 75 17 64 13 -39 -38 -56 -21 -3 -32 -15 -70 -28 -59 -52 -50 -74 -7 -46 -24 -41 -18 -9 -27 -61 -22 -42 -47 -2 -6 -25 -62 -4 -66 -36 -11 -26 -48 -57 -54 -67 -77 -23 -72 0
60 15 28 74 65 -67 -25 -47 -51 -70 -39 -44 0
8 56 43 62 50 65 34 42 63 68 47 52 16 64 13 30 20 75 58 74 -28 -76 -67 -5 -9 -40 -70 -25 -48 -38 -44 -36 -77 -14 -60 -35 -29 -41 -72 -51 -54 -69 -10 0
58 16 11 71 67 12 38 75 68 33 6 70 26 76 -25 -35 -24 -9 -73 -17 -45 -8 -64 -32 -3 -14 -48 -61 -30 -46 -22 -34 -51 0
53 59 7 35 40 76 9 29 57 77 72 6 74 75 22 45 38 52 25 50 14 55 70 4 30 46 5 -47 -68 -18 -17 -19 -20 -69 -61 -33 -10 -63 -60 -73 -13 -51 -21 -32 -39 -49 -42 -79 -16 -56 -1 -65 -12 -48 -54 -41 -26 -28 -78 -15 -37 0
68 -8 -69 -36 0
43 16 6 46 54 50 73 21 44 55 14 58 64 76 22 8 47 51 20 29 60 70 4 53 28 23 56 71 19 34 5 12 66 57 33 62 68 18 -74 -13 -35 -24 -52 -78 -3 -65 -36 -7 -45 -9 -63 -59 -69 -17 -31 -25 -77 -40 -49 -48 -61 -42 -26 -67 -75 -2 -79 -38 0
29 11 35 26 57 41 63 79 6 62 47 37 13 14 25 27 61 67 75 49 58 -19 -3 -33 -74 -23 -54 -4 -16 -64 -48 -72 -12 -21 -46 -32 -30 -71 -22 0
24 36 25 48 35 53 9 79 30 6 7 18 70 -20 -58 -10 -14 -32 -74 -47 -41 -52 -69 -40 -45 -50 -68 -4 -21 -29 -37 0
32 43 70 53 62 7 60 72 2 71 -36 -42 -54 -41 -52 -17 -50 -11 -19 -28 -3 -10 -73 0
70 18 69 8 46 20 5 62 56 52 38 42 43 15 22 77 61 25 21 74 17 26 11 68 37 30 75 49 66 44 65 24 71 -7 -67 -6 -1 -3 -63 -12 -2 -4 -19 -48 -64 -72 -35 -78 -59 -39 -40 -53 -58 -57 -76 -45 -73 -16 -28 0
15 29 8 41 60 56 59 63 71 39 17 23 65 35 20 62 44 18 52 68 34 49 51 64 22 70 -7 -73 -28 -26 -74 -72 -32 -53 -14 -66 -25 -40 -13 -12 -27 -3 -30 -31 -37 -55 -5 -4 -43 -79 -78 -36 -57 -61 -21 0
49 31 58 15 40 52 74 20 75 27 30 1 45 68 55 64 78 18 21 43 53 8 7 -4 -6 -70 -67 -66 -72 -2 -22 -17 -19 -61 -77 -69 -73 -35 -10 -71 -36 -39 -24 -5 -13 -79 0
19 51 50 29 75 10 23 36 5 60 1 3 -52 -33 -46 -56 0
76 39 73 7 22 17 67 56 30 58 52 60 11 55 27 25 68 79 78 26 46 18 10 34 14 74 16 6 40 23 61 12 28 45 42 4 53 75 15 47 -77 -69 -50 -38 -21 -8 -41 -64 -71 -19 -32 -57 -2 -1 -33 -36 -31 -63 -20 -24 -48 -65 -66 -54 -70 -43 -49 -5 -62 -44 0
4 7 17 8 66 32 37 6 33 25 44 78 45 59 62 74 22 77 60 67 54 14 38 15 50 30 36 35 56 26 40 5 49 63 48 29 61 46 27 -39 -20 -23 -2 -75 -21 -28 -58 -76 -72 -41 -57 -43 -34 -19 -65 -71 -53 -13 -1 -10 -31 -18 -55 -42 -69 -47 -24 -12 0
2 68 66 58 44 78 -59 -23 -9 -19 0
5 32 74 16 73 54 30 22 36 68 18 63 49 50 39 40 26 52 79 1 4 27 66 59 58 48 11 51 41 46 64 24 37 2 47 13 35 19 55 65 17 -25 -67 -33 -77 -28 -71 -7 -10 -15 -76 -45 -69 -3 -62 -43 -75 -42 -31 -12 -44 -9 -14 -78 -53 -6 -70 -23 -34 -60 -72 -8 -57 -61 -38 -29 -20 -21 0
2 26 71 1 -51 -34 -8 -46 -59 -65 -7 -69 0
13 39 26 15 69 71 31 77 -41 -44 -23 -58 -75 -35 -78 -36 -6 -19 -61 -50 -24 -20 -37 -12 0
1 10 61 17 9 71 74 22 72 16 78 73 45 35 47 43 29 55 23 64 24 56 67 54 53 36 5 66 -75 -57 -3 -44 -2 -8 -19 -4 -46 -40 -42 -15 -13 -26 -34 -32 -14 -48 -65 -27 -28 -79 -12 -6 -31 -68 -62 -20 0
17 50 27 6 7 14 2 46 21 77 57 30 38 42 72 52 61 9 56 -55 -8 -23 -70 -67 -20 -59 -31 -22 0
71 32 53 56 41 -54 -16 -63 -70 -10 0
55 79 74 20 22 16 30 54 44 6 11 2 23 53 75 13 77 48 76 50 21 61 27 7 -14 -64 -9 -72 -18 -58 -60 -71 -35 -31 -1 -63 -25 -29 -5 -15 -12 -32 -38 -66 -70 -51 -24 -47 -3 -39 -33 -65 -59 -34 -69 0
29 36 9 22 5 50 68 76 66 78 31 61 39 59 10 11 46 72 40 49 26 54 38 15 62 42 55 48 41 8 24 -70 -3 -52 -73 -71 -16 -33 -25 -34 -1 -58 -47 -17 -12 -56 -65 -13 -32 -64 -23 -69 -45 -35 -60 0
35 12 54 48 18 79 63 52 62 -11 -57 -39 -26 -2 -71 -69 -74 -41 0
48 45 15 2 49 25 30 55 77 51 18 47 -17 -35 -3 -42 -4 -41 -16 -7 -36 -59 -67 -60 -12 -58 -66 -79 0
62 35 3 28 55 11 8 79 40 52 21 -19 -54 -7 -58 -47 -27 -31 -29 0
29 48 5 24 20 69 8 38 75 46 33 39 13 17 54 40 77 79 62 -6 -44 -25 -61 -53 -4 -18 -51 -43 -45 -68 -63 -59 -37 -47 -73 -27 -56 -10 -60 -1 -28 -74 -9 -12 -23 -31 -2 -15 -66 0
30 36 78 34 21 25 24 33 16 74 22 32 3 76 23 40 11 14 35 8 13 79 12 20 28 7 67 -57 -48 -29 -66 -10 -46 -19 -51 -31 -58 -44 -42 -17 -37 -55 -53 -41 -38 -54 -62 -15 -63 -18 -59 -45 -27 -73 -43 -6 0
66 52 45 78 60 50 42 20 41 49 27 8 5 51 28 75 4 39 57 23 77 76 63 29 26 21 46 72 25 9 53 33 38 15 64 -19 -34 -48 -10 -55 -6 -68 -22 -67 -36 -44 -35 -32 -79 -56 -37 -11 -30 -1 -13 -70 -43 -40 -17 -65 -14 -73 0
75 11 36 66 28 77 9 38 2 16 72 56 32 20 65 23 -24 -35 -26 -3 -61 -64 -22 -17 -52 -10 -76 -34 -27 -57 -71 -54 -37 -29 -1 -40 -43 -6 -51 -67 -44 -63 0
39 22 21 67 75 71 45 27 36 13 38 44 52 15 76 59 6 77 32 23 56 47 55 61 2 37 30 72 50 49 74 28 35 16 46 60 -1 -79 -25 -11 -41 -62 -5 -19 -33 -18 -3 -34 -14 -58 -69 -24 -43 -9 -73 -53 -57 -51 -65 -29 -68 -17 -26 -48 -40 -12 -42 -8 -70 -63 -7 -66 -78 -10 -4 -20 0
25 36 8 40 52 24 37 31 54 16 49 18 51 47 56 5 71 63 60 23 65 58 70 39 11 -78 -75 -57 -27 -3 -32 -29 -41 -72 -43 -68 -77 -66 -69 -62 -22 -1 -19 -76 -30 -10 -61 -46 0
21 36 16 73 37 19 20 62 59 53 48 28 33 64 12 27 71 40 68 60 35 47 32 34 57 39 13 77 41 79 17 22 51 1 9 -76 -26 -43 -55 -10 -29 -72 -67 -46 -25 -42 -44 -78 -54 -7 -24 -70 -58 -4 -49 -61 -31 -11 -45 -5 -38 -6 -50 -65 -14 -15 -2 -63 -52 -18 0
75 46 10 23 48 12 1 58 3 -24 -78 -6 -64 -63 -26 -68 -40 0
12 27 77 33 36 24 58 73 74 -31 -37 -72 -52 -57 0
68 42 69 50 47 40 -63 -48 -14 0
12 47 17 46 29 2 50 57 60 75 76 11 49 51 67 62 7 26 59 72 30 33 32 37 31 16 38 9 24 28 -74 -43 -78 -44 -69 -42 -68 -58 -34 -35 -3 -14 -13 -1 -18 -6 -79 -52 -55 -65 -19 -4 -45 -54 -48 -21 -64 -22 -8 -10 -20 -41 0
59 2 70 64 37 14 9 79 16 20 35 24 15 3 49 44 47 55 30 72 62 60 17 26 53 -42 -31 -18 -75 -69 -23 -68 -19 -29 -77 -57 -28 -67 -74 -73 -32 -25 -78 -13 -56 -33 -22 -4 -27 -10 -7 -63 0
31 49 23 72 43 38 17 18 28 25 41 48 45 5 53 77 50 59 76 73 75 69 33 7 60 -15 -27 -20 -21 -6 -46 -1 -22 -57 -10 -34 -63 -14 -39 -9 -68 -35 -79 -66 -3 -44 -12 -32 -24 0
28 18 50 75 64 21 33 55 26 30 71 8 39 48 45 77 69 73 40 41 59 58 52 23 53 34 10 7 19 76 61 -20 -14 -13 -74 -56 -78 -6 -25 -63 -49 -66 -12 -22 -46 -72 -60 -4 -24 -1 -17 -44 -51 -31 -62 -37 -47 -42 -9 -36 -38 -65 -57 -70 -15 -11 -43 -67 -54 -32 -16 -79 0
67 49 55 21 16 2 62 47 75 17 5 4 34 72 54 19 10 43 60 7 20 -18 -58 -76 -1 -3 -30 -74 -9 -71 -13 -57 -65 -12 -77 -78 -35 -73 -39 -32 -41 -27 -28 -33 0
77 39 34 58 74 73 6 27 57 37 69 47 17 11 23 38 19 60 71 79 66 50 21 30 62 5 25 32 54 36 55 4 8 7 -41 -33 -78 -35 -46 -3 -10 -13 -12 -72 -20 -45 -48 -56 -64 -63 -28 -18 -51 -65 -16 -70 -53 -15 -26 -61 -40 -67 -75 -68 -22 -14 -9 -44 -29 -59 -76 0
5 34 2 -62 -51 0
8 31 32 69 1 54 22 45 28 56 52 47 26 27 71 38 61 74 76 37 42 16 -72 -34 -77 -25 -66 -23 -60 -33 -14 -78 -17 -65 -73 -55 -50 -18 -53 -64 0
31 54 21 68 70 37 50 66 74 73 52 57 2 27 14 -58 -13 -1 -64 -10 -59 -51 -39 -3 -8 -25 -42 0
61 52 67 10 7 3 6 50 71 40 51 24 56 45 31 73 48 39 36 14 72 37 62 69 79 8 57 63 55 9 2 76 38 58 12 18 -42 -60 -30 -66 -34 -20 -53 -44 -35 -4 -41 -49 -64 -46 -28 -26 -11 -17 -23 -19 -5 -65 -68 -15 -74 -77 -78 -25 -21 -59 -70 -43 -32 0
49 25 65 6 79 19 61 53 1 2 41 74 34 62 64 18 42 60 8 56 51 17 48 38 57 10 78 46 29 76 50 59 54 13 33 70 55 63 -44 -58 -52 -4 -30 -77 -23 -72 -27 -28 -71 -39 -45 -24 -35 -14 -36 -22 -73 -7 -67 -32 -21 -75 -12 -9 -15 -16 -20 -40 -26 -69 -5 -11 -37 -68 -31 -43 0
75 8 61 1 38 17 74 37 -21 -29 -15 -52 0
9 64 4 1 35 41 59 6 28 18 65 49 53 10 75 25 33 56 70 2 44 40 20 -43 -58 -72 -73 -16 -22 -12 -47 -15 -27 -23 -36 -8 -29 -57 -21 -46 -67 -13 -14 -24 -5 -26 -77 -7 -79 -48 0
74 37 46 -36 -65 0
52 61 21 37 73 79 18 77 71 46 14 41 11 15 42 19 25 64 68 1 12 26 17 -5 -29 -6 -51 -60 -36 -34 -35 -16 -47 -63 -66 -30 -3 -62 -32 -31 0
53 11 28 31 76 25 34 69 -79 -62 -24 -19 -70 0
10 52 79 54 31 4 15 21 8 2 37 27 47 63 73 53 -67 -44 -42 -19 -6 -72 -20 -40 -74 -48 -71 -70 -62 -36 -59 -14 -9 -77 -78 -58 -11 -43 -1 -3 -61 -64 -39 -50 -65 -12 -69 -30 -23 0
14 50 55 34 24 58 8 20 56 28 61 7 51 -79 -36 -37 -10 -63 -38 -42 -17 -75 -2 -29 -77 -69 -72 0
-53 -16 -34 -9 0
66 60 48 28 75 23 69 33 -79 -3 -52 -4 -57 -29 -54 -38 -16 -36 0
7 55 39 36 2 67 24 72 3 54 22 69 49 15 51 74 21 34 12 42 44 60 -23 -30 -48 -79 -4 -9 -76 -28 -56 -17 -57 -63 -8 -59 -13 -19 -47 -33 -61 -43 -45 -37 -53 -32 -73 -52 0
48 1 70 64 3 6 65 35 63 56 5 14 38 54 4 29 -52 -8 -25 -49 -37 -55 -12 -27 -47 -23 -42 -78 -45 -76 -44 -41 -20 -43 -69 -58 -46 -2 -34 0
54 8 63 6 35 47 37 46 40 -72 -18 -14 -11 -50 -26 -51 -15 -33 -31 -61 0
