c NeuroCodeBench 2.0 CNF formula with verdict Sat
p cnf 50 495
50 14 30 13 42 23 38 2 36 46 24 15 49 31 11 16 18 22 -7 -34 -1 -21 -48 -41 -3 -12 -10 -29 -32 -45 -37 -20 -44 -26 -9 -43 -28 -47 -4 -19 -6 -39 -27 -33 -35 0
38 39 22 13 28 45 31 50 29 44 9 42 -10 -14 -23 -34 -17 -12 -47 -8 -32 -21 -20 -40 -27 -7 0
22 30 33 29 41 32 49 11 25 4 16 27 31 9 36 7 3 18 24 40 43 23 42 1 39 2 6 -45 -35 -19 -46 -26 -28 -14 -34 -8 -20 -48 -44 -50 0
10 44 26 25 18 40 7 33 14 24 11 38 29 37 35 2 20 27 49 -48 -6 -39 -21 -16 -1 -47 -41 -30 -42 -43 -31 -8 -50 -3 -17 -4 -34 -45 -28 -19 0
32 37 24 8 30 4 10 19 44 35 -6 -39 -22 -2 -34 -41 -9 -29 -13 0
31 12 38 50 15 27 3 17 -44 -14 -25 -24 -29 -48 -18 0
37 21 28 -13 0
11 2 5 17 1 15 13 36 34 23 16 31 45 26 10 35 -38 -48 -20 -24 -37 -39 -47 -21 -27 -42 -19 -4 -22 -44 -32 -33 -49 -28 0
24 4 49 8 45 6 33 9 40 -44 -2 -28 -19 -14 -20 -38 -46 -41 0
33 48 11 12 10 42 32 9 50 49 28 47 46 25 30 -44 -2 -26 -7 -17 -37 -3 -39 -5 -41 -16 0
41 40 12 28 30 24 48 39 6 33 -37 -31 -13 -8 -11 -34 -4 -3 -45 0
15 45 41 16 46 6 1 33 3 5 13 14 11 -7 -2 -20 -22 -8 -49 -42 -28 -31 0
13 22 32 4 46 3 12 39 31 14 27 49 23 19 30 24 35 -34 -37 -33 -26 -10 -18 -16 -40 -38 -1 -50 -8 -43 -6 -41 -25 -45 -9 -47 -15 0
48 38 4 46 7 40 14 13 3 36 34 -19 -6 -27 -49 -15 -35 -22 -47 0
27 3 49 38 43 36 -7 -26 -19 -10 -25 -13 -40 -11 -14 0
19 44 10 26 27 34 2 33 16 41 8 28 12 47 36 22 7 6 40 46 -14 -3 -30 -24 -20 -17 -11 -15 -43 -13 -25 -37 -49 -4 -32 -48 -31 -29 -1 -21 -38 -35 -23 -45 -5 -50 0
31 3 38 -5 -27 -11 -50 -30 -26 0
49 11 17 37 -29 -50 0
22 16 19 10 23 39 28 46 1 21 36 44 37 2 26 25 18 8 38 7 50 40 -30 -43 -12 -9 -13 -49 -32 -35 -17 -11 -47 -41 -3 -34 -31 -33 -4 -27 0
3 20 19 -43 0
20 35 22 24 48 21 18 27 37 49 26 4 9 10 -1 -17 -15 -43 -23 -5 -28 -6 -14 -29 -33 0
41 33 16 20 9 22 17 4 42 47 39 12 13 26 35 5 -31 -2 -50 -29 -1 -25 -11 -49 -18 -8 -34 -36 -27 -48 -40 -7 -15 -23 -3 0
33 2 31 30 27 47 22 5 36 16 9 44 45 37 29 18 -15 -49 -6 -14 -4 -13 -11 -3 -28 -1 -8 -23 -50 0
21 5 28 31 12 1 27 42 2 -4 -19 -32 -41 -34 -46 -22 -11 -43 -30 -37 -33 -35 -16 0
36 33 13 15 17 34 18 50 4 10 45 32 40 44 5 11 38 -21 -1 -12 -14 -9 -43 -49 -37 -30 -20 -19 -22 -7 -24 0
27 3 35 23 40 41 8 26 24 30 -21 -45 -33 -46 -32 -4 -17 -9 -37 -2 -36 0
35 6 4 19 9 42 34 14 20 22 40 15 29 43 47 -25 -39 -24 -21 -26 -2 -33 -46 -27 -32 -12 -28 -13 -44 -37 -8 -45 -3 -31 -17 -7 -5 -1 0
5 43 26 6 31 4 22 48 29 -33 -12 -44 -36 0
46 43 -12 0
21 34 40 25 6 49 31 9 -29 -1 -26 -44 -4 -45 -36 -46 -30 0
11 21 20 27 26 2 4 14 3 44 41 36 7 15 29 32 23 45 35 13 38 12 34 42 8 5 -22 -49 -39 -10 -47 -43 -46 -31 -1 -48 -30 -25 -50 -6 -17 -40 -19 -18 -16 -28 -24 0
21 33 -48 -22 0
30 50 21 10 4 13 23 22 45 34 46 15 7 47 -39 -20 -29 -11 -43 -9 -1 -37 -32 -19 -35 -17 -2 -42 -44 -14 0
41 36 42 40 39 24 31 18 26 35 50 32 44 46 16 -14 -29 -17 -34 -25 -10 -1 -38 -47 -37 -3 -19 -48 0
28 25 7 20 50 11 2 33 16 17 48 43 4 22 3 -41 -8 -21 -39 -37 -10 -44 -38 -29 -12 -35 -47 -1 -15 -40 -32 -27 -5 -14 -45 -6 -42 -36 -49 0
42 17 36 -22 0
28 -45 -19 -50 -39 0
6 50 10 43 26 44 22 31 5 14 2 19 11 42 45 33 13 1 38 24 3 25 15 16 35 29 7 -9 -37 -49 -17 -41 -20 -46 -36 -4 -40 -47 -39 -12 -23 -30 -48 -8 -34 -18 -27 -32 -21 0
33 13 5 16 42 21 4 19 -34 -27 -30 -18 -37 -36 -20 -40 -7 -38 -46 -2 -9 0
3 14 21 19 34 47 36 -43 -33 -39 -20 -26 -45 -35 0
1 16 11 19 10 35 -4 -24 -31 -13 -9 -34 -3 -28 -6 0
17 6 4 42 1 28 48 40 46 9 -20 -41 -43 -18 -27 -32 -16 -13 -5 -47 -19 -35 -14 -50 -11 -24 -33 0
26 49 23 50 11 32 1 2 7 -43 -17 -3 -44 -21 -33 -6 -42 -48 0
46 20 50 32 48 2 -9 -24 -27 -35 -13 -29 -18 -5 -15 -22 -37 -21 -40 -41 0
24 21 16 2 46 5 42 35 32 20 38 41 9 -4 -47 -45 -36 -18 -10 -44 -29 -13 -3 -7 -49 0
17 41 44 9 50 11 39 13 -28 -32 -36 -30 -8 -7 -49 -16 -18 0
23 11 20 1 -41 -46 -49 -38 -34 -36 0
4 -44 0
6 34 41 45 3 2 25 50 16 29 7 21 36 4 26 17 42 46 -8 -40 -15 -47 -27 -22 -49 -20 -35 -30 -1 -43 -44 -5 -9 -38 -10 -48 -31 -37 -39 0
46 12 16 34 43 18 33 50 29 10 11 48 19 1 13 8 25 36 -22 -38 -15 -35 -6 -40 -42 -41 -21 -26 -37 -20 -9 -7 -39 -24 -2 -44 0
27 13 48 41 -45 -21 -34 0
35 9 39 50 17 -26 -22 -10 -29 -25 -33 -30 -41 -16 0
-6 -12 -20 -24 0
15 32 5 9 34 10 28 29 48 6 12 20 -1 -24 -16 -3 -26 -35 -25 -50 -18 0
40 22 -23 -21 0
17 14 34 38 -5 -41 -37 -45 -15 -2 -6 -30 -24 -50 -19 -23 -11 -12 -22 0
17 48 13 6 18 24 9 21 36 22 27 5 19 46 -47 -31 -1 -11 -39 -33 -49 -2 -30 -50 -15 -26 -12 -37 0
6 28 27 7 4 50 20 43 5 49 11 29 39 2 8 14 36 42 35 23 -31 -30 -17 -33 -13 -26 -47 -46 -18 -25 -16 -34 -24 -1 -44 -21 -40 -41 -32 0
44 7 5 30 39 37 13 41 36 8 49 40 26 45 34 28 27 9 33 24 18 22 14 1 16 11 47 -15 -23 -21 -43 -48 -17 -32 -12 -20 -10 -35 -2 -42 -46 -38 -6 -31 -4 -3 -25 -29 -50 0
-6 0
34 38 24 48 14 11 46 36 25 41 5 1 13 28 47 17 4 7 50 2 3 49 33 20 23 35 16 32 44 30 -26 -40 -43 -39 -27 -19 -15 -29 -10 -22 -45 -9 -6 -42 0
46 17 21 38 12 5 24 50 31 48 26 43 10 6 41 -13 -19 -30 -23 -25 -49 -1 0
25 16 45 19 29 3 9 31 46 2 42 47 -23 -18 -24 -6 -5 -48 -44 -20 -17 -30 -11 -28 -4 -40 -8 0
10 22 40 2 16 -30 -28 -49 -37 -41 -1 -12 -42 -19 0
27 14 23 15 -33 -2 -42 -34 0
40 26 7 45 16 17 35 -46 -21 -36 -42 -31 -6 -4 -11 -3 -47 -37 -10 -15 -34 -32 -5 -39 -14 -43 -1 -41 -27 -50 -30 0
44 14 35 10 3 46 32 47 28 18 13 20 -6 -45 -31 -34 -12 -37 -29 -30 -16 -7 -50 -39 -42 -27 -23 -17 -48 -40 -24 -15 -11 0
3 26 6 10 5 2 47 35 16 24 -22 -49 -23 -33 -37 -7 -45 -15 0
7 13 40 19 48 14 35 -44 -31 -18 -15 -29 -2 -38 -6 0
14 6 20 21 26 15 22 -31 -23 -24 -12 -4 -38 -8 -39 -30 0
6 13 47 20 28 46 -14 -15 -17 -5 -37 -36 -48 -49 -50 -8 -40 0
6 42 0
9 41 19 26 20 17 0
3 23 35 22 39 45 7 8 13 16 26 32 11 2 24 9 37 -21 -38 -19 -30 -28 -49 -14 -31 -4 -33 -12 -48 -27 -47 -6 -34 -46 -42 0
14 10 2 36 50 38 42 16 33 13 49 39 44 46 21 17 1 -27 -31 -8 -30 -48 -32 -19 -45 -6 -12 -34 -4 -11 -37 -18 -40 -22 -7 0
2 8 0
20 10 50 4 13 12 27 15 35 14 25 37 9 22 21 30 47 41 26 -32 -19 -1 -33 -42 -31 -18 -36 -48 -16 -46 -3 -8 -6 -43 -24 -40 -17 0
42 43 4 29 15 17 12 25 47 46 45 16 18 38 30 37 13 32 10 -34 -50 -11 -48 -20 -28 -21 -19 -27 -22 -1 -44 -49 -2 -26 -23 -6 -35 -33 0
32 21 49 26 12 50 38 13 41 24 22 17 -29 -28 -2 -42 -33 -44 -15 -1 -37 -14 -3 -5 -18 0
15 27 16 1 4 41 -32 -10 -20 -31 -43 0
1 8 11 45 13 17 42 31 32 38 14 40 20 35 48 22 2 4 34 -46 -30 -18 -25 -3 -24 -12 -9 -15 -16 -28 -44 -6 -21 -7 -50 -37 -26 -33 -47 -10 -29 -41 -49 0
32 19 28 29 3 36 35 38 16 5 39 33 1 18 27 47 45 4 44 49 26 40 46 48 30 17 -22 -43 -34 -6 -21 -11 -9 -12 -25 -50 -24 -8 -37 -20 -31 -13 -10 -2 -7 -14 -42 -15 0
37 14 29 1 25 8 11 33 3 24 47 4 19 -10 -9 -32 -12 -44 -2 -18 -5 -34 -27 -17 0
28 21 35 49 48 7 4 31 32 -24 -9 -17 -25 -38 -45 0
45 13 39 8 48 43 27 41 2 31 40 21 34 28 37 50 15 18 4 36 30 9 33 46 -12 -49 -47 -3 -1 -35 -25 -20 -16 -19 -11 -14 -17 -24 -44 -5 0
7 49 43 35 31 16 25 4 28 9 45 19 11 18 21 -29 -36 -30 -44 -15 -13 -27 -3 -32 -40 0
4 39 42 46 27 45 32 49 21 11 -48 -3 -16 -26 -24 -43 -30 -38 -6 -23 -8 -36 -2 -37 -34 0
23 16 15 20 12 7 32 26 33 29 21 28 -2 -17 -42 -41 -6 -24 -43 -35 -36 -18 -40 -27 0
24 28 15 17 32 47 44 39 19 22 12 49 33 30 7 13 41 9 27 40 20 26 31 18 16 29 5 14 -37 -35 -25 -42 -43 -8 -45 -1 -48 -3 -2 -10 -34 -4 -46 -6 -21 -36 -50 -38 -23 0
49 26 28 27 -29 -4 -3 -43 -50 -46 -44 -31 -34 -33 -42 0
6 11 12 37 10 3 22 28 42 27 25 9 31 38 49 2 14 8 36 19 17 7 -30 -1 -35 -39 -18 -45 -48 -24 -29 -47 -5 -23 -41 -4 -44 -13 -20 -15 -43 -34 -16 -40 -32 -26 -21 0
13 33 9 14 12 38 48 11 1 22 25 37 20 -5 -30 -19 -39 -6 -17 -35 -15 -36 -29 -10 -21 -27 -2 -23 -26 -34 -7 -43 -24 -3 0
29 28 49 18 38 23 5 -41 -35 -31 -14 -45 -48 -39 0
43 1 -40 0
26 37 33 10 48 11 -23 -19 -3 -46 -2 -8 -24 0
17 4 8 13 5 50 44 48 49 31 42 41 25 10 16 29 1 3 -22 -26 -19 -18 -35 -30 -20 -37 -9 -24 -2 -38 -11 -34 -47 -39 -40 -32 -33 -36 -15 -12 -45 -43 -6 -21 -14 -28 -27 0
44 42 5 49 -35 -13 -17 0
49 34 4 48 42 16 38 3 41 23 -50 -9 -14 -29 -26 -22 -35 -33 -24 -25 -20 0
27 7 26 37 50 3 25 5 8 4 40 22 43 23 24 38 17 41 12 -21 -44 -16 -13 -45 -2 -36 -30 -39 -1 -14 -49 -32 -9 -48 -33 -42 -10 0
39 23 2 37 16 17 29 42 8 -18 -5 -3 0
30 10 48 4 40 2 22 1 26 27 15 39 38 29 -3 -49 -23 -5 -44 -9 -32 -18 -33 -24 -37 -31 0
16 34 41 50 35 4 40 14 33 38 37 15 20 39 43 12 24 -5 -21 -18 -27 -17 -25 -31 -13 -45 -2 -29 -23 -19 -11 -44 -7 -48 -49 -22 -26 -36 -47 -3 -10 0
12 28 1 14 5 47 30 -42 -34 -20 0
6 15 31 46 45 10 49 35 18 26 -24 -36 -41 -30 -33 0
4 6 29 43 31 23 26 22 25 10 17 -2 -8 -30 -38 -16 -44 -33 -41 -28 -47 -3 -19 -5 -42 -32 -21 -13 0
39 14 32 49 8 25 11 40 -33 -26 -13 0
9 7 21 2 48 -24 0
-26 -48 -10 -9 0
17 38 43 48 50 20 35 -31 -18 -29 -14 0
28 48 6 23 3 7 37 15 14 19 49 8 22 20 16 30 44 34 31 47 12 -39 -9 -24 -32 -25 -36 -18 -1 -40 -26 -38 -17 -41 -5 -42 -29 -33 -2 -45 -50 -46 -27 -4 -11 -21 0
20 17 48 31 34 42 14 21 15 36 10 39 47 38 30 16 7 19 5 44 6 29 -35 -33 -26 -25 -22 -43 -28 -37 -23 -27 -49 -11 -8 -13 -24 -2 -18 -9 -46 -12 -4 -32 -45 -3 0
15 34 9 50 20 27 48 32 24 42 46 4 16 17 -49 -10 -23 -13 -37 -3 -19 -28 -40 -22 -7 -25 -14 -33 -2 -41 -45 -30 -1 -38 0
33 31 44 34 24 12 13 20 7 10 39 21 29 18 47 38 15 16 48 36 19 4 3 45 5 -32 -28 -41 -46 -49 -9 -35 -1 -2 -6 -26 -30 -17 -43 -40 -25 -8 -50 -27 -23 -37 0
31 23 36 -17 -19 -33 0
-21 0
38 43 34 47 21 40 24 19 13 29 -49 -45 -7 -25 -22 -44 -37 -1 -3 -35 -30 -20 -48 -27 -4 -5 -33 -16 -8 -17 -15 -14 -42 0
29 16 8 30 43 22 38 49 10 7 3 13 18 -46 -4 -34 -15 -12 -2 -32 -48 -33 -36 -31 -26 -9 -50 0
47 41 49 31 46 25 -32 -19 -22 -45 -13 -18 -7 -30 -42 -28 -1 -8 0
32 16 9 -25 -7 -23 0
14 11 50 28 20 9 42 36 -43 -41 -45 -5 -8 0
37 23 16 46 33 4 2 12 41 -43 -6 -34 -20 -45 -25 -48 -3 -17 -1 0
37 2 13 15 34 1 17 28 16 35 24 6 42 5 -25 -22 -47 -26 -4 -32 -7 -46 -49 -29 -8 -10 -31 -11 -3 -48 -38 -45 -19 -40 -18 -21 -39 -20 0
13 35 4 45 -10 -37 -17 -9 -16 -21 0
23 9 35 28 46 20 29 16 41 37 7 26 25 5 48 31 39 -44 -17 -47 -21 -43 -1 -8 -49 -32 -42 -6 -14 -3 -19 -18 -24 -38 0
-23 -36 0
5 47 22 12 29 14 16 30 35 13 -40 -11 -10 -49 -36 -32 -33 -4 -45 -20 0
17 10 22 7 34 9 16 33 29 42 31 39 43 46 45 49 15 41 28 36 1 38 5 35 21 48 8 -25 -4 -26 -47 -24 -3 -12 -40 -18 -30 -11 -37 -20 -32 -6 -13 -23 -19 -50 0
40 41 42 48 10 14 22 23 25 24 13 26 -36 -35 -46 -19 -18 -3 -28 -50 -34 -2 0
23 6 19 34 26 18 17 21 31 5 12 44 10 48 25 -32 -33 -9 -28 -45 -13 -4 -49 -1 -46 -41 -7 -22 -16 0
23 24 33 20 49 29 25 13 -50 -2 -26 -43 -15 -30 0
31 47 14 15 20 34 4 45 12 37 19 -24 -21 -17 -38 -50 -26 -2 -43 -40 -49 -44 -22 0
10 42 38 49 22 43 47 31 32 24 7 28 45 16 4 36 30 50 48 13 6 14 -12 -25 -18 -46 -19 -37 -27 -20 -3 -33 -8 -11 -1 -15 -2 -39 -34 -9 -35 -23 -26 -40 0
30 44 28 12 26 -33 -29 -6 0
39 17 33 10 6 2 9 48 8 30 11 42 19 14 31 50 44 35 49 15 16 46 24 -37 -13 -25 -29 -23 -34 -45 -38 -28 -36 -5 -20 -41 -21 -1 -4 -18 -26 -7 0
35 29 48 38 2 12 39 24 36 32 -43 -22 -11 -46 -40 0
42 31 9 28 45 16 8 46 49 -20 -34 -29 -27 -10 -15 -38 -36 -39 -24 -35 -1 -18 -2 -33 -23 0
3 5 49 13 33 16 23 27 38 4 44 28 15 37 14 50 1 36 41 2 11 18 8 -34 -48 -29 -22 -20 -17 -32 -43 -35 -46 -6 -40 -12 -30 -26 -9 -7 -21 -42 -24 -19 -25 -39 0
37 16 18 50 15 43 26 47 39 30 -17 -38 -46 -5 -27 -1 -8 -40 -7 -45 -48 -41 -20 -34 -25 -22 0
50 40 5 44 10 33 25 11 8 34 49 42 4 6 13 16 15 1 12 -35 -19 -46 -28 -31 -14 -21 -29 -48 -30 -38 -39 -7 -27 -20 0
28 5 32 35 30 46 -11 -24 -6 -41 -12 -47 -48 -33 -19 0
48 19 40 26 18 11 1 10 3 22 -4 -44 -49 -5 -28 -17 -39 0
22 2 26 12 23 43 29 41 27 42 49 25 13 38 -45 -14 -10 -20 -31 -39 -24 -9 -30 -8 -40 -18 -11 -5 -48 0
45 26 19 12 32 13 40 16 24 43 20 17 33 -8 -35 -46 -22 -10 -36 -41 -27 -38 -25 -34 -49 -15 -1 -3 -42 -50 0
42 6 50 41 27 44 2 48 34 20 28 38 32 22 36 8 13 26 29 9 7 -37 -10 -16 -49 -30 -24 -46 -12 -33 -35 -5 -39 -40 -31 -43 -23 -3 0
36 33 46 37 40 22 47 27 4 49 18 32 3 39 5 9 42 43 30 -1 -15 -14 -45 -6 -31 -48 -38 -11 -17 -16 -7 -29 -2 -23 -41 -34 -21 -13 -35 -10 -24 -19 -25 -26 -28 -50 -12 -20 -8 0
27 15 7 25 13 2 5 18 40 -17 -41 -11 -49 -38 -35 -19 -10 0
4 29 5 24 1 22 32 9 -23 -37 -27 -25 -41 -7 -20 -31 0
35 32 16 39 25 14 31 19 4 11 7 22 23 40 8 3 -49 -10 -46 -43 -5 -15 -6 -26 -41 -1 -17 -36 -20 -47 -28 -27 -21 -38 -34 -37 -29 0
39 7 11 36 44 16 30 31 12 23 28 46 18 38 22 41 3 48 4 15 21 9 42 14 50 -29 -26 -25 -1 -20 -19 -37 -13 -40 -47 -34 -5 -33 -6 -35 -17 -32 -27 -10 -49 -2 -8 -24 -45 0
21 27 14 23 9 17 31 5 3 36 28 33 -12 -50 -46 -1 -25 -10 -30 -44 -32 -29 -37 -20 -38 -11 -18 -2 -7 -35 -6 -15 -24 -19 -47 -4 0
40 10 -29 -26 -11 0
29 10 25 23 27 16 50 2 8 11 4 38 14 -13 -48 -6 -37 -40 -36 -18 -41 -45 -20 -28 0
27 13 31 41 40 28 8 38 34 9 16 25 3 33 7 46 19 39 -35 -18 -26 -29 -12 -17 -49 -36 -47 -42 -15 0
49 34 45 32 25 5 8 -39 -4 -21 -11 -44 -23 -19 0
43 23 42 17 45 48 6 27 31 2 15 22 20 1 49 33 24 7 44 29 -10 -34 -39 -47 -12 -41 -36 -35 -30 -21 -18 -16 -38 -3 -37 -28 -26 -19 -32 0
39 8 22 1 4 20 9 38 18 12 27 -42 -2 -31 -45 -29 -24 -17 0
43 21 12 26 10 48 -39 -7 -44 -50 -15 -38 0
9 3 37 34 6 2 40 32 16 15 26 30 35 -43 -10 -28 -1 -21 -45 -11 -44 -47 -38 -24 -33 -19 -12 -49 -36 0
10 43 14 36 47 18 48 34 22 9 26 44 45 11 33 3 40 -31 -30 -37 -23 -4 -35 -6 -46 -41 -28 -15 -13 0
23 47 10 48 40 12 25 27 -5 -6 -49 -15 -19 -26 -8 0
21 37 1 3 5 42 45 38 25 10 -4 -50 -9 -14 -11 -28 0
47 40 36 10 19 30 34 14 31 18 7 33 23 46 39 20 38 -49 -26 -44 -16 -8 -25 -5 -45 -27 -6 -43 -32 -29 -42 -22 -35 -28 -4 -50 -12 -11 -3 -15 0
44 7 18 31 36 4 19 -50 -11 -17 -39 -21 0
45 1 50 21 49 20 38 9 40 -37 -15 -44 -47 -30 -17 0
29 35 7 43 -10 -30 -38 -36 0
21 31 20 25 50 24 2 9 5 37 7 3 44 30 16 23 12 15 41 38 19 4 43 39 49 14 -26 -27 -18 -11 -32 -42 -46 -1 -10 -6 -48 -22 -36 -13 -47 -34 -29 -45 -35 -40 -8 -17 -28 0
8 21 36 3 37 34 35 10 13 31 12 6 27 -1 -18 -24 -49 -11 -48 -19 -39 -33 -41 -30 -29 -44 0
48 12 42 22 28 1 34 -27 -41 -8 -14 -26 -31 -4 -16 -29 -36 0
5 16 28 34 32 18 33 3 49 44 20 7 45 11 14 2 31 15 30 27 22 40 -17 -25 -21 -46 -39 -48 -42 -4 -29 -41 -1 -38 -23 -47 0
5 35 19 -48 -4 0
36 29 37 27 16 15 44 4 40 25 10 26 18 2 50 1 -41 -11 -31 -45 -35 -43 -14 -9 -46 -39 -34 -20 -28 -24 -7 -33 -3 0
4 1 44 30 29 46 16 32 7 21 34 39 35 6 2 15 -3 -27 -40 -20 -47 -42 -19 -25 -36 -49 -13 -8 -14 0
8 28 21 47 5 35 26 1 7 36 11 27 44 42 2 38 45 23 -19 -32 -25 -40 -15 -30 -33 -49 -3 -16 -39 -10 -37 -50 -29 -43 -13 -41 -9 -20 -24 -18 -12 -6 -34 -14 0
37 32 26 2 11 9 29 1 46 13 27 5 6 -4 -35 -31 -16 -38 -33 -25 -21 -18 -36 0
37 7 35 41 12 17 20 18 14 9 3 15 34 8 48 50 32 4 49 -1 -23 -46 -6 -36 -31 -29 -11 -39 -25 -27 -47 -16 -5 -38 -44 -24 -40 -13 -19 -45 -26 0
32 50 10 24 48 40 15 6 49 43 36 23 17 3 26 45 9 42 11 2 29 41 13 -22 -25 -1 -20 -14 -4 -27 -5 -16 -44 -35 -47 -18 -21 -28 -46 -34 -8 -30 -12 -7 -33 -19 -31 -39 0
6 21 47 18 12 26 30 34 38 36 48 37 46 7 39 -11 -35 -5 -42 -44 -15 -16 -3 -20 -1 -27 0
31 22 25 12 24 45 21 37 10 8 13 14 16 28 39 35 44 9 30 32 49 43 20 46 15 47 23 40 -4 -38 -19 -17 -5 -42 -26 -36 -18 -3 -33 -6 -34 -1 -11 -48 -41 -7 -2 0
50 21 8 48 33 30 31 -12 -43 -22 -42 -38 -37 -1 -7 -24 -5 0
2 46 45 40 18 15 11 3 10 8 4 19 -49 -27 -39 -31 -48 -25 -24 -50 -33 -43 -6 -26 -9 -16 -14 -1 -44 -29 -20 -32 -12 0
26 12 21 47 32 17 14 40 46 33 5 39 1 -15 -20 -34 -22 -42 -10 -43 -9 -8 -18 -23 -45 -29 0
43 3 31 38 25 9 24 22 18 6 14 42 10 30 33 2 21 23 5 39 34 19 26 46 32 15 -47 -40 -17 -37 -20 -41 -45 -49 -8 -13 -1 -36 -50 -29 -48 -44 -12 -35 -7 -11 -16 -4 0
21 23 11 34 -35 -13 -28 -42 0
49 16 17 47 21 9 19 44 48 22 43 1 13 33 23 3 27 42 8 -40 -6 -30 -29 -26 -50 -41 -36 -10 -31 -20 -12 -32 -11 -25 -46 -7 -39 -28 -38 -14 -18 0
17 9 22 41 25 26 47 16 32 -35 -7 -29 -2 -33 -46 -18 -1 -48 -23 -19 0
4 50 24 2 6 37 39 7 16 31 33 1 8 17 47 38 -23 -10 -44 -14 -35 -12 -27 -26 -19 -43 0
35 31 45 36 21 25 34 9 46 38 48 28 4 42 49 33 -20 -29 -41 -13 -30 -24 -22 -19 -5 -39 -47 -6 -10 0
49 -9 -35 -48 -2 0
33 43 6 49 48 5 42 23 32 25 10 29 30 38 28 45 35 21 19 41 44 50 11 -22 -37 -39 -34 -46 -16 -36 -20 -14 -24 -15 -9 -3 0
18 8 37 25 15 7 47 19 44 32 10 41 34 28 29 -23 -36 -46 -2 -31 -33 -9 -13 -14 -1 -11 -45 -22 -6 -27 -43 -38 -39 -3 -49 -16 -24 -42 0
7 45 1 30 10 48 50 36 25 18 4 17 24 -27 -5 -2 -19 -23 -49 -6 -34 -33 -31 -43 -44 0
33 45 13 47 18 31 28 9 17 27 37 39 44 6 25 36 10 19 40 21 2 -12 -22 -23 -38 -49 -16 -50 -1 -41 -14 -3 -4 -15 -30 -24 -48 -46 -29 -26 -20 -32 -5 -43 -7 -35 0
1 48 -26 -15 -47 -14 -20 0
36 43 26 9 -10 -50 -20 0
28 27 43 7 4 36 22 19 25 6 37 20 13 50 46 29 26 35 9 -5 -10 -32 -39 -45 -40 -34 -41 -1 -3 -48 -17 -12 -11 -23 -2 -31 -42 -18 -24 -14 -15 -33 -8 -44 -21 -38 -49 -16 -47 0
30 34 35 26 23 43 50 25 2 49 46 22 27 47 31 8 36 4 15 37 -29 -1 -41 -5 -40 -9 -45 -14 -39 -10 -17 -48 0
35 -7 0
50 35 17 32 8 31 48 7 44 38 29 -34 -33 -14 -45 -22 -10 -18 -43 -2 -5 -13 -15 -41 0
41 2 14 37 43 49 13 28 47 5 30 21 27 33 4 36 32 48 24 34 25 8 1 -35 -9 -15 -39 -17 -45 -3 -46 -23 -19 -31 -22 -18 -6 -40 -12 -50 -44 -26 -10 -38 0
17 5 43 30 21 1 7 45 50 4 -29 -38 -9 -44 -28 -20 -35 -19 -37 -10 -27 0
22 39 19 46 7 44 29 41 11 40 23 4 -13 -32 -48 -43 -36 0
50 -13 -14 -16 0
1 30 28 27 19 35 22 20 15 50 36 -34 -41 -3 -45 -31 -7 -18 -10 -38 -32 -21 -13 -8 0
46 2 49 20 42 48 36 33 22 17 47 21 25 34 37 9 7 10 23 -40 -11 -19 -13 -29 -38 -14 -44 -12 -3 -6 -50 -43 -24 -15 -45 -27 -4 -5 -31 -39 -26 -1 0
6 4 14 10 39 12 8 30 34 26 29 20 -27 -7 -41 -21 -22 -23 -45 -9 -32 -50 -17 -37 -38 -2 0
3 7 44 23 13 46 36 24 18 22 35 39 15 8 20 49 27 5 9 26 4 50 31 30 47 -43 -29 -12 -42 -48 -10 -17 -16 -38 -32 -40 -41 -25 -33 -21 -6 -28 -37 -1 -11 -14 -45 -34 -2 0
24 7 2 21 35 19 28 17 5 22 31 36 6 45 11 40 38 9 37 15 43 -29 -4 -10 -12 -48 -34 -39 -30 -46 -32 -3 -50 -20 -13 -26 -27 -18 -41 0
29 35 22 5 25 42 15 38 1 30 13 37 50 14 10 26 7 46 11 41 23 45 44 49 -31 -21 -2 -27 -19 -8 -33 -32 -34 -17 -43 -40 -36 -16 -20 -47 -39 -18 -6 -24 -48 -3 -12 -9 -4 0
20 24 11 22 41 42 30 35 43 29 36 50 7 21 4 12 32 16 2 44 -28 -15 -10 -9 -5 -45 -1 -39 -34 -48 -8 -37 -47 -25 -3 -23 -18 -27 -13 0
31 43 16 22 44 49 19 4 38 42 9 -10 -20 -5 -3 -45 0
37 33 34 43 22 46 38 25 5 13 26 -1 -2 -50 -47 -19 -49 -3 -32 -40 -18 -9 0
36 13 32 39 7 9 42 -11 -38 -28 -16 -29 -50 -47 0
14 32 13 10 7 42 3 11 43 19 37 47 30 48 49 1 36 50 2 46 44 -26 -24 -25 -8 -40 -6 -31 -12 -5 -15 -22 -4 -23 -39 -35 -21 -18 -41 -20 -29 -45 0
46 21 3 30 5 40 9 31 2 4 22 13 33 26 24 12 32 48 19 42 16 8 10 37 -11 -47 -17 -7 -25 -28 -29 -20 -50 -36 -49 -43 -1 -38 -44 -6 -23 -15 -27 -45 -34 0
23 41 45 38 36 39 46 1 -17 -7 -12 -29 -48 -27 -14 -40 -47 0
29 27 22 43 28 -35 -42 -21 -7 -23 -44 -17 -14 -33 0
42 36 47 43 24 6 49 5 44 32 21 38 -39 -20 -12 -3 -7 -29 -50 -1 -2 -41 -45 -18 -48 -16 -10 0
24 12 16 18 13 36 50 15 40 7 14 8 38 30 29 47 43 39 -46 -11 -17 -48 -2 -25 -21 -28 -6 -3 -42 -9 -41 -44 -34 0
22 20 18 8 16 1 25 14 23 47 30 36 -34 -28 -49 -9 -21 -24 -7 -6 -42 -33 -39 -4 0
7 20 21 43 3 -32 -8 -13 -4 -9 0
45 24 48 29 -39 -41 0
46 48 -15 -3 -42 -41 -18 -40 -12 0
44 31 18 25 21 5 27 3 -29 -15 0
15 2 5 24 -48 -6 -18 -32 0
24 19 33 28 36 12 37 30 26 8 4 20 41 35 47 31 27 -9 -1 -48 -7 -34 -23 -44 -6 -49 -32 -14 -10 -11 -40 -46 -43 -13 -45 -21 0
19 -7 -16 0
19 17 50 26 18 14 5 29 24 42 33 45 4 -31 -13 -28 -30 -20 -12 -48 -37 -46 -9 0
33 21 35 44 1 41 32 39 12 2 7 4 46 45 28 17 10 -27 -25 -48 -9 -13 -15 -42 -38 -3 -6 -47 -20 0
24 39 26 43 1 47 7 20 35 3 28 48 10 -27 -13 -32 -23 -19 -45 -46 -36 -5 -6 -17 -50 -21 0
44 41 15 42 49 8 11 28 37 26 40 -14 -19 -30 -38 -4 -50 -9 -5 0
33 32 22 7 45 40 26 24 42 30 29 37 5 21 16 39 49 25 12 43 35 38 20 9 14 18 -6 -46 -1 -11 -15 -48 -27 -2 -50 -8 -36 -4 -3 -28 -17 -10 -13 -23 -34 -19 -41 0
5 32 17 19 1 3 21 47 39 44 26 45 42 -48 -8 -38 -27 -33 -16 -9 -43 -6 -4 -25 -7 -37 -50 -35 0
-37 -8 -42 0
16 32 25 41 17 36 37 44 26 31 35 40 49 29 45 7 6 46 39 10 -43 -19 -28 -21 -14 -18 -2 -12 -23 -3 -50 -38 -9 -4 -48 -8 -27 -1 -11 -24 -30 -13 -34 -42 0
24 43 31 4 39 19 11 20 48 9 16 45 12 50 5 18 2 33 49 46 8 13 28 26 -23 -47 -37 -25 -42 -7 -1 -14 -44 -15 -41 -34 -32 -6 -40 0
2 6 50 41 43 19 45 8 1 18 14 38 27 -12 -28 -31 -9 -36 -20 -47 -35 -3 -26 0
36 18 28 37 13 3 1 44 46 26 35 6 32 19 20 42 7 43 41 15 12 -24 -39 -45 -49 -22 -31 -10 -14 -50 -4 -11 -30 -8 -23 -2 -47 -40 -29 -34 -48 -27 -5 -25 -33 -9 0
35 8 28 29 -7 -14 -44 -32 -48 -10 0
6 8 50 41 45 12 19 9 27 10 11 21 4 14 39 -13 -31 -34 -15 -46 -1 -2 -36 -49 -48 -44 -20 0
2 23 -40 -14 -30 -48 -10 -27 0
7 27 25 16 37 5 31 -18 -44 -24 -35 -45 -9 -20 -50 -30 0
2 44 17 14 15 -12 -18 -7 -8 -42 -16 -1 -13 -33 -40 0
33 28 29 34 14 4 30 1 -26 -50 -11 -38 -41 0
30 18 49 43 8 34 16 47 32 3 11 35 26 13 20 12 45 7 41 38 37 14 27 -42 -6 -29 -24 -31 -25 -44 -21 -17 -1 -36 -15 -9 -33 -22 -23 -19 -50 -39 -5 -2 -46 -4 -28 -48 -10 0
7 32 20 1 41 46 42 9 45 36 50 4 30 -28 -10 -3 -12 -6 -27 -11 -16 -14 -39 -47 -40 -33 -5 -24 -25 -19 0
19 35 26 2 49 5 18 3 4 44 48 -50 -9 -8 -39 -40 -6 -20 -42 -24 -14 -43 -41 -31 -25 -46 -23 -29 -11 -17 -38 -33 -28 0
5 4 39 42 17 33 27 49 8 16 36 13 26 20 7 46 -19 -3 -11 -22 -35 -9 -2 -10 -40 -44 -34 -23 0
47 26 21 50 39 -37 -38 -17 0
39 40 29 26 35 22 17 34 24 47 16 14 27 49 45 3 4 50 -6 -13 -23 -20 -46 -33 -25 -19 -9 -11 -2 -42 -12 -44 -15 -30 -41 -18 0
13 15 16 30 22 26 12 49 48 37 7 2 29 10 43 32 -39 -27 -9 -23 -8 -33 -41 -38 0
25 2 45 48 41 34 35 39 27 20 15 18 43 33 40 30 7 50 46 -3 -13 -11 -49 -28 -44 -32 -37 -8 -1 -10 -26 -31 -38 -4 -36 -42 -47 -6 -21 -12 -14 -19 -29 -24 0
49 46 9 20 15 45 -34 -25 -3 -40 -26 -17 -31 -21 -42 -12 -50 -47 0
44 36 24 22 21 43 18 46 19 47 2 14 17 9 41 40 10 26 28 3 25 -16 -6 -13 -27 -23 -7 -49 -5 -20 -39 -1 -30 -31 0
50 38 8 41 45 43 9 -19 -12 -15 -44 -33 -46 -11 -37 -16 -42 -34 -25 -13 -49 -47 -2 -26 -7 -4 0
33 3 48 8 2 23 -17 0
48 15 21 17 11 30 1 40 14 41 35 -39 -4 -2 -12 -23 -27 -44 -6 -26 -10 0
14 38 41 5 33 11 17 49 23 10 39 32 43 42 3 20 19 30 2 44 4 7 -34 -25 -40 -37 -9 -6 -13 -8 -18 -47 -16 -31 -35 -15 -48 -45 -22 -12 -50 -36 -46 0
3 32 43 23 5 45 8 47 38 42 21 9 18 24 -44 -15 -27 -35 -13 -29 -4 -17 -12 -19 -48 -30 -25 -40 -11 0
15 50 19 48 42 9 12 3 14 36 35 22 30 -38 -24 -31 -17 -33 -2 -43 -16 -1 -29 -27 -32 0
13 34 19 43 47 32 20 50 29 10 5 31 12 26 9 25 24 23 8 1 4 48 -41 -30 -27 -38 -2 -3 -39 -45 -49 -46 -17 -36 -33 -37 -15 -35 -21 -22 0
31 19 27 28 3 -34 -39 -41 -2 -17 -5 -6 0
3 23 30 41 6 28 18 -43 -14 -7 -45 -40 -32 -11 -27 -50 -4 0
12 20 14 10 45 21 30 17 33 37 15 48 3 39 36 40 -38 -49 -31 -43 -13 -4 -16 -23 -24 -27 -35 -18 -44 0
18 40 39 32 36 13 12 17 43 49 48 5 4 29 31 45 -1 -46 -38 -41 -20 -6 -50 -47 -33 -35 -19 -27 -26 -28 -21 -23 -42 -16 -25 -9 -44 -15 -22 0
46 11 25 49 22 44 8 15 21 32 47 3 1 37 42 36 13 12 29 6 43 33 19 48 -35 -28 -9 -31 -18 -30 -2 -14 -7 -16 -20 -26 -50 -27 -10 -34 -38 -5 -4 -41 0
28 4 26 19 22 42 9 16 12 21 39 31 47 15 7 13 32 27 -17 -3 -33 -8 -49 -36 -44 -2 -43 -6 -11 -14 -38 -34 -24 -37 -46 -45 0
6 12 16 20 15 7 48 10 29 5 30 11 50 3 42 -25 -45 -44 -40 -19 -2 -21 -27 -46 -4 -41 -33 -49 -22 -1 -9 -8 -28 -43 -31 -38 0
1 21 25 42 35 15 34 17 45 22 24 37 13 8 10 30 6 -9 -48 -7 -19 -14 -23 -33 -16 -18 -46 -29 -12 -40 -28 -11 -44 -43 0
17 13 12 28 11 27 35 23 24 -34 -30 -26 -31 -42 -19 -44 -14 -41 0
8 25 26 47 32 30 27 7 2 29 37 31 50 21 14 -13 -28 -18 -45 -43 -33 -39 -11 -3 -46 -49 -38 -15 -19 0
7 25 47 9 40 4 44 43 20 33 14 5 23 37 16 -32 -11 -28 -27 -38 -22 -1 -18 -10 -12 -48 -24 -29 -21 -35 -19 -15 0
44 26 28 48 12 -47 -38 -11 -29 0
9 38 11 34 2 10 20 15 35 25 45 23 12 5 19 -30 -17 -37 -4 -31 0
29 10 32 35 31 38 15 -9 -13 -1 -28 -42 -7 -19 0
1 47 13 43 2 5 9 11 10 48 20 39 42 22 8 26 19 6 32 7 4 49 46 50 -34 -38 -18 -30 -21 -16 -3 -41 -24 -45 -15 -28 -40 -23 -37 -27 -35 -12 -25 -14 0
15 35 11 2 42 29 41 18 12 9 1 33 4 44 10 27 -31 -17 -45 -22 -36 -5 -13 -47 -24 -25 -30 -40 -39 0
30 8 38 32 10 4 41 50 24 40 29 46 15 6 22 -44 -35 -14 -26 -28 -39 -42 -1 -25 -37 0
25 46 9 7 22 31 35 8 27 47 17 15 33 40 1 18 28 32 5 12 50 -43 -24 -21 -30 -48 -4 -23 -44 -3 -16 -45 -49 -26 -14 -13 -10 -19 -2 -42 -20 -38 -11 -29 -34 -36 -6 -37 0
38 24 14 -19 -39 -27 -3 -35 -34 -23 -43 -40 -33 0
18 28 26 19 17 45 25 -24 -9 -2 -29 -5 -6 -27 -21 -8 0
14 36 5 6 31 47 13 8 18 45 -43 -33 -28 -11 -4 -34 -20 -24 -49 -22 -26 -32 -41 0
46 45 26 17 30 18 23 28 14 41 5 15 33 42 47 6 8 39 13 21 43 34 24 44 38 37 -20 -11 -4 -25 -1 -12 -29 -40 -16 -3 -36 -7 -27 -9 0
42 9 7 19 38 16 26 6 32 8 24 30 18 34 20 1 10 3 14 5 33 40 13 -39 -28 -36 -48 -2 -47 -25 -37 -43 -29 -27 -12 -15 -50 -17 -41 -22 -23 -4 0
3 11 49 41 27 39 5 7 42 10 21 47 8 38 44 -2 -36 -30 -48 -33 -16 -26 -9 -18 0
50 23 35 48 45 4 40 15 43 16 37 39 8 -30 -31 -6 -25 0
49 31 4 17 40 1 22 37 41 19 28 46 21 3 -16 -29 -15 -30 -35 -26 -38 -5 -23 -6 -18 -7 -48 -20 -8 -50 0
39 40 45 35 27 38 5 15 12 22 6 36 37 18 14 41 -13 -44 -48 -34 -10 -3 -23 -49 0
30 11 32 23 21 26 37 46 -42 -41 -49 -29 -39 -19 -44 -8 0
46 -35 0
1 16 17 19 14 32 8 2 12 37 6 18 30 46 22 33 -48 -23 -38 -20 -4 -50 -9 -35 -7 -31 -3 -21 -11 -47 -39 -34 -24 -41 0
19 5 23 1 41 26 40 4 50 -46 -37 -8 -12 -27 -17 -10 -3 0
1 10 28 29 50 42 24 34 20 6 9 31 40 5 47 14 32 12 44 4 2 -35 -36 -48 -22 -43 -41 -7 -33 -19 -18 -13 -23 -16 -38 -37 -15 -17 -49 -8 -27 -30 -25 -39 -45 0
33 50 32 26 29 7 27 39 15 21 48 30 2 41 20 14 10 35 9 17 6 49 -24 -28 -1 -13 -42 -5 -47 -18 -31 -19 -25 -16 -45 -12 -38 -4 -8 -11 -43 -23 -46 -34 0
23 -47 0
49 8 6 19 15 34 13 1 42 4 26 2 20 44 25 7 39 -27 -47 -3 -10 -31 -21 -41 -37 -29 -36 -46 -22 -40 -30 -48 -32 0
1 18 47 27 8 31 25 3 26 5 29 48 11 9 38 2 10 12 43 34 7 37 42 33 39 32 16 -21 -13 -50 -19 -22 -46 -41 -24 -28 -6 -35 -4 -36 -15 -49 -30 -17 -45 -20 -44 -40 -23 0
44 26 6 47 11 37 25 21 -49 -39 -42 -45 -33 -38 -3 -14 -48 -41 -15 -22 -4 -34 -18 -27 -40 -32 -29 -28 -20 -17 -46 0
14 5 13 25 48 38 36 30 26 41 47 22 9 45 7 32 28 34 12 33 50 29 40 27 4 -6 -19 -10 -43 -16 -3 -8 -18 -20 -42 -11 -2 -39 -21 -49 -31 -15 -46 -17 -1 0
-13 0
24 29 17 15 50 23 11 31 45 20 14 25 32 38 21 28 5 47 35 16 2 4 1 -41 -7 -43 -37 -46 -18 -30 -40 -36 -13 -26 -39 -19 -27 -12 -48 -42 -49 -6 0
30 11 17 37 40 38 33 5 9 4 43 14 24 42 41 8 36 19 26 12 29 28 1 3 -46 -27 -18 -47 -23 -13 -44 -21 -2 -20 -39 -16 -6 -15 -34 -48 -32 -31 -10 -7 -22 -25 -45 0
35 39 0
34 20 6 33 41 4 31 25 12 13 37 7 10 24 46 19 32 15 21 17 40 44 49 18 50 27 -8 -48 -29 -38 -9 -22 -45 -43 -23 -14 -26 -36 -16 -5 -28 -30 -3 0
25 12 19 35 9 6 41 -47 -27 -1 -45 -13 -29 -36 -3 -18 0
21 26 27 23 25 36 48 30 33 -32 -2 -19 -15 -46 -38 -4 -35 -28 -5 -31 0
34 9 48 41 42 40 31 14 36 29 38 13 2 37 6 4 3 47 32 25 10 8 27 15 7 28 50 24 -23 -17 -43 -45 -46 -35 -39 -49 -5 -18 -21 -20 -11 -33 -12 -19 -26 -44 -30 -22 0
8 12 23 2 45 28 6 26 18 16 43 37 -27 -25 -34 -24 -4 -49 -29 -20 -31 -32 -40 -1 -22 -35 -14 -30 -50 -44 -17 -36 -42 -48 -15 0
10 38 6 9 13 11 -2 -23 -26 -25 -44 0
8 49 39 47 5 9 19 28 16 24 21 32 25 2 13 12 3 -42 -44 -36 -46 -17 -40 -26 -22 -4 -14 -6 -23 -7 -31 -15 -48 -43 0
44 21 25 39 20 27 37 40 33 47 45 3 19 24 6 1 8 31 13 16 42 12 10 23 29 2 -49 -11 -15 -43 -32 -34 -4 -50 -48 -41 -7 -35 -14 -46 -28 -38 -17 -5 0
1 50 33 9 24 21 19 44 26 -3 -28 -15 -41 -49 0
42 21 1 29 14 44 45 34 8 39 -15 -32 -16 -18 -37 -41 -5 -33 -9 -35 -38 -36 -43 -7 -40 -6 -25 -31 -17 -10 -47 0
48 40 8 31 -27 -7 -13 -14 -35 0
30 2 47 -23 -3 -18 -6 -26 -22 0
29 7 38 6 44 32 33 36 11 28 3 18 30 20 34 47 4 13 16 43 21 -40 -37 -22 -5 -39 -25 -12 -23 -27 -50 -31 -14 -26 0
20 48 44 13 32 31 42 37 36 11 7 33 40 6 1 -25 -10 -29 -28 -3 -49 -27 -15 -34 -19 -21 -35 -14 -23 -39 -5 -9 -12 -16 -41 -4 -17 -8 0
1 -44 0
29 11 32 27 3 47 -46 -25 -38 -23 -13 -8 -42 -44 -7 -19 -14 -35 -12 0
42 -13 -8 -17 -22 0
50 1 38 2 5 49 26 8 4 45 16 3 -44 -30 -31 -9 -23 -27 -40 -36 -6 -10 -48 -37 -19 -29 -15 -11 -24 0
19 37 43 50 18 29 39 20 26 12 3 40 42 33 15 13 41 14 16 48 9 -45 -27 -21 -10 -17 -7 -47 -38 -44 -25 -8 -34 -30 -6 -5 -36 -49 -1 -32 0
40 36 2 13 30 1 31 22 21 24 43 19 20 49 46 16 39 9 8 12 4 42 -11 -35 -10 -37 -29 -32 -15 -26 -38 -34 -3 -18 -6 -27 -45 -33 -44 -41 -28 0
25 1 -14 -31 0
9 11 34 23 17 40 41 38 21 37 -22 -10 -26 -12 -42 -36 0
43 6 9 21 49 45 37 22 50 29 27 20 26 39 34 46 31 3 38 23 28 47 48 24 -40 -11 -32 -44 -10 -41 -8 -4 -7 -42 -25 -13 -2 -30 -19 -1 -35 -5 -33 -36 -18 -17 -15 -12 0
41 23 40 50 19 10 6 37 42 36 15 -20 -7 -16 -13 -43 -49 -22 -14 -46 -11 -28 -18 -39 0
10 1 38 24 37 30 -44 -49 -34 -35 -5 -20 -14 -6 0
11 21 1 19 40 26 -29 -45 -44 -34 -22 -5 -30 0
31 7 16 21 49 10 27 19 48 47 34 35 32 9 28 38 -26 -33 -29 -13 -17 -15 -25 0
45 2 38 36 17 6 35 33 31 10 43 42 16 47 34 18 3 4 44 24 50 20 26 37 49 -22 -40 -28 -46 -25 -32 -29 -23 -15 -5 -7 -41 -9 -39 -19 -11 -48 -13 -30 -12 -21 -14 -8 0
4 35 7 45 29 28 -43 -25 -19 -42 0
41 2 7 24 39 10 49 22 16 4 46 -19 -35 -21 -23 -40 -26 -3 -12 -47 -50 -11 -36 -30 -25 -33 -34 -8 0
46 23 28 39 36 41 38 14 50 5 19 11 42 30 31 40 3 13 15 -26 -10 -25 -34 -43 -27 -12 -45 -24 -47 -49 -32 -48 -21 -9 -7 -1 -35 -22 -2 -20 -29 -18 -33 -16 -6 -44 0
4 38 48 46 29 6 25 19 45 32 47 10 40 13 44 33 -35 -2 -5 -42 -49 -34 -30 -7 -27 -43 0
-32 0
45 17 30 50 49 6 28 12 24 19 2 -29 -32 -8 -5 -46 -25 -20 -34 0
30 35 26 9 10 3 5 -14 -46 -25 -36 0
11 47 1 48 2 5 40 -25 -16 -22 -31 -13 -28 -20 -21 0
35 47 46 12 -18 -20 -25 -24 -32 0
19 18 1 33 50 41 35 14 8 40 10 31 49 43 2 3 -28 -30 -48 -20 -23 -22 -21 -17 -45 -11 -32 -25 -27 -15 -6 -7 -38 0
16 27 -32 -5 -9 -7 -44 -17 0
28 20 25 27 39 -33 -16 0
39 1 28 47 27 9 34 35 49 22 38 37 14 30 24 36 42 19 21 32 -11 -7 -4 -15 -12 -3 -16 -25 -5 -46 0
1 47 16 37 18 4 28 15 10 -43 -38 -17 -8 0
23 10 39 43 28 13 27 25 29 17 41 44 35 50 34 11 49 18 22 26 47 24 -37 -42 -6 -12 -21 -20 -1 -9 -2 -33 -30 -14 -15 -16 -46 -19 -3 -40 -32 -48 -45 0
39 1 34 43 12 24 38 2 35 27 32 41 45 42 37 29 3 14 26 -30 -6 -49 -4 -25 -21 -7 -28 -46 -19 -48 -10 -50 0
33 3 10 1 -15 -32 -17 -41 -28 -16 -40 0
42 37 32 34 -38 -4 -8 -35 0
40 11 22 46 8 50 15 7 44 -39 -21 -41 -33 -2 -49 -14 0
10 47 46 30 15 4 7 41 49 8 34 23 31 2 18 -35 -44 -24 -17 -5 -9 -22 -16 -6 -19 -32 0
39 30 6 14 22 47 7 33 34 8 -41 -19 -31 -50 -12 -2 -28 -49 -16 -32 0
3 28 50 25 12 -6 -32 -49 -36 -38 -11 -8 -1 -19 -13 0
30 14 46 1 44 6 26 36 33 5 45 2 41 8 32 17 -21 -38 -42 -48 -47 -28 -39 -15 -40 -25 -31 -16 -12 -9 -4 -18 -29 -34 -35 -20 -10 -37 -24 -7 -50 -43 -19 0
15 -29 -43 0
42 4 5 22 43 24 45 19 35 38 2 -30 -31 -25 -47 -29 -44 -50 -49 -17 -27 -48 -46 -16 -37 -39 -9 -13 0
24 45 -23 0
21 12 4 25 31 45 15 26 27 14 39 -2 -20 -32 -28 -48 -35 -17 -36 -42 -7 -11 -47 -24 -3 -34 -30 -1 0
13 31 14 32 34 17 35 18 3 33 26 9 42 40 36 21 39 11 50 -43 -7 -47 -4 -16 -46 -22 -29 -6 -20 -5 0
12 23 -1 0
50 23 43 2 6 49 8 38 30 7 31 33 29 42 34 37 22 -13 -41 -18 -19 -46 -11 -36 -27 -17 -9 -35 -14 -45 -20 -3 -15 -12 -40 -48 -39 -16 -25 -10 -32 -26 -24 -44 0
31 38 46 42 22 20 27 -16 -19 -28 -49 -41 -7 -13 -47 -10 0
18 6 49 16 -45 -48 -9 -20 0
24 22 13 19 47 4 3 36 21 16 30 37 46 5 25 38 11 17 8 33 39 -2 -28 -27 -20 -34 -10 -45 -40 -18 -50 -7 -49 -43 -32 -9 -42 -14 -29 -41 -26 -35 -31 -15 -6 -12 -1 -44 0
37 35 20 28 23 16 19 10 3 22 30 50 33 41 46 43 24 1 4 6 -47 -25 -18 -14 -38 -13 -31 -36 -2 -32 -12 -45 -21 -48 -34 -39 -17 -5 -44 -9 -11 0
1 18 48 -45 -15 0
41 13 1 6 -40 -28 -15 -5 -7 -30 0
-50 -10 -17 -29 0
8 44 23 -28 -35 -3 0
38 45 6 42 37 27 -31 -28 -9 -44 -11 -12 -21 -1 -32 0
48 50 47 24 4 30 6 19 41 25 31 1 5 3 7 39 18 2 17 14 46 26 23 -27 -49 -35 -8 -10 -15 -22 -28 -40 -11 -13 -34 -16 -44 -43 -32 0
28 44 4 20 14 6 19 18 25 27 7 43 11 40 8 30 -3 -34 -47 -29 -22 -2 -37 -21 -13 -45 -32 -35 -1 -10 -33 -17 0
1 14 18 30 21 46 29 4 44 13 8 33 35 50 10 -26 -49 -5 -27 -19 -39 -36 -37 -3 -40 -17 -11 -41 0
26 4 37 43 11 39 28 15 21 42 47 -9 -22 -16 -44 -3 -45 -30 -40 -24 0
16 38 14 11 34 31 39 46 35 10 5 50 17 20 1 23 27 47 9 19 36 49 18 42 21 30 43 8 24 -15 -12 -4 -6 -37 -41 -45 -13 -26 -7 -3 -33 -25 -32 -44 -48 -28 -22 -40 -29 0
24 44 22 50 23 28 31 46 25 36 8 43 39 20 17 49 30 33 2 21 14 9 10 5 27 4 38 -35 -11 -18 -29 -7 -19 -15 -37 -1 -48 -40 -26 -34 -32 -41 -45 -12 -3 -6 -42 -16 -13 0
10 48 44 26 25 43 46 16 -50 -28 -3 -17 -47 0
39 17 33 18 5 -6 -26 -2 -16 -25 -43 -47 0
12 39 23 44 40 26 18 8 41 4 45 -33 -46 -27 -31 -11 -21 -36 -15 -3 -17 -48 0
39 19 14 18 3 10 -30 -16 -47 -26 -35 -7 -46 0
28 9 21 32 22 18 14 33 10 6 17 11 26 16 37 44 49 43 -34 -5 -45 -24 -12 0
22 8 26 9 45 47 42 19 2 39 -24 -33 -44 -46 -40 -48 -38 -4 -15 0
3 18 -44 0
16 37 25 14 39 43 22 31 3 19 17 47 30 23 -18 -20 -26 -9 -35 -49 -24 -10 -29 -12 -1 -41 -34 -36 -28 -48 0
13 47 37 4 46 32 45 35 21 33 41 15 24 31 39 17 18 28 44 34 19 -26 -1 -50 -10 -3 -16 -43 -36 -8 -11 -48 -38 -27 -22 -20 -7 -23 -6 -5 -12 -2 -25 -29 -14 -40 -49 -30 0
11 34 15 -45 -22 -28 -38 -50 -7 0
18 24 25 17 5 33 31 41 -28 -38 -13 -47 -43 -46 -16 -48 -4 -32 -40 -29 -49 -39 -23 -37 0
41 49 27 31 48 18 5 -37 -50 -20 -2 -34 0
2 17 30 47 23 18 38 36 46 12 9 4 28 13 45 7 31 15 32 8 -33 -40 -41 -6 -43 -34 -10 -16 -5 -49 -35 -25 -19 -1 -50 -26 -21 -29 -24 -37 -27 -3 -42 0
15 23 11 32 46 3 14 27 40 29 30 26 43 20 21 4 28 -38 -44 -41 -19 -5 -39 -48 -16 -2 -36 0
8 4 41 17 5 32 14 38 10 16 19 33 25 29 9 45 35 47 42 -39 -27 -37 -31 -23 -34 -15 -18 -20 -30 -2 -24 -7 -6 -22 -21 -44 -36 -3 -1 0
10 9 12 -11 -20 -24 -5 -50 -6 -19 -43 0
8 26 39 10 28 45 1 19 41 43 40 30 14 27 24 31 49 16 -2 -5 -22 -7 -32 -37 -20 -3 -23 -29 -47 -11 -15 -17 -13 -46 -38 0
17 16 37 11 15 25 24 42 5 50 12 35 32 19 -39 -8 -46 -14 -29 -27 -48 -6 -47 -13 -20 -45 -3 -1 -41 -43 -2 -40 -34 0
24 17 11 7 8 10 19 45 16 3 40 23 36 25 30 26 21 -20 -49 -9 -22 -15 -47 -46 -41 -43 -32 -44 -39 -4 -31 -34 -28 -18 -14 -27 -29 -35 -12 -1 -50 0
15 43 32 16 6 14 7 11 29 -45 -10 -25 -50 -30 0
38 32 5 4 27 19 42 13 14 36 31 8 1 29 28 21 -23 -41 -18 -12 -20 -35 -34 -3 -47 -39 -2 -48 -33 -44 0
33 28 50 32 12 18 34 5 41 4 26 37 46 47 -38 -20 -48 -44 -8 -11 -30 -22 -42 -6 -24 -1 -9 -2 -43 -7 -16 -3 0
11 32 16 36 1 8 14 19 27 43 35 29 42 31 15 41 5 46 -40 -30 -25 -20 -37 -26 -18 -9 -23 -17 -3 -48 -21 -34 -2 -6 0
11 45 27 35 5 12 41 14 16 -44 -37 -19 -26 -3 -46 0
35 26 6 40 49 45 34 50 20 7 43 13 16 30 46 29 28 22 9 24 21 4 1 11 -3 -37 -36 -25 -2 -14 -5 -27 -17 -33 -41 -44 -31 -18 -42 -15 -39 -48 0
40 22 25 5 33 17 2 12 35 41 14 10 7 39 27 43 16 26 44 47 9 34 18 15 20 19 21 29 -6 -8 -32 -37 -3 -38 -42 -28 -4 -24 -49 -31 -48 -1 -50 -30 -23 -11 -13 -36 -45 0
3 24 18 50 15 9 40 47 43 25 8 17 13 10 29 33 30 -21 -39 -23 -7 -38 -26 -41 -28 -2 -49 -44 -46 -11 -12 -6 -32 -16 -20 -35 -1 0
15 46 6 48 49 37 28 26 7 1 45 -25 -36 -10 -11 -2 -12 -8 -23 -3 -29 0
32 31 17 41 -24 -14 -21 0
4 38 50 48 23 16 42 28 11 31 21 30 24 18 6 36 -26 -25 -44 -20 -19 -10 -15 -13 -12 -1 -40 -37 -49 -35 -7 -27 -5 -43 -32 -46 0
50 38 41 1 13 15 35 16 19 31 18 21 24 26 2 -43 -8 -47 -22 -40 -34 -28 -6 -39 -7 -17 -37 -5 -44 -46 -32 -45 -36 -30 -23 -27 -12 -10 0
45 25 9 27 50 47 5 24 26 11 46 20 18 35 30 10 37 36 3 43 39 33 32 40 4 44 -6 -15 -41 -21 -8 -1 -12 -13 -14 -31 -7 -28 -16 -34 -23 -48 0
4 -36 -5 0
23 50 38 4 18 9 6 35 45 10 12 39 21 31 49 7 20 36 1 -46 -28 -22 -27 -34 -44 -5 -30 -14 -24 -41 -40 -2 -15 -32 -8 -19 -42 -43 -16 -11 -17 0
34 36 32 5 33 40 28 39 35 48 41 12 17 22 50 37 3 20 -31 -43 -42 -49 -23 -18 -47 -2 -16 -13 -7 -25 0
31 22 43 32 35 27 49 39 18 47 29 7 21 28 -5 -6 -20 -10 -11 -26 -34 -37 -50 -12 -48 -25 -8 -46 -30 0
29 30 41 46 32 43 24 37 50 8 33 47 15 18 5 40 -2 -38 -34 -4 -10 -20 -16 -39 -49 -42 -6 -25 -27 -7 -36 -9 -48 -21 -11 0
37 23 32 4 13 -30 -20 -40 -10 -35 -8 -1 -36 -45 0
9 44 2 35 34 22 32 28 47 39 17 33 46 25 19 37 1 13 -48 -18 -50 -36 -30 -11 -31 -21 -3 -26 -14 -42 -29 -41 -20 -45 -24 -12 -23 -15 -4 -40 -8 -7 -10 -38 -43 -16 0
38 35 19 23 -40 -1 -9 -31 0
27 11 9 38 23 19 34 26 47 49 2 -29 -21 -28 -5 -50 -17 -41 -7 -42 -1 -48 -20 -8 0
25 24 39 44 28 1 26 46 48 16 22 45 49 15 -50 -9 -7 -38 -41 -37 -42 -32 -47 0
30 7 49 10 3 22 13 32 12 18 44 11 -6 -37 -2 -43 -24 0
9 17 13 33 14 24 45 31 2 39 5 8 25 18 -28 -1 -7 -6 -12 -36 -23 -32 -42 -21 -29 0
24 8 48 43 25 4 49 29 -44 -6 -19 -1 -28 -31 -46 -3 -30 -40 0
29 22 49 7 46 44 30 32 31 40 17 39 33 10 1 24 9 -47 -50 -19 -2 -8 -35 -25 -18 -26 -11 -5 -48 -3 -42 -37 -15 -23 -21 -6 -14 -43 -27 -28 -12 -45 -41 0
6 2 -5 -7 -4 0
10 4 23 14 50 19 29 22 -7 -8 -18 -48 -44 -3 -28 0
7 26 13 28 3 31 1 6 16 14 19 15 12 38 32 40 44 41 24 11 -50 -18 -49 -8 -42 -5 -45 -9 -39 -34 -30 -48 -36 -2 -29 -43 -46 -21 -35 -33 -4 -20 -25 -10 -37 -23 -47 -27 0
8 9 10 23 28 11 31 19 14 -35 -45 -50 -37 -46 -18 -47 0
14 26 12 2 46 -23 -11 0
25 15 36 2 9 38 45 -33 -42 -4 -34 -40 -21 -41 -1 -14 -30 0
35 21 3 8 33 14 15 5 24 27 11 44 28 12 10 19 9 22 18 40 32 4 20 29 30 -41 -37 -36 -23 -7 -6 -47 -1 -43 -26 -39 -45 -38 -31 -16 -42 -25 -49 -13 0
50 43 12 38 11 10 25 22 3 37 -20 -15 -44 -16 -1 -47 -2 -9 -29 -28 -42 0
42 11 31 46 16 10 23 44 15 26 43 32 20 2 47 28 -24 -41 -25 -39 -12 -29 -34 -45 -30 -17 -8 -27 -36 -50 0
3 9 5 1 34 35 41 15 27 37 36 30 22 10 20 11 29 45 23 48 -2 -40 -39 -13 -14 -6 -12 -25 -33 -32 -21 -42 -7 -44 -31 -43 -4 -50 -26 -38 -46 -17 -19 -18 0
30 28 32 16 50 5 40 19 38 9 37 39 22 31 24 6 -48 -1 -29 -12 -26 -18 -43 -46 -11 -7 -13 -47 -10 -2 -3 -45 -34 -20 0
36 14 16 28 3 7 18 1 42 27 48 13 22 25 2 11 43 -44 -35 -20 -45 -8 -49 -9 -32 -4 -50 -34 -5 -41 -26 -24 -19 -47 -29 -10 -33 -12 -15 0
45 17 34 20 43 29 42 18 16 19 37 10 15 5 11 1 12 33 -41 -25 -23 -6 -50 -2 -39 -35 -48 -46 -44 -27 -30 -7 -38 0
5 25 24 3 -20 -2 0
31 24 2 42 17 32 5 3 21 4 28 13 1 50 37 25 12 -18 -49 -46 -14 -39 -44 -7 0
2 45 -42 -8 -17 -10 -37 -38 -23 -47 -41 -14 0
5 -14 0
40 18 20 41 2 -28 -7 -29 -50 0
24 21 20 41 19 23 10 36 -18 -34 -25 -30 -33 -16 -26 -12 -27 0
1 15 13 49 25 29 41 23 8 28 22 12 42 18 27 33 3 19 -44 -30 -10 -48 -32 -16 -40 -35 -50 -20 -37 -9 -14 -43 -26 -17 -7 -47 -5 -6 -21 -38 -2 -24 0
42 8 3 12 13 49 29 21 25 16 27 15 41 24 9 -18 -1 -47 -20 -38 -26 -28 -7 -2 -50 -46 -17 -23 -4 -19 0
38 19 22 42 4 41 14 35 1 28 34 44 10 15 25 21 17 48 31 7 45 12 40 3 20 -50 -26 -30 -33 -29 -9 -5 -39 -8 -37 -47 -43 -46 -49 0
10 31 16 8 32 49 29 6 26 30 40 5 23 42 -15 -45 -34 -41 -35 -7 -48 -3 -11 -22 -33 -27 -37 0
20 29 30 14 28 38 2 42 24 12 21 39 41 1 22 -11 -3 -9 -16 -25 -17 -32 -27 -23 -26 -10 0
18 41 40 16 33 10 39 3 23 30 31 13 7 48 49 36 45 42 35 11 28 37 44 26 -2 -46 -50 -15 -43 -8 -29 -9 -14 -27 -25 -47 -38 -12 -32 -6 -1 0
44 43 26 29 30 6 32 8 45 38 11 35 40 5 36 19 -17 -4 -2 -31 -7 -13 -33 -48 -14 -1 -18 -50 -28 -42 -47 -24 -3 -39 -23 -22 -46 -21 0
5 25 28 31 39 15 6 12 10 38 40 34 48 46 20 17 33 -47 -18 -13 -42 -24 -3 -4 -32 -50 -36 -26 -16 -2 -29 -43 -27 -23 -41 -37 -9 -11 -14 -30 -49 -44 -45 0
38 3 43 19 49 36 2 33 34 24 48 50 46 16 11 7 45 9 1 47 17 -32 -44 -28 -13 -42 -39 -18 -4 -40 -35 -15 -26 -30 -14 -25 -20 -37 -10 -12 -8 -29 -5 -21 -31 -41 0
13 11 31 25 35 47 32 26 43 6 27 29 20 49 4 15 41 22 23 33 38 42 19 1 34 -48 -24 -12 -46 -10 -37 -17 -18 -50 -39 -36 -14 -40 -5 -28 -2 -9 -44 -3 -16 0
15 47 13 42 25 27 39 41 49 35 40 38 17 3 20 -4 -21 -28 -14 -30 -2 -24 -10 -18 -34 -5 -32 -37 -43 0
33 -38 -7 0
1 5 49 47 -19 -31 -3 -39 0
17 13 22 37 48 38 5 30 7 20 26 29 50 39 18 -16 -42 -33 -8 -43 -24 -2 -34 -41 -27 -3 -44 -28 -31 -36 -40 -1 -6 -47 -10 -49 -15 0
25 26 22 39 50 41 34 -7 -40 -9 -27 -30 -28 0
33 3 12 13 32 27 31 34 41 23 30 10 -28 -2 -7 -16 -20 -21 -50 -47 -36 -5 -18 0
46 2 1 31 28 44 9 5 24 3 48 35 30 -19 -10 -15 -23 -33 -16 -32 -29 -11 -41 -25 -6 -45 -21 -7 -17 -40 -38 -27 -39 -14 -47 0
46 28 8 40 13 48 32 22 41 27 50 11 1 9 30 34 45 14 21 36 6 49 38 3 16 4 47 24 -43 -18 -12 -17 -31 -2 -26 -42 -39 -20 -5 -7 -10 -35 -25 -23 -29 -44 -37 -19 0
47 29 26 10 38 5 48 31 2 8 19 -43 -44 -18 -49 -12 -22 0
42 36 41 20 10 6 39 49 34 23 32 13 35 11 30 46 5 50 2 33 -1 -16 -27 -29 -7 -44 -26 -22 -24 -45 -18 -38 -14 -37 -21 -43 -28 -9 -48 -47 -3 -15 -12 0
9 17 10 31 2 46 30 7 23 50 43 21 3 42 11 27 -47 -28 -19 -5 -40 -18 -8 -45 -33 -48 -16 -6 -39 -49 -38 -26 -12 -25 -22 -32 -29 -41 -4 -15 -37 -35 -44 -14 -20 -34 0
38 6 3 7 40 1 31 16 22 33 9 2 43 -10 -5 -18 -35 -29 -49 -30 -17 0
47 -21 -35 -30 -16 -26 -46 0
10 30 11 39 15 1 42 17 26 13 -32 -49 -18 -28 -38 -36 -48 0
17 -19 -10 -3 -9 -20 0
22 7 27 41 32 9 37 31 35 13 20 36 47 38 12 16 50 -28 -6 -8 -30 -5 -39 -14 -44 -33 -24 -11 -10 -17 -48 -18 -21 -15 -29 -23 -34 -46 -1 -26 -43 -19 -42 -4 -3 0
24 18 22 33 6 16 47 35 7 14 -31 -46 -45 -13 -25 -19 0
4 2 36 23 8 50 44 30 5 15 37 22 10 12 -38 -42 -16 -48 -29 -6 -43 -32 -33 -34 -21 -46 -18 -19 -40 -26 -47 -24 -45 -28 -3 0
36 48 25 46 38 19 26 1 32 42 6 16 5 27 40 35 49 28 31 -24 -43 -20 -37 -21 -30 -12 -10 -18 -14 -11 -29 -44 -13 -47 -7 -3 -2 -23 0
20 34 18 39 -3 -8 -19 -28 -1 -41 -26 -49 0
10 33 32 -36 0
15 50 8 34 47 25 28 4 -11 -39 -27 -37 -2 0
41 6 25 3 26 36 45 15 28 22 17 24 5 27 14 47 18 23 33 20 2 -19 -49 -34 -16 -44 -30 -4 -31 -11 -1 -13 -8 -38 0
30 47 6 15 29 19 45 9 36 46 -27 -39 -1 -14 -10 -32 -34 -7 -3 -21 0
37 38 6 12 22 10 29 3 16 19 31 -7 -2 -33 -23 -34 -36 -18 -40 -21 -1 -50 -48 -44 0
47 38 10 17 26 15 42 9 13 6 45 18 27 3 -33 -14 -34 0
16 26 8 13 37 38 35 3 21 44 -32 -29 -10 -7 -42 -2 -15 -22 -24 0
19 45 24 37 30 2 1 26 11 7 18 15 43 42 -4 -3 -38 -34 -14 -5 -39 -46 -13 -8 -41 -28 -50 -6 -9 -48 -36 -32 -40 -22 -23 -44 -47 -12 -35 -10 -33 0
3 10 39 20 21 15 4 41 7 49 -23 -36 -2 -50 -43 -11 0
3 39 6 25 38 10 4 36 41 12 48 21 -32 -14 -31 -44 -45 -20 -2 -37 -13 -7 -49 -30 -33 -17 -15 -1 -24 0
34 18 -9 0
24 30 34 35 25 23 42 6 44 18 48 37 28 47 7 31 10 11 8 -49 -9 -20 -19 -4 -15 -13 -2 -17 -41 -22 -27 -32 -3 0
26 36 17 6 -23 -16 0
9 42 3 -28 -35 -20 -38 -33 0
30 19 14 -27 -4 -50 -38 -22 -21 -10 -48 -11 -24 -16 0
17 37 5 10 49 36 23 26 32 45 38 20 33 48 28 25 1 35 -22 -34 -43 -15 -44 -14 -29 -30 -50 -27 -41 -42 -47 -11 -8 -21 -7 -24 -16 -31 0
25 32 -3 -29 -31 -22 0
15 7 49 19 45 26 1 40 25 8 9 34 11 29 -16 -33 -24 -10 -14 -21 -4 -44 -39 -27 -28 -18 -22 -48 -37 -41 -36 -46 0
50 -15 -46 -20 -3 0
37 11 26 -8 0
16 38 6 40 27 3 25 34 30 10 5 4 -15 -33 -49 -31 -44 -17 -47 -21 0
29 19 2 36 31 8 43 44 32 45 14 10 24 26 9 40 3 37 12 -16 -50 -23 -21 -39 -15 -11 -35 -48 -30 -13 -42 0
5 45 3 22 6 -19 -9 -41 -24 -20 -23 -38 0
47 -30 -48 -3 0
38 16 28 2 35 48 23 5 36 50 8 6 12 7 9 18 17 40 3 22 10 47 42 -13 -15 -14 -11 -37 -27 -19 -46 -33 -39 -30 -34 -45 -31 -20 -25 -49 -26 -21 -29 -32 -44 -4 -24 -1 -41 0
