c NeuroCodeBench 2.0 CNF formula with verdict Sat
p cnf 96 673
67 19 59 -88 -47 0
91 7 23 83 50 42 52 6 71 94 67 5 93 32 62 15 68 65 38 13 9 79 -66 -48 -82 -58 -10 -89 -28 -85 -8 -88 -12 0
29 93 66 96 74 28 1 47 67 92 10 62 85 16 2 37 45 48 51 57 50 8 18 58 31 70 32 53 20 43 22 65 91 9 76 -26 -3 -42 -82 -19 -25 -30 -34 -84 -83 -21 -94 -14 -24 -33 -27 -81 -44 -46 -59 -5 -90 -56 0
3 94 52 25 59 79 49 93 47 90 7 77 34 91 -37 -70 -71 -39 -72 -88 -58 -73 -45 -55 -42 -80 -63 -78 -69 -17 -56 -2 -38 -11 -44 -28 -50 -65 -36 -62 -23 -9 -24 -89 0
64 73 12 89 57 69 75 78 3 22 50 87 55 17 80 68 10 1 38 90 15 19 32 60 71 42 43 33 23 30 53 83 -79 -46 -86 -82 -16 -24 -13 -9 -58 -41 -6 -45 -81 -56 -85 -40 -54 -21 -70 -14 -26 -96 -4 -95 -61 -11 -35 -62 -37 -39 -67 -92 -36 -93 -2 -20 -7 -84 -48 -29 -49 -44 0
90 16 29 6 58 41 51 8 4 60 96 64 2 14 28 44 33 82 53 -13 -10 -73 -56 -48 -15 -47 -42 -26 -11 -19 -18 -79 -62 -37 -7 -21 -85 -93 -27 -77 -57 0
37 49 47 79 76 25 62 41 75 82 60 15 23 65 77 3 6 46 50 91 74 -63 -70 -86 -44 -95 -85 -16 -51 -81 -13 -90 -94 -96 -84 -87 -19 -71 -28 -33 -57 -72 -36 0
12 82 63 27 59 26 73 17 48 36 80 5 37 51 22 35 8 44 45 54 93 79 21 57 76 92 89 41 86 75 56 43 88 61 29 83 68 72 24 47 69 58 7 -6 -18 -32 -33 -3 -94 -70 -2 -39 -67 -81 -74 -42 -9 -78 -95 -23 -62 -14 -1 -13 -66 -85 -11 -38 -96 -52 -49 -60 -65 -30 0
95 46 61 37 5 35 29 2 11 1 6 27 3 49 65 12 67 60 23 62 91 33 39 84 73 77 63 26 28 14 21 79 -15 -86 -25 -83 -48 -90 -76 -74 -78 -54 -51 -52 -69 -92 -8 -53 -16 -58 -89 -72 -22 -45 -94 -17 -41 -64 -71 -42 -30 -31 -50 -56 -7 0
37 91 78 -6 -8 0
35 47 39 65 89 69 64 40 21 61 -25 -26 -36 -94 -43 -56 0
53 35 33 31 79 94 73 30 2 10 21 55 22 20 95 29 76 90 77 25 16 62 65 -86 -3 -70 -57 -88 -49 -1 -13 -54 -14 -91 -44 -93 -37 -5 -68 -12 -18 -38 -74 -40 -32 -60 0
51 92 22 36 13 85 82 3 8 49 81 43 69 25 4 94 84 54 -5 -31 -63 -50 -77 -42 -24 -15 -87 0
78 7 10 80 20 4 84 25 70 76 72 2 37 94 59 14 67 87 -28 -40 -89 -1 -66 -24 -41 -9 -92 -19 -95 -26 -32 -16 -39 -35 -73 -52 -60 -93 0
16 35 51 57 36 48 73 59 62 23 -26 -38 -94 -83 -52 -2 -41 -63 -78 0
44 68 26 86 91 28 9 74 24 58 90 49 16 38 87 66 67 46 40 64 30 92 43 6 61 62 7 14 3 77 71 48 42 45 89 59 79 56 39 4 20 11 96 93 12 54 18 51 63 -29 -41 -81 -25 -23 -53 -17 -13 -32 -5 -82 -22 -33 -8 -2 -52 -50 -73 -65 -75 -10 -31 -21 -47 -70 -78 -88 -15 -69 -35 -57 -94 -84 -36 -34 -85 -19 -80 -37 -83 -76 -60 -72 -95 -1 -27 0
41 83 82 7 66 91 74 76 32 88 39 11 94 31 38 93 55 -25 -23 -96 -43 -49 -92 -54 -47 -65 -28 -3 -87 -24 -6 -10 -71 -72 -17 -81 -12 -29 0
1 87 4 44 20 84 75 92 7 26 28 68 94 31 89 41 69 53 24 96 -42 -73 -90 -40 -55 -5 -77 -46 -6 -34 -2 -80 -65 -62 -66 -25 -45 -37 -43 0
33 20 62 64 31 39 27 5 55 -18 -21 -86 -70 -61 -83 -26 -84 -8 -95 -10 -91 -49 -28 -35 0
55 26 49 76 77 36 7 3 19 16 35 13 65 -88 -74 -38 -33 -18 0
22 48 41 95 56 17 79 35 69 7 76 -37 -28 -40 -57 -94 -30 -64 -5 -77 -13 0
68 88 96 89 50 29 80 39 60 24 85 83 53 57 -71 -37 -93 -21 -46 -5 -82 -12 -78 -79 -30 -3 -84 -4 -9 -25 -14 -65 -94 -20 -64 -16 -75 -76 -41 0
85 62 88 70 82 33 22 81 52 48 16 42 65 87 5 56 34 93 30 24 91 84 1 13 10 89 69 29 3 71 -45 -18 -67 -86 -54 -80 -26 -32 -35 -49 -14 -36 -58 -19 -7 -90 -72 -74 -57 -66 -79 -60 -12 -11 -38 -68 -40 -27 -63 -6 -31 0
79 68 23 46 84 5 28 18 93 73 45 53 71 39 55 81 85 83 20 58 92 22 47 24 38 13 86 50 95 27 64 89 14 69 87 60 11 74 7 19 -91 -16 -59 -4 -49 -41 -32 -33 -12 -2 -78 -70 -66 -63 -80 -48 -52 -34 -31 -82 -17 -36 -30 -43 -76 -35 -3 -62 -26 -67 -44 -54 -94 -65 -88 -25 0
60 93 38 82 45 67 68 90 52 96 36 22 14 62 18 69 85 83 -27 -35 -95 -77 -63 -30 -53 -74 -84 -21 -17 -11 -48 0
45 83 74 92 15 43 84 54 96 32 89 31 1 42 80 2 51 4 35 64 18 -40 -94 -60 -16 -10 -81 -66 -19 -39 -21 -5 -57 -7 -26 -6 -13 -48 -68 -36 -86 -55 -34 -78 0
37 2 31 90 20 58 95 14 75 64 46 73 66 6 23 47 85 4 -36 -89 -34 -25 -5 -67 -92 -29 -57 -32 -56 -87 -69 -1 -33 -52 -43 -48 -18 -81 -65 0
79 74 43 3 80 66 16 2 30 11 75 45 5 26 81 19 39 22 92 17 20 54 96 12 31 67 78 -29 -76 -59 -6 -41 -95 -42 -56 -44 -63 -77 -65 -69 -47 -70 -62 -50 -14 -49 -84 -1 -93 -87 -9 -46 -61 0
87 72 78 37 52 96 83 1 3 91 59 82 61 76 48 68 77 34 18 47 54 27 31 28 63 85 41 42 38 70 14 90 5 4 15 30 23 7 17 57 67 58 49 6 46 33 9 25 -36 -20 -40 -32 -92 -26 -84 -39 -62 -51 -21 -35 -64 -44 -45 -43 -71 -94 -53 -79 -74 -93 -88 -95 -10 -75 -2 -55 -66 -12 -81 -22 -73 -86 -16 -24 -69 -11 -19 0
61 71 48 52 92 53 79 4 32 14 28 57 72 70 34 26 37 59 82 65 15 91 27 42 8 51 63 11 6 75 21 13 20 -83 -62 -33 -41 -77 -9 -96 -64 -56 -74 -43 -45 -81 -12 -7 -5 -30 -47 -16 -76 -88 -2 -46 -49 -23 -90 -60 -44 -25 -50 -17 -84 -1 -19 -69 -85 0
96 78 88 7 64 74 41 92 17 13 34 52 65 19 68 94 45 33 80 53 3 28 20 55 27 77 11 71 40 46 95 50 5 26 84 90 39 36 10 -9 -14 -44 -35 -1 -72 -81 -15 -86 -25 -82 -60 -23 -69 -22 -87 -57 -48 -54 -4 -49 -67 -93 -79 -75 -91 -37 -6 -21 -73 -32 -42 -51 -8 0
23 83 85 22 -59 -53 -92 0
86 37 16 6 66 27 64 60 43 92 74 33 77 69 29 87 71 30 63 44 80 2 10 21 57 5 13 56 95 19 67 22 17 47 -79 -75 -3 -55 -1 -34 -49 -28 -14 -81 -31 -93 -50 -84 -18 -45 -85 -48 -25 -32 -58 0
22 16 54 91 26 69 85 95 65 37 57 1 3 44 34 75 67 5 46 52 50 6 48 18 35 92 15 93 58 43 90 53 84 38 71 30 10 31 39 13 83 42 -72 -96 -64 -11 -70 -24 -86 -80 -78 -28 -77 -88 -66 -79 -55 -51 -82 -9 -36 -4 -62 -14 -47 -23 -61 -12 -19 -25 0
21 27 96 79 9 86 65 56 16 73 60 28 41 64 24 52 23 45 13 55 31 89 68 72 53 93 17 29 22 90 5 15 91 34 70 39 32 62 8 30 3 25 10 58 81 6 43 -51 -11 -44 -61 -14 -66 -18 -71 -1 -2 -12 -40 -92 -77 -35 -26 -78 -38 -63 -46 -69 -48 -80 -47 -76 -59 -88 -36 -82 -33 -42 -94 -37 -67 -20 -7 -95 -4 0
36 17 57 88 82 68 49 53 46 48 75 42 61 47 65 43 31 77 60 5 16 34 50 63 67 62 79 66 2 8 14 22 52 95 90 32 94 71 21 35 -6 -39 -7 -25 -23 -4 -73 -12 -45 -18 -81 -54 -13 -93 -64 -3 -1 -41 -58 -11 -30 -20 -89 -29 -84 -96 -19 -27 -70 -85 -59 -15 -37 -38 -87 0
62 55 74 15 89 30 47 23 60 26 -46 -4 -91 -1 -82 -85 -27 -95 -65 0
68 52 87 11 -12 -13 -42 -54 0
86 47 13 93 1 29 80 11 4 17 88 32 73 85 2 71 39 63 23 67 77 6 83 56 24 25 58 3 76 44 74 65 38 41 79 75 61 90 53 82 36 14 37 -95 -72 -52 -78 -45 -31 -68 -21 -40 -26 -94 -46 -33 -81 -50 -91 -22 -62 -89 -48 -16 -69 -19 -92 -66 -49 -57 -10 -54 -70 -27 -43 -15 -28 -34 -84 -60 -64 -18 -59 -51 -12 -55 -35 -96 -8 -30 -87 -9 0
21 77 80 40 69 78 64 22 33 51 26 52 34 88 82 1 -61 -16 -10 -15 -31 -95 -3 -70 -86 -65 -58 -68 -43 -35 -42 0
72 53 78 35 37 58 12 64 11 4 34 16 7 63 -57 -8 -36 -55 -88 -14 -92 -19 -93 -43 -42 -70 -23 -25 -67 -44 0
68 32 77 -25 -66 -19 -7 -64 -3 -51 0
55 60 46 47 83 94 71 62 8 64 78 9 28 37 82 58 17 21 34 87 16 18 26 1 5 75 69 35 43 76 -61 -95 -38 -89 -90 -88 -56 -52 -15 -7 -24 -74 -80 -29 -2 -49 -10 -54 -72 -70 -25 -57 -93 -42 -65 -23 -11 -3 -6 -41 -19 -39 -32 -66 -84 -27 -59 -20 -13 -86 -79 -81 -96 -67 0
60 9 69 25 59 8 61 83 79 96 39 53 43 88 12 70 84 37 21 7 90 71 13 91 52 76 6 94 42 67 18 32 48 57 51 5 62 10 28 29 24 3 45 93 56 89 23 74 47 30 27 26 58 16 -50 -22 -75 -33 -49 -31 -73 -85 -63 -36 -11 -78 -80 -14 -55 -2 -65 -46 -72 -66 -77 -15 -35 -81 -64 -34 -19 -54 -86 -4 -68 -38 -1 -40 -17 -92 -87 -20 -82 -41 -44 0
8 10 15 51 70 92 50 63 90 16 76 27 52 26 74 1 22 2 18 31 30 77 17 57 7 25 53 49 -47 -79 -78 -40 -95 -56 -28 -39 -96 -67 -43 -80 -69 -24 -3 -62 -60 -20 -91 -58 -9 -42 -66 -71 -5 -94 -45 0
35 63 1 31 69 66 16 20 24 9 3 19 84 15 95 53 41 33 40 36 43 81 82 32 55 58 8 60 78 76 90 27 12 61 13 64 48 22 30 25 14 92 91 10 46 51 57 72 87 75 17 2 54 -62 -47 -52 -79 -83 -42 -68 -59 -85 -7 -23 -56 -71 -21 -88 -45 -49 -89 -37 -5 -6 -73 -50 -44 -65 -18 -4 -67 -74 -39 -86 -77 -34 -38 -28 -94 0
15 62 35 67 13 1 56 53 49 88 52 19 10 44 45 46 59 -34 -92 -94 -84 -72 -76 -63 -18 -11 -2 -86 -39 -17 -65 -50 -85 -61 -71 -30 -31 -93 -51 0
18 28 57 68 50 96 -52 -53 -94 0
19 30 37 52 77 91 40 35 22 8 12 16 47 88 60 -92 -85 -57 -87 -79 -49 -70 -71 -14 -80 -73 0
67 7 90 43 68 52 83 38 15 36 59 12 2 18 51 39 29 14 3 34 22 32 73 93 91 35 65 41 30 -28 -49 -31 -85 -56 -6 -64 -45 -13 -24 -19 -11 -4 -26 -84 -50 -57 -5 -55 -82 -94 -1 -74 -25 -79 -16 -95 -20 -21 -27 -53 -70 -63 -46 -72 -42 -62 0
32 46 35 -51 0
83 74 1 43 38 13 18 75 55 4 29 41 51 58 62 93 40 35 90 65 57 24 30 59 92 47 20 95 61 34 12 22 67 78 46 3 33 45 -27 -26 -14 -66 -7 -39 -16 -6 -15 -2 -71 -91 -60 -52 -9 -36 -64 -70 -44 -48 -86 -5 -17 -82 -19 -69 -84 -89 -81 -10 -8 -68 -32 0
67 61 83 82 46 24 65 31 16 71 51 43 3 59 12 5 73 53 68 87 75 27 -33 -39 -29 -96 -7 -35 -50 -74 -56 -15 -41 -28 -72 -90 0
27 95 72 5 70 90 61 77 2 82 43 32 59 50 68 69 38 80 94 91 76 58 54 66 46 52 14 74 23 26 20 51 73 16 29 3 48 31 89 67 41 39 63 -71 -1 -93 -35 -81 -30 -15 -79 -7 -53 -19 -44 -88 -96 -78 -33 -45 -47 -25 -9 -56 -24 -17 -85 -40 -12 -64 -87 -37 -83 -28 -60 -84 -62 -55 -11 -8 0
40 51 68 6 1 24 5 25 88 66 76 28 4 72 60 74 12 69 18 34 8 44 67 37 83 59 58 46 53 -50 -32 -95 -36 -54 -91 -47 -94 -65 -22 -39 -27 -63 -43 -90 -35 -31 -78 -16 -70 -73 -26 -2 -57 -86 -13 -48 -87 0
57 53 33 59 82 65 42 58 -46 -87 -21 -88 -19 -76 -73 -13 -75 -27 -90 -52 -85 0
52 86 32 72 26 27 75 6 25 92 44 51 8 81 38 -35 -74 -58 -17 -11 -31 -59 -34 -40 -93 -79 -61 -18 -1 0
64 36 51 6 37 31 50 71 40 18 7 15 16 27 2 70 1 34 59 -33 -17 -56 -19 -61 -22 -26 -77 -54 -3 -66 -60 -72 -10 -80 -4 -32 -87 -95 -81 -30 -55 -43 -68 -35 0
80 77 46 54 12 -51 -69 -87 -30 0
70 69 78 11 25 30 85 9 63 60 74 38 95 58 75 19 94 90 36 35 29 66 62 72 84 59 92 49 83 43 -55 -8 -40 -53 -45 -33 -21 -15 -14 -4 -39 -31 -20 -91 -28 -32 -22 -54 -76 -6 -13 -47 -10 -46 0
33 31 59 43 7 73 96 56 45 14 35 89 76 32 -22 -15 -84 -88 -94 -66 -92 -57 -85 -12 -13 -20 -23 -6 -63 -19 -87 -67 -28 -62 -10 -72 -42 -2 -46 0
36 21 50 9 27 44 43 51 22 66 11 62 33 78 96 58 70 6 29 92 40 4 41 18 45 39 82 28 91 63 67 23 95 -48 -42 -2 -34 -64 -88 -7 -38 -80 -89 -75 -72 -52 -17 -10 -54 -14 -71 -32 -26 -16 -8 -53 -30 -47 -15 0
66 49 11 75 9 56 82 29 90 43 13 -51 -65 -87 -19 -14 -46 -63 -89 -59 -80 -36 0
22 12 42 80 45 21 46 44 51 15 23 54 33 52 48 69 73 89 55 82 3 8 57 19 37 78 87 84 75 63 64 56 70 34 17 88 -62 -20 -79 -94 -16 -72 -60 -35 -11 -32 -25 -30 -53 -61 -47 -91 -13 -96 -9 -86 -43 -38 -4 -10 -92 -85 -68 -74 -41 -66 -40 0
47 78 67 26 95 39 93 28 82 29 87 79 44 72 45 75 68 70 57 -76 -6 -22 -71 -12 -56 -1 -9 -8 -61 -42 -24 -53 -92 0
3 4 5 67 19 85 15 8 33 63 22 55 60 56 9 -18 -29 -80 -77 -58 -64 -73 -57 -43 -42 0
94 41 65 49 77 72 38 16 78 20 88 27 34 85 87 15 57 26 84 37 74 86 40 17 14 46 56 -92 -9 -43 -31 -25 -11 -90 -54 -39 -5 -67 -95 -47 -33 -83 -59 -93 -23 -81 -22 -70 -51 -4 -28 -6 -24 -82 -12 -55 -66 -30 -2 -71 -1 -61 -63 -36 0
11 91 82 64 93 46 60 48 7 31 45 95 43 6 20 18 13 68 23 70 41 34 94 1 69 56 10 55 39 53 32 58 16 29 65 85 90 83 21 9 81 84 -72 -92 -74 -59 -86 -51 -44 -67 -2 -88 -17 -73 -79 -22 -36 -15 -3 -33 -96 -75 -76 -63 -42 -50 -49 -62 -8 -87 -26 -12 -14 -66 0
85 58 47 23 -62 -25 0
5 57 60 20 41 52 36 95 61 15 55 70 85 49 40 81 37 88 11 46 42 26 2 51 96 10 21 76 38 32 63 93 68 73 39 74 6 50 30 78 47 59 14 27 -8 -84 -9 -65 -13 -44 -56 -18 -34 -7 -58 -45 -12 -89 -33 -25 -94 -90 -16 -23 -67 -80 -62 -19 -92 -43 -83 -29 -75 -22 -31 -35 -71 -64 -53 -86 -24 -17 -79 -91 -77 -72 -54 -1 -4 0
66 95 21 49 77 23 37 83 80 54 70 61 85 47 91 17 12 88 20 13 96 32 64 33 84 53 24 57 2 59 65 31 15 -42 -14 -62 -35 -45 -94 -51 -92 -34 -8 -4 -36 -67 -46 -56 -52 -79 -11 -1 -41 -26 -76 -93 -22 -48 -72 -86 -39 -63 0
36 72 21 69 22 80 93 42 -17 -73 -9 -48 -56 -67 0
69 68 -32 0
72 18 40 59 77 14 82 87 71 68 8 28 63 3 92 95 94 43 35 13 96 88 79 36 21 80 57 37 54 44 6 81 50 30 53 61 65 48 10 25 45 -24 -56 -39 -49 -27 -19 -74 -62 -16 -4 -33 -91 -34 -41 -78 -83 -85 -60 -5 -73 -31 -90 -11 -7 -51 -26 -17 -52 -64 -75 -69 -9 -67 -58 -23 -70 0
86 45 9 26 38 51 93 23 10 29 70 53 95 20 96 15 67 60 24 44 80 58 75 83 66 50 78 73 14 47 40 22 82 77 3 21 41 52 11 85 6 -94 -16 -64 -55 -33 -43 -57 -37 -1 -13 -36 -74 -19 -81 -35 -39 -7 -89 -88 -92 -56 -42 -48 -72 -76 -4 -25 -61 -34 -65 -69 -91 -90 -62 -32 -59 -2 -54 -17 -84 -49 -31 -46 -68 -5 -18 -12 0
85 64 -12 0
40 12 90 8 22 26 41 77 17 19 56 35 52 47 68 57 76 48 91 92 38 21 94 46 96 23 13 67 83 80 89 65 85 39 34 69 55 82 66 6 4 79 30 10 37 59 15 24 -31 -1 -18 -88 -11 -45 -43 -44 -9 -87 -33 -58 -95 -61 -16 -28 -49 -74 -73 -64 -60 -84 -42 -5 -54 -93 -27 -86 -36 -75 -78 -70 -25 -50 -14 -53 -32 -7 -63 -51 -71 -29 -81 -62 0
78 58 71 50 55 77 19 65 5 46 28 11 51 40 52 27 82 43 1 57 70 91 45 2 59 53 64 33 67 -35 -83 -89 -68 -18 -3 -36 -62 -37 -93 -24 -20 -42 -38 -44 -49 -85 0
61 15 13 -46 -79 -33 0
64 24 34 1 90 44 62 71 93 68 78 52 12 11 38 74 86 3 53 87 26 19 15 70 20 43 82 45 50 46 4 61 2 14 83 30 6 73 5 94 41 48 36 10 13 77 -17 -67 -69 -40 -66 -85 -42 -23 -22 -58 -16 -55 -7 -63 -76 -33 -39 -29 -72 -80 -60 -28 -27 -47 -31 -59 -35 -96 -91 -25 -49 -9 -54 -8 -18 -79 -95 -21 -37 -56 -84 -51 -89 -92 0
13 40 1 61 57 93 58 37 63 -23 -19 -86 -95 -24 -82 -4 -50 -81 -14 -85 -70 -18 -55 0
15 43 17 12 29 86 80 20 48 57 62 95 -28 -71 -87 -38 -30 -2 -46 -93 0
36 39 2 44 80 50 95 1 19 38 52 40 7 58 42 35 78 9 83 18 43 41 6 27 73 28 56 -46 -94 -37 -5 -91 -65 -77 -32 -64 -15 -85 -79 -86 -8 -48 -82 -87 -54 -12 -70 -71 -89 -75 -92 -74 -59 -90 -11 -21 -57 -26 -81 -66 -4 0
92 21 10 56 2 67 20 23 94 96 37 48 76 5 27 16 52 88 46 32 41 47 35 44 66 45 28 25 73 38 12 15 95 68 70 63 57 36 90 82 3 51 81 29 26 4 40 75 24 14 -69 -65 -78 -7 -31 -18 -72 -60 -79 -74 -71 -86 -22 -59 -61 -34 -93 -83 -62 -9 -1 -87 -85 -54 -6 -33 -11 -77 -55 -84 -64 -91 -17 -53 -49 -43 -30 -19 -58 -8 -42 0
59 50 24 12 15 33 22 10 90 39 89 58 76 63 28 36 85 82 71 11 14 43 88 47 66 45 20 5 6 17 56 95 19 37 -32 -53 -30 -40 -27 -9 -21 -52 -68 -65 -74 -77 -96 -23 -55 -1 -79 -54 -67 -48 -16 -75 -46 -49 -69 -86 -73 -18 -31 -62 -70 -93 -92 -83 -78 0
18 89 33 66 25 7 76 48 54 11 16 49 50 35 96 93 15 41 29 64 77 74 46 2 73 94 67 79 72 88 -14 -26 -71 -63 -19 -45 -1 -81 -58 -92 -91 -12 -65 -39 -78 -61 -28 0
14 15 33 86 53 12 48 36 51 62 88 69 4 31 18 70 56 61 66 43 34 72 1 7 39 16 84 2 82 8 68 89 13 94 95 78 3 91 -49 -75 -57 -10 -41 -42 -87 -80 -27 -64 -11 -38 -73 -45 -52 -9 -79 -50 -23 -55 -37 -77 -47 -74 -54 -21 -67 -32 0
87 44 67 84 17 18 47 71 23 85 35 14 5 68 92 48 45 15 59 21 26 41 64 19 74 49 42 -94 -83 -36 -29 -6 -2 -1 -9 -46 -90 -77 -10 -53 -58 -75 -73 -31 -30 -86 -33 -24 -65 -34 -62 -52 -57 -61 -66 -40 -7 -80 -27 -91 -11 -55 -22 -20 -50 0
84 7 26 72 59 67 1 10 4 3 57 48 2 8 43 75 61 50 -36 -31 -49 -11 -64 -40 -32 -44 -18 -22 -42 -47 -20 -88 -93 -30 -68 -38 -13 -86 -9 -87 -23 -19 -76 -65 -52 0
71 48 49 58 42 51 62 4 66 45 10 60 69 -28 -64 -52 -96 -87 -72 -43 -82 -22 -57 -3 -24 -26 -27 -13 -40 -61 -67 -47 -2 -55 0
63 30 51 52 73 1 82 74 48 3 88 60 18 44 33 11 -14 -67 -15 -7 -78 -91 -54 -77 -62 -59 -56 -55 -26 -9 -90 -45 -85 -27 -46 -80 0
53 91 1 5 11 57 61 60 21 64 92 80 22 27 88 3 16 15 55 47 24 59 33 62 67 -65 -93 -69 -76 -40 -43 -36 -52 -48 -41 -49 -78 -8 -28 -23 -18 -26 -13 -86 -51 -25 -4 -72 -37 -17 -50 -10 -32 -70 -96 -66 -6 -54 -89 -56 -39 -74 -2 -58 -73 -31 -38 -71 -44 -85 -9 -19 -12 -63 -30 -34 -7 -95 -46 -79 -45 -87 -83 -35 -75 -94 0
63 1 2 -66 -38 -58 -29 -35 -34 -39 -48 -18 -7 -11 0
77 64 41 74 34 48 15 36 72 88 10 38 30 69 40 7 1 96 53 12 45 87 95 60 18 39 71 27 32 44 33 90 17 31 51 -89 -46 -57 -62 -81 -73 -93 -8 -61 -24 -55 -52 -58 -85 -3 -5 -22 -47 -6 -23 -91 -49 -19 -59 -63 -37 -11 -56 -80 -86 -43 -78 -4 -84 -2 0
86 29 69 63 49 67 60 19 30 11 45 15 16 20 3 44 77 55 39 83 34 -75 -53 -72 -56 -50 -59 -43 -10 -35 -36 -95 -13 -47 -14 -24 -66 -65 -58 -21 -80 -93 -1 -78 -90 -73 -68 0
69 45 92 14 91 80 3 71 18 12 27 90 64 39 51 85 43 50 1 52 93 66 16 61 49 11 21 33 25 42 57 10 62 29 54 5 20 24 40 23 82 47 13 9 65 -53 -75 -87 -6 -22 -84 -35 -70 -59 -4 -74 -56 -72 -26 -76 -88 -15 -34 -28 -17 -55 -8 -32 -38 -86 -63 -37 -89 -46 -94 -68 -83 -36 -77 -44 -67 -79 -2 -31 -73 -95 -58 -7 -41 -48 -81 -78 -96 -19 0
77 62 80 44 28 11 83 35 9 18 67 93 40 37 12 33 34 66 85 7 96 69 4 16 88 55 2 20 50 68 63 51 60 76 6 5 42 64 23 89 74 -41 -87 -49 -17 -72 -25 -31 -36 -46 -71 -61 -27 -32 -65 -19 -86 -70 -26 -15 -48 -91 -73 -94 -24 -59 -82 -29 -56 -81 -75 -47 -52 -3 -53 -45 -58 -1 -22 -10 -39 -13 -14 -84 -57 0
81 75 24 1 35 41 52 44 4 38 85 43 84 16 94 14 59 20 9 92 11 2 3 64 47 68 71 12 5 74 48 86 27 42 40 91 30 90 79 10 39 72 83 88 8 -54 -62 -19 -17 -76 -51 -22 -82 -67 -23 -36 -63 -46 -50 -25 -96 -49 -61 -21 -34 -60 -87 -26 -95 -69 -37 -70 -53 -32 -80 -58 -78 -66 -28 -13 -57 -7 -18 -33 -89 -65 -31 -45 -6 0
12 10 13 48 42 11 79 21 63 84 25 15 56 54 91 50 32 36 14 19 16 65 40 2 85 77 58 93 22 68 88 69 4 78 67 94 57 51 1 -9 -41 -76 -61 -31 -46 -26 -83 -86 -90 -81 -3 -62 -60 -6 -43 -66 -38 -71 -92 -24 -39 -59 -28 -87 -29 -74 -47 -20 -33 -18 -52 -49 -37 -17 -8 -45 -95 -70 -80 -53 -30 -73 -96 0
28 51 36 63 94 20 23 96 27 54 8 91 15 18 22 79 71 60 25 64 58 5 81 35 3 93 90 6 21 44 73 32 17 57 46 50 9 52 65 4 62 -68 -74 -53 -48 -82 -19 -16 -67 -40 -86 -80 -43 -45 -41 -70 -2 -42 -88 -78 -92 -12 -55 -59 -75 -95 -11 -72 -13 -66 -89 -38 -87 -61 -39 -24 -31 -77 -84 -76 -30 -1 -69 -85 -49 -47 -56 0
84 17 87 36 78 90 52 4 56 81 91 13 46 82 33 75 44 1 66 53 85 35 31 18 39 27 89 38 20 28 51 19 5 93 64 15 37 59 10 73 49 26 -22 -7 -74 -96 -76 -48 -29 -62 -45 -40 -24 -16 -23 -41 -92 -55 -80 -57 -9 -42 -79 -8 -21 -63 -61 -65 -83 -95 -14 -70 -34 0
18 2 44 1 22 3 67 93 31 43 70 32 78 77 39 81 26 29 51 73 57 74 33 28 75 7 24 35 -60 -55 -68 -17 -53 -10 -69 -9 -63 -72 -47 -71 -37 -88 -45 -25 -95 -91 -52 -83 -46 -40 -82 -96 0
48 56 82 76 95 45 50 41 34 84 49 47 7 26 53 33 51 12 80 69 63 -83 -20 -62 -39 -42 -81 -87 -85 -5 -9 -94 -6 -23 -19 -78 -4 -54 -17 -96 -25 0
37 96 80 28 6 77 84 53 45 5 2 27 52 57 41 35 72 17 66 90 24 93 11 68 81 60 40 4 34 71 62 58 22 61 10 95 14 54 32 78 82 89 16 70 39 -64 -74 -73 -30 -15 -1 -18 -21 -59 -12 -26 -44 -49 -87 -38 -75 -7 -31 -36 -23 -69 -86 -13 -85 -25 -48 -83 -50 -67 -65 -55 -47 -19 -29 0
71 91 62 87 69 45 82 60 35 65 21 80 75 54 43 11 28 31 95 24 -37 -7 -57 -3 -25 -6 -14 -46 -9 -42 -88 -2 -19 -93 -58 -5 -23 -48 -68 -59 -44 -20 -29 -67 -38 -96 -22 -53 -40 -33 -51 -84 -55 -17 -41 -81 -74 -8 -72 -10 0
12 76 20 5 32 92 53 29 19 75 52 47 23 24 21 49 64 56 90 42 16 60 65 3 1 94 -74 -18 -54 -79 -77 -87 -67 -78 -2 -58 -22 -71 -57 -85 -26 -27 -37 -89 -50 -14 0
62 72 89 67 53 15 48 12 41 4 14 20 29 10 95 18 77 28 -56 -75 -85 -6 -78 -46 -68 -38 -33 -51 -37 -70 -54 -81 -63 -64 -91 -94 0
32 66 79 41 77 83 52 -13 -35 -80 -75 -64 -55 -74 -39 -33 -29 -57 0
21 7 13 58 19 42 11 30 82 23 79 15 2 43 14 61 66 10 69 54 88 38 55 77 41 47 1 73 39 75 51 52 95 36 24 -49 -89 -12 -67 -76 -81 -94 -16 -86 -18 -29 -6 -4 -53 -78 -35 -34 -25 -31 -59 -87 -44 -68 -60 -46 -57 -9 -63 -5 -92 -85 -32 -3 -40 -22 -62 -33 0
67 1 71 47 35 75 26 64 66 92 70 28 20 57 52 25 21 56 48 89 58 24 88 41 42 -96 -34 -69 -72 -17 -73 -30 -40 -23 -45 -3 -84 -6 -5 -32 -59 -4 -18 -79 -27 0
43 10 89 19 37 39 22 36 33 20 9 41 30 34 92 59 31 77 -8 -1 -29 -66 -17 -53 -14 -61 -82 -45 -93 -91 -68 -83 -65 -5 -71 0
49 42 48 14 68 85 37 5 34 45 64 30 27 87 94 95 31 71 51 84 59 79 26 24 32 91 16 56 6 3 46 67 92 40 -33 -44 -78 -12 -65 -23 -58 -18 -35 -7 -25 -90 -29 -57 -74 -13 -52 -73 -11 -9 -8 -72 -36 -80 -81 -38 -54 -28 -50 0
55 46 70 50 32 41 90 49 7 65 83 56 54 74 51 9 80 52 94 19 86 33 45 69 77 58 87 76 73 3 59 81 29 13 37 60 79 84 4 5 88 1 28 66 68 -48 -17 -23 -44 -22 -20 -35 -42 -18 -6 -62 -34 -92 -21 -91 -63 -27 -89 -24 -82 -2 -61 -30 -53 -85 -96 -10 -67 -75 -47 -40 -39 -93 -25 -57 -26 -12 -14 -8 -43 -31 -36 -38 -15 -71 -16 0
92 36 56 17 32 13 46 6 27 5 39 84 57 41 50 29 54 21 91 88 49 35 95 48 64 25 20 77 69 -83 -1 -86 -85 -81 -87 -26 -94 -11 -70 -12 -73 -30 -37 -34 -8 -19 -3 -55 -93 -75 -18 -67 -14 -58 -62 -23 -82 -45 -38 -28 -9 -61 -15 -42 -68 -71 -22 -63 -10 -74 -53 0
53 26 17 64 18 8 61 5 78 14 3 28 58 55 23 40 7 47 59 20 34 2 9 63 31 21 39 72 77 95 1 48 69 52 80 -75 -36 -51 -22 -50 -67 -43 -11 -86 -92 -73 -89 -90 -38 -35 -76 -24 -32 -83 -68 -81 -27 -44 -96 -15 -4 -84 -16 -13 -45 -65 -10 -70 -30 -94 -88 -60 -19 -85 -62 -12 -87 0
84 78 34 33 57 32 72 81 63 79 15 1 11 45 91 70 38 56 96 17 3 69 55 74 82 48 23 93 68 88 25 66 20 6 2 90 40 -65 -83 -71 -60 -76 -46 -7 -87 -14 -64 -9 -37 -42 -28 -53 -52 -59 -86 -27 -44 -92 -10 -39 -61 -22 -80 -19 -85 -43 -26 -75 -16 -58 -50 -4 0
85 10 79 3 94 14 20 50 41 82 58 92 74 49 17 44 73 53 68 7 16 2 76 22 90 87 77 35 43 96 38 21 32 39 6 12 52 5 55 63 93 11 -4 -66 -25 -64 -84 -46 -48 -80 -95 -81 -51 -65 -54 -91 -15 -1 -29 -31 -59 -45 -24 -33 -37 -30 -23 -69 -70 -9 -71 -19 0
2 8 84 71 70 66 72 14 29 9 62 81 21 25 60 12 3 65 53 41 23 52 68 51 31 16 56 74 76 17 92 83 48 45 82 44 87 73 13 33 43 67 47 69 90 -46 -10 -27 -20 -58 -42 -1 -24 -63 -77 -93 -11 -19 -78 -28 -22 -61 -89 -49 -32 -50 -26 -38 -35 -36 -88 -55 -37 -7 -40 -85 -54 -18 0
95 9 41 81 20 78 93 47 31 94 52 84 49 43 -3 -17 -46 -65 -73 -16 -85 -88 -22 -38 -90 -33 -92 -7 -48 -60 -79 -2 -87 -36 -75 -21 -27 0
62 95 22 61 43 88 73 90 -9 -82 -36 -87 -17 -65 -28 -74 -4 -32 0
91 77 22 52 21 94 34 71 17 29 62 85 43 28 86 15 -36 -82 -13 -31 -67 -64 -61 -26 -45 -70 -27 -65 -54 -75 -23 -44 -11 -63 -5 -51 -6 -96 -12 -73 -9 -80 -10 -81 -35 0
40 70 35 9 65 52 39 91 75 90 85 22 38 14 8 73 48 34 94 11 92 76 17 31 18 44 50 64 89 54 36 47 49 45 62 -46 -67 -68 -71 -51 -60 -24 -66 -5 -30 -28 -25 -3 -7 -95 -83 -27 -61 -77 -43 -87 -74 -72 -96 -53 -55 -88 -29 -33 -80 -78 -63 -20 -93 -4 -32 0
3 38 90 61 77 66 44 79 8 31 54 73 6 37 26 83 76 65 2 84 12 67 49 45 36 82 19 91 56 81 30 80 41 35 63 34 28 88 55 13 53 48 78 -68 -43 -51 -89 -33 -21 -5 -10 -11 -85 -57 -18 -40 -74 -71 -17 -15 -86 -47 -20 -52 -16 -92 -94 -58 -42 -24 -69 -62 -70 -23 -75 -59 -22 -93 -96 -39 -27 -9 -50 -46 -72 -25 0
62 18 13 32 73 20 26 75 69 76 12 50 15 47 94 -74 -33 -4 -10 -89 -23 -40 -35 -9 0
62 11 71 23 3 34 12 21 31 9 40 81 43 59 44 24 27 37 90 28 6 96 69 35 42 55 32 -54 -17 -63 -74 -70 -84 -85 -64 -83 -80 -30 -51 -26 -13 -48 -68 -79 -19 -8 -18 -53 -95 -1 -77 -50 -46 -94 -78 -73 -65 -75 -57 -82 -29 -20 -67 -41 -66 -14 -88 -4 -91 -10 -60 -47 -52 -7 -39 -36 -16 -2 -25 -86 -49 -45 -72 -76 0
95 91 89 66 22 71 72 84 51 65 56 -76 -61 -85 -79 -32 -14 -13 -69 -46 -39 -29 0
19 87 9 74 36 7 76 12 26 37 81 24 86 16 61 1 34 29 48 -69 -64 -22 -6 -8 -28 -45 -39 -49 -3 -88 -82 -42 -27 -96 -95 -71 -14 0
59 72 76 6 73 71 26 17 96 9 21 20 19 4 34 92 68 39 52 27 54 53 44 78 1 32 64 11 -3 -77 -5 -35 -50 -65 -48 -40 -37 -83 -42 -94 -84 -57 -62 -61 -63 -7 -22 -93 -90 -86 0
36 34 19 43 86 93 66 42 27 -92 -32 -96 -82 -5 -30 -41 -21 -50 -71 -8 0
82 34 19 21 58 81 70 36 15 54 28 43 51 89 4 53 57 24 14 32 69 23 64 93 1 62 45 65 87 13 2 7 11 12 49 30 48 22 61 31 78 77 75 91 10 35 50 9 52 -26 -8 -40 -20 -3 -66 -63 -46 -92 -18 -90 -27 -39 -88 -47 -59 -95 -74 -72 -96 -94 -38 -44 -73 -55 -37 -16 -17 -83 -41 -71 -42 -68 -67 -5 -56 -29 -33 -60 -6 -85 -86 -79 -80 0
37 80 75 35 78 63 -11 -64 -91 0
12 89 53 68 3 46 9 30 69 82 49 18 44 87 6 80 43 38 39 59 17 42 55 74 84 31 88 51 94 71 76 91 66 21 81 26 27 47 58 32 14 62 29 52 96 13 -65 -11 -41 -64 -45 -35 -36 -83 -4 -2 -48 -24 -56 -16 -79 -10 -57 -50 -95 -40 -73 -61 -77 -85 -5 -28 -19 -1 -72 -63 -33 -54 -90 -78 -37 -75 0
41 89 76 43 25 5 28 68 69 18 77 15 66 33 90 27 24 57 2 13 72 81 86 91 16 71 58 38 96 51 80 78 83 46 92 48 4 1 11 14 40 67 -82 -74 -36 -34 -53 -10 -39 -7 -19 -45 -23 -9 -30 -37 -32 -79 -63 -21 -95 -44 -84 -42 -22 -26 -93 -50 -35 -88 -17 -55 -52 -29 -8 -64 -87 -47 -59 -61 -31 -20 -49 -73 0
45 3 43 86 60 44 52 17 51 82 87 41 67 31 80 1 92 10 2 66 69 65 90 36 53 9 5 4 39 79 24 84 50 21 70 19 76 7 -6 -27 -91 -57 -13 -62 -71 -23 -89 -55 -48 -64 -22 -95 -59 -34 -93 -18 -14 -68 -35 -46 -32 -15 -74 -47 -78 -28 -12 -25 -58 -30 0
47 68 45 77 82 59 65 92 38 10 80 64 3 11 62 95 57 50 71 23 37 79 63 5 76 53 30 13 90 26 34 78 29 21 56 12 18 58 19 14 17 70 20 39 94 22 8 81 -61 -43 -16 -83 -44 -42 -40 -93 -87 -33 -28 -72 -6 -86 -2 -24 -74 -75 -32 -55 -51 -96 -84 -9 -60 -85 -91 -27 -88 -35 -41 0
41 78 34 15 46 68 89 94 3 43 42 33 19 29 1 9 55 40 -56 -25 -47 -93 -44 -60 -54 -83 -82 0
3 15 13 87 54 71 96 35 48 22 36 34 88 10 6 4 39 2 91 61 63 66 26 73 51 50 -90 -78 -21 -17 -72 -47 -65 -60 -84 -79 -37 -89 -32 -28 -76 -42 -56 -77 -23 -8 -1 -38 -12 -94 -92 -86 -31 -67 -24 -41 0
76 67 51 28 92 46 49 87 11 85 88 27 86 90 45 29 68 54 62 24 73 35 56 75 13 38 59 81 72 17 84 74 60 2 5 47 50 57 65 6 19 70 66 14 8 36 42 -3 -1 -12 -71 -61 -16 -31 -89 -79 -41 -15 -9 -10 -48 -21 -69 -78 -64 -91 -32 -53 -77 -40 -63 -39 -34 -33 -52 -18 -83 -7 -20 -96 -43 -55 -26 -37 -82 -44 -58 -80 -25 -95 -22 -30 0
62 85 32 34 91 20 16 8 51 5 15 76 66 96 75 28 30 2 88 83 87 95 72 89 24 92 11 13 69 27 7 12 64 36 18 23 82 53 6 80 46 -39 -45 -49 -57 -67 -81 -61 -43 -26 -58 -55 -21 -86 -29 -71 -44 -94 -50 -63 -79 -25 -70 -31 -77 -78 -68 -52 -38 -54 -35 -10 -41 -74 -48 -65 -37 -4 -59 0
20 90 38 40 -69 0
81 49 28 67 82 66 7 46 -92 -20 -69 -71 -6 -38 -2 -42 0
88 16 86 96 40 76 94 19 39 81 61 49 68 67 63 31 95 14 15 55 7 8 77 38 18 59 47 75 36 17 13 89 72 93 74 3 10 53 33 69 6 30 83 23 85 56 -79 -70 -92 -37 -22 -62 -73 -34 -4 -48 -29 -50 -20 -26 -27 -12 -28 -25 -5 -91 -57 -24 -54 -51 -9 -80 -32 -42 -60 -66 -1 -84 -52 -65 -46 -58 -87 -41 -71 -44 -82 -90 -64 -35 0
87 33 29 64 20 47 67 16 10 63 8 46 30 6 66 65 52 72 28 95 11 77 31 89 7 69 25 91 70 -57 -71 -78 -61 -42 -12 -86 -13 -96 -74 -94 -22 -41 -60 -1 -48 -76 -36 -81 -62 -83 -9 -80 -34 -58 -59 -53 0
85 9 33 35 78 32 2 36 26 52 44 70 37 40 66 39 92 96 94 91 17 8 4 41 76 69 55 -6 -63 -79 -14 -38 -84 -7 -30 -87 -5 -53 -73 -88 -59 -22 -83 -86 -3 -21 -25 -15 -49 -48 -18 -61 -29 -13 -10 -95 -93 -56 -11 0
32 33 91 96 -34 -71 -29 0
77 26 55 79 85 12 91 16 24 5 31 30 84 87 28 65 17 27 29 95 -3 -80 -78 -23 -6 -61 -18 -71 -66 -58 -25 -76 -64 -75 -35 -9 -37 -94 -33 -44 -51 -54 -82 -40 -1 0
39 79 38 14 91 72 18 89 3 61 15 21 55 71 77 52 -94 -32 -86 -8 -56 -9 -19 -25 -30 -87 -23 -45 -49 -67 -41 -78 -4 -66 -53 -47 0
1 32 68 21 79 93 53 51 83 33 49 31 11 77 91 43 19 37 57 47 18 38 75 89 90 54 55 30 39 86 2 48 7 63 34 64 23 52 3 85 8 17 62 16 65 20 81 96 92 44 72 24 56 60 -35 -6 -28 -67 -76 -58 -36 -73 -40 -25 -61 -26 -10 -5 -94 -45 -4 -14 -27 -12 -80 -50 -84 -9 -78 -88 -59 -13 -66 -95 -70 -69 -15 -74 -41 -29 -42 -82 -87 -71 0
95 55 2 92 62 50 42 96 75 74 39 7 53 20 47 87 19 43 6 11 89 93 22 80 1 15 31 8 76 21 40 4 38 23 17 61 -27 -46 -34 -73 -85 -65 -68 -35 -26 -66 -71 -3 -57 -30 -25 -32 -69 -49 -5 -33 -9 -29 -86 -90 -16 -36 -54 -64 -10 -59 -83 -77 -67 0
13 40 11 39 30 53 5 49 70 86 -63 -10 -80 -15 -27 -74 -17 0
35 15 3 55 32 82 47 93 5 68 56 18 19 72 71 11 89 85 95 41 8 22 91 92 26 66 30 79 64 10 88 28 44 24 43 94 9 54 80 59 -29 -65 -48 -50 -52 -60 -7 -34 -83 -78 -75 -90 -25 -69 -33 -81 -36 -4 -20 -38 -31 -21 -51 -42 -27 -1 -84 -53 -37 -39 -57 -63 -58 -2 -86 -13 -87 -17 -61 -70 -12 -96 -74 -67 0
27 28 73 8 80 5 66 54 52 92 74 69 7 39 75 35 16 65 88 36 59 37 49 46 4 45 85 -89 -71 -55 -1 -81 -83 -51 -20 -70 -47 -67 -95 -91 -42 -18 -90 -94 -21 -79 -38 -22 -72 -9 -78 -86 -11 -68 -63 0
36 55 71 44 16 89 82 45 86 26 51 57 61 58 87 7 21 68 38 52 48 39 33 14 93 11 30 95 24 84 78 53 50 9 35 92 79 60 74 94 5 42 59 90 -34 -70 -85 -88 -2 -27 -4 -20 -73 -80 -15 -46 -23 -83 -32 -37 -63 -25 -67 -96 -40 -28 -8 -41 -76 -65 -56 -77 -49 -62 -10 -19 -47 -31 -12 -66 -22 -43 0
63 83 24 3 38 26 20 77 87 95 52 -46 -2 -70 -62 -56 -92 -8 -10 -41 -89 -58 -64 -50 -39 -84 -37 0
58 83 35 9 75 46 31 25 13 79 40 12 30 95 60 24 3 62 72 64 22 18 86 37 47 39 6 91 16 -4 -67 -29 -52 -81 -55 -10 -65 -38 -88 -69 -70 -2 -94 -93 -33 -8 -36 -82 -85 -74 -71 -32 -34 -15 -28 0
32 31 62 2 27 93 72 67 57 96 21 77 74 75 14 34 4 42 61 20 56 83 60 43 26 45 44 38 76 19 91 92 5 86 25 -71 -54 -17 -59 -90 -13 -73 -50 -95 -88 -49 -7 -29 -89 -85 -84 -87 -80 -70 -18 -16 -15 -82 -63 -58 -36 -66 -79 -37 -35 -10 0
-39 0
32 12 87 83 70 -84 -24 -68 -34 -43 -73 0
80 52 54 82 49 69 21 76 77 61 16 12 7 6 31 -59 -26 -4 -94 -27 -20 -1 -65 -68 -48 -66 -3 -45 -28 -18 -70 -34 -86 -67 -47 -55 -63 -88 -19 -89 -33 -41 -23 -46 -5 -73 -17 0
43 31 63 7 47 36 33 10 18 26 57 58 35 81 91 89 61 52 69 19 93 34 51 95 11 39 79 76 25 82 5 78 77 15 40 6 72 37 92 70 41 16 29 83 88 71 21 9 38 -64 -73 -27 -32 -56 -53 -54 -44 -22 -8 -28 -20 -4 -55 -30 -68 -14 -45 -2 -62 -24 -50 -60 -90 -67 -87 -74 -3 -66 -86 -75 -23 -59 -13 -84 -49 -94 -17 -42 -80 -85 -48 0
95 42 87 65 13 20 18 53 1 75 39 66 14 68 76 46 45 31 40 15 -26 -67 -28 -3 -27 -86 -51 -30 -70 -49 -38 -43 -60 -36 -4 -94 -6 -22 -21 -73 -17 -5 -69 -32 -47 -23 -74 -10 -63 -96 0
76 44 21 77 52 19 85 7 68 86 43 45 72 91 61 70 35 64 75 56 46 25 71 17 30 90 22 69 41 49 81 48 4 10 24 18 95 -12 -92 -80 -63 -58 -6 -38 -11 -87 -79 -40 -82 -26 -65 -31 -29 -13 -67 -36 -27 -78 -74 -60 -3 -59 -23 -33 -57 -93 -15 -9 -20 -96 -51 -16 0
38 37 25 47 89 18 70 22 90 40 74 45 51 -1 -67 -96 -36 -33 -7 -76 -6 -20 -26 -86 -60 -66 -77 0
30 24 56 67 60 3 28 22 40 83 1 65 79 90 5 89 9 55 20 59 94 72 10 77 85 91 49 34 58 32 50 84 39 86 14 87 92 4 69 61 23 73 70 11 -42 -88 -47 -45 -51 -48 -2 -18 -12 -53 -75 -33 -6 -82 -80 -52 -63 -62 -27 -15 -21 -37 -25 -36 -29 -95 -7 -54 -57 -16 -41 -74 -71 -19 -31 -76 -43 -68 -26 -66 -17 -8 -64 -44 -81 0
91 18 73 49 42 2 60 39 63 25 28 36 11 87 15 -68 -76 -3 -90 -78 -59 -64 -14 -79 -30 -53 -93 -13 -83 -80 -37 -55 -75 -27 -19 -9 -31 -10 0
80 78 16 54 50 94 -76 -44 -89 -75 -15 -92 0
64 81 52 45 32 49 14 84 1 22 46 72 56 31 8 83 90 86 60 91 18 76 -7 -37 -47 -73 -78 -39 -25 -87 -95 -75 -68 -27 -94 -19 -20 0
74 27 3 1 81 71 29 65 22 20 16 84 10 70 15 75 60 45 86 31 -96 -5 -54 -46 -92 -94 -23 -62 -12 -40 -58 -68 -87 -37 -48 -39 -17 -79 -77 -24 -57 0
95 43 19 94 60 90 23 78 55 87 64 8 9 57 35 61 72 25 45 7 69 33 85 83 41 67 2 21 39 73 47 77 38 -24 -71 -4 -27 -96 -59 -92 -30 -82 -93 -52 -28 -50 -65 -17 -31 -89 -46 -68 -86 -62 -51 -40 -58 -5 -74 -37 -14 -11 -34 -54 -18 0
79 88 11 95 -3 -12 -1 -72 -25 -6 -31 -8 0
29 45 94 17 19 47 48 79 18 12 2 9 33 -31 -87 -52 -10 -82 -76 -5 -61 -50 -77 -44 -51 -73 -8 -25 -32 -62 -60 -3 -85 -42 -15 -7 -69 -75 -55 -43 0
20 72 50 73 66 21 56 28 18 9 8 91 6 23 17 14 65 19 33 70 34 47 53 39 36 -93 -45 -83 -10 -74 -84 -38 -89 -90 -24 -41 -69 -95 -59 -7 -96 -27 -40 -32 -43 -61 -49 -82 -26 -51 -46 -94 -85 -29 -92 -44 -71 0
12 95 86 43 15 96 74 67 76 4 20 77 8 35 54 71 68 40 6 33 9 80 48 18 75 65 22 70 84 37 53 52 34 89 14 92 81 45 7 61 17 58 66 69 38 -36 -11 -41 -60 -91 -32 -94 -13 -73 -51 -79 -78 -63 -29 -2 -25 -62 -44 -55 -19 -3 -59 -88 -30 -5 -1 -39 -72 -21 -27 -10 -82 -90 -31 -64 -57 -56 -50 -16 -93 -49 -47 0
86 51 68 42 10 16 48 66 84 83 8 87 90 31 24 28 50 38 73 4 40 12 15 41 43 74 25 35 76 -63 -81 -78 -47 -62 -96 -29 -30 -39 -32 -94 -56 -82 -17 -64 -49 -18 -3 -52 -54 -5 -75 -26 -33 -71 -7 -22 -6 -85 -89 -21 -34 -91 -70 -14 -55 0
57 65 93 61 27 36 22 11 35 51 87 49 -86 -7 -46 -73 -2 -66 -13 -47 -90 -88 -18 -84 -54 -68 -96 -50 0
39 88 60 22 81 86 94 20 66 78 61 54 37 53 43 38 17 52 36 15 73 34 21 45 48 27 83 -23 -93 -10 -79 -91 -11 -19 -28 -67 -63 -49 -26 -24 -50 -92 -13 -47 -2 -69 -59 -76 -7 -4 -87 -55 -25 -57 -32 -68 -35 0
2 95 26 33 81 77 53 7 82 64 38 27 -85 -4 -49 -12 -8 -22 -76 -60 -32 -24 0
17 92 63 90 32 51 1 35 56 34 26 65 87 58 95 12 91 61 85 -5 -50 -45 -89 -73 -9 -22 -66 -29 -84 -83 -53 -52 -68 -14 -18 -16 -86 -23 -82 -75 -7 -74 -76 -42 -27 -20 0
78 41 19 9 54 85 35 51 52 66 30 83 95 26 47 15 8 29 56 42 45 6 63 59 24 40 93 27 16 87 20 46 84 55 36 89 72 67 94 12 70 77 53 18 -34 -86 -4 -17 -32 -68 -60 -39 -80 -81 -44 -64 -3 -33 -65 -69 -38 -58 -13 -79 -88 -76 -22 -21 -7 -61 -82 -31 -25 -2 -14 -48 -96 -71 -75 -49 -5 -11 -37 -23 -1 -62 -73 -74 -10 0
40 21 64 24 13 63 -53 -8 -62 -39 -16 -37 -41 -35 0
25 74 10 44 42 27 22 83 62 43 26 17 79 20 45 47 87 82 15 70 12 46 21 28 -72 -1 -32 -85 -34 -96 -63 -5 -84 -58 -38 -76 -59 -35 -55 -64 -29 -16 -23 -94 -4 -69 -13 -48 -67 -90 -36 0
49 93 43 56 77 57 82 64 15 87 18 -73 -81 -29 -47 -11 -84 -37 0
17 24 91 57 88 38 90 94 3 56 53 72 89 7 83 36 87 75 70 25 81 -30 -93 -9 -74 -69 -41 -79 -8 -6 -11 -78 -43 -14 -82 -61 -18 -60 -32 -68 -66 -31 -71 -33 -26 -12 -34 -29 -28 -76 -50 0
26 21 2 41 88 33 13 31 61 89 78 24 14 75 79 85 3 64 96 60 68 44 27 95 36 83 16 -55 -91 -53 -93 -5 -51 -45 -1 -92 -29 -8 -87 -32 -47 -65 -66 -9 -49 -80 -73 -86 -46 -71 -39 -35 -20 -4 -37 -94 -72 -57 0
66 29 87 82 54 92 32 23 30 79 90 5 40 31 22 26 13 65 78 57 27 77 34 73 94 39 9 18 1 88 17 81 4 59 68 95 16 28 89 93 6 96 46 61 56 38 51 -83 -36 -3 -62 -80 -74 -53 -48 -86 -85 -10 -43 -15 -37 -8 -55 -2 -60 -71 -45 -11 -69 -42 -14 -25 -41 -58 -70 -33 0
72 24 32 36 13 84 40 61 35 89 91 56 -4 -58 -78 -54 -86 -17 -10 -30 -42 -26 0
65 30 74 44 32 9 33 68 50 84 61 59 18 39 -81 -13 -23 -87 -88 -91 -14 -67 -24 -37 -69 -64 -82 0
4 76 57 78 82 48 21 56 68 58 -85 -55 -53 -63 -73 -7 -91 -25 -79 -36 0
69 18 25 43 52 56 82 9 50 57 20 47 55 74 13 6 72 30 90 35 58 68 75 83 22 53 59 77 76 36 61 26 28 31 89 65 45 39 33 -71 -51 -79 -11 -8 -40 -32 -94 -17 -95 -78 -84 -93 -41 -66 -34 -67 -96 -12 -4 -70 -7 -29 -14 -38 -46 -16 -87 -15 -63 -62 -60 -23 -64 -49 -42 -54 -3 0
10 9 5 22 27 68 65 13 2 39 35 77 80 30 66 74 72 37 31 48 33 44 54 96 75 49 93 45 82 95 70 79 -50 -15 -90 -64 -61 -63 -52 -7 -67 -20 -62 -19 -86 -18 -32 -21 -14 -92 -17 -42 -73 -1 -57 -76 0
3 79 23 1 37 69 96 9 2 44 61 82 54 7 59 64 5 43 33 40 26 -73 -6 -78 -21 -30 -91 -27 -24 -81 -71 -85 -39 -80 -49 -60 -67 -17 -46 -41 -13 -31 -93 -63 -66 -48 -68 -84 -52 -70 -62 -18 -29 -89 -20 -19 -86 -88 -22 -8 0
1 22 10 32 52 78 96 9 81 59 37 40 66 38 86 3 84 55 91 82 25 21 27 45 85 12 94 69 51 39 72 7 8 64 57 -88 -50 -15 -36 -35 -58 -20 -41 -11 -79 -24 -83 -56 -17 -29 -19 -5 -14 -92 -48 -31 -70 -49 -87 -34 -90 -89 -28 -53 -4 -60 -16 0
20 96 27 58 79 57 30 55 90 26 31 35 82 69 41 62 78 3 21 15 6 22 87 47 32 77 2 34 19 38 4 63 33 23 44 12 9 70 72 -59 -29 -16 -42 -54 -75 -50 -73 -92 -37 -93 -36 -71 -25 -65 -51 -83 -10 -81 -45 -94 -14 -17 -68 -89 -48 -40 -86 -76 -95 -46 -52 -60 -18 -7 -64 -24 -1 -61 -56 -5 0
52 13 83 45 56 16 65 72 64 61 31 21 38 8 71 17 22 20 86 66 87 79 96 63 78 84 67 10 37 47 50 -89 -68 -59 -19 -90 -36 -92 -9 -91 -41 -44 -32 -30 -24 -94 -5 -80 -85 -42 -25 -82 -46 0
46 1 51 40 89 47 74 21 5 53 13 81 52 93 12 88 68 59 84 57 80 3 61 35 58 11 92 77 43 44 48 22 54 2 27 24 39 38 41 32 9 49 70 85 50 17 23 73 87 -14 -45 -28 -67 -25 -69 -66 -78 -18 -34 -86 -6 -90 -37 -79 -64 -55 -29 -72 -71 -20 -16 -36 -96 -26 -30 -65 -42 -95 -82 -33 -31 -75 -62 -94 -76 -19 -63 -10 -83 -7 0
14 67 37 70 46 60 7 68 3 95 29 72 40 69 47 62 79 23 35 25 11 -12 -89 -87 -63 -33 -24 -51 -75 -17 -28 -56 -92 -18 -53 -34 -71 -6 -57 -91 -8 -81 -4 -16 -84 -83 0
84 72 85 38 70 92 65 74 2 -89 -24 -12 -54 -67 -35 -56 -6 0
21 50 67 1 5 61 11 75 40 2 38 27 58 62 23 88 79 8 -39 -7 -83 -20 -63 -46 -69 -3 -36 -6 -24 -32 -30 -64 -53 -25 -12 -66 -87 -51 -43 0
33 73 80 86 92 49 62 54 82 53 72 23 66 63 -27 -40 -93 -71 -6 -95 -58 -83 -43 -45 -31 -41 -25 0
13 81 31 40 53 42 7 58 51 75 86 21 63 29 12 19 59 55 62 6 56 87 80 16 20 44 45 84 -89 -77 -35 -54 -18 -47 -92 -34 -27 -22 -73 -10 -48 -91 -36 -82 -9 -68 -50 -93 -67 -41 -60 -74 -79 -83 -38 -76 -96 -61 0
87 62 92 66 51 43 7 8 53 22 68 10 -29 -6 -35 -47 -73 -57 -14 -36 -78 -94 -70 -2 -83 -25 -28 0
65 88 66 31 56 8 74 58 85 67 27 94 42 18 71 82 7 10 45 64 73 55 86 75 -25 -96 -62 -63 -13 -57 -51 -3 -21 -12 -95 -70 -44 -59 -29 -17 -28 -50 -91 -2 -48 -93 0
93 15 16 58 69 72 7 90 2 94 59 34 75 92 46 44 17 68 -14 -6 -91 -40 -8 -79 -20 -84 -43 -26 -18 -33 -87 -83 -57 0
27 41 7 60 43 32 82 68 73 89 20 77 33 26 56 84 83 1 17 91 21 64 87 72 46 50 47 44 31 92 42 67 53 81 22 48 78 61 -37 -15 -75 -55 -29 -8 -88 -38 -6 -90 -11 -40 -95 -16 -3 -52 -85 -23 -30 -49 -25 -34 -9 -65 -74 -4 -36 -14 -69 -54 -71 -2 -66 -79 -24 -39 -57 -76 -45 -93 -28 -94 -96 -19 -13 -51 -86 -59 -58 0
19 82 80 44 86 52 23 74 87 37 57 76 49 2 8 29 75 15 48 54 27 93 47 96 64 51 26 60 67 46 72 58 20 17 34 43 50 89 78 81 38 56 31 -42 -53 -32 -39 -71 -16 -90 -1 -5 -25 -21 -45 -36 -70 -83 -88 -59 -69 -84 -35 -7 -28 -10 -73 -62 -55 0
-37 -34 -66 -29 0
7 60 89 2 59 35 43 91 11 53 44 67 55 31 62 77 84 37 96 86 88 10 83 38 5 71 47 50 29 95 74 65 73 20 40 1 34 56 25 94 9 82 23 80 51 13 -66 -16 -63 -61 -14 -85 -12 -87 -48 -3 -6 -36 -24 -33 -28 -15 -26 -75 -4 -45 -70 -39 -79 -54 -8 -78 -69 -52 -17 -81 -49 -22 -46 -76 -64 -68 -30 -92 -27 -72 -58 0
93 17 78 64 53 45 27 91 19 61 92 42 33 29 38 62 5 32 -34 -12 -73 -95 -49 -7 -22 -14 -43 0
62 32 76 35 81 85 14 70 54 55 31 24 45 15 63 11 79 3 51 5 59 -83 -27 -94 -88 -50 -49 -90 -52 -44 -30 -47 -66 -41 -86 -53 -87 -65 -75 -58 -18 -29 -57 -19 -69 -37 -13 -28 -91 -60 0
83 26 64 27 68 56 77 86 70 19 17 91 11 58 87 81 93 74 9 88 43 94 -45 -61 -1 -46 -76 -25 -69 -12 -21 -78 -53 -38 -6 -84 -20 0
31 19 87 57 -84 -42 -45 -22 -12 -5 -33 0
10 54 37 74 64 26 89 14 25 73 22 12 77 56 48 51 94 65 9 5 86 92 80 31 -82 -68 -71 -20 -78 -35 -41 -3 -19 -16 0
91 25 31 14 62 42 88 70 6 89 61 77 26 16 94 3 81 32 48 18 51 52 28 37 33 30 1 38 76 36 41 83 39 72 84 80 19 85 20 -93 -21 -13 -56 -90 -60 -87 -86 -74 -7 -5 -67 -79 -59 -71 -27 -43 -66 -49 -9 -58 -2 -8 -44 -53 -47 -12 -69 -54 -46 -95 -96 -82 -73 -4 -63 -57 -23 -92 0
66 90 28 45 14 44 49 60 62 59 9 79 3 13 95 30 1 26 16 8 85 10 -54 -80 -67 -41 -57 -21 -46 -22 -76 -52 -75 -38 -27 -63 -55 -25 -92 -15 -50 -43 -4 -61 -34 -39 -17 -64 -6 0
48 24 76 20 71 78 87 92 18 22 34 4 8 11 93 79 77 94 19 95 5 10 9 31 23 29 -27 -7 -46 -69 -57 -33 -65 -86 -61 -26 -67 -60 -17 -28 -47 -66 -14 -55 -21 -59 -25 -58 -96 -35 0
18 39 80 85 74 25 33 13 35 7 48 9 92 2 91 31 67 82 63 88 42 68 50 52 11 65 19 46 54 5 61 83 21 73 32 47 53 56 84 15 34 58 -10 -95 -23 -70 -38 -77 -69 -8 -49 -16 -90 -45 -55 -60 -17 -51 -93 -28 -89 -71 -43 -79 -1 -29 -44 -62 -3 -14 -78 -76 -41 -37 -64 -40 -6 -26 -86 -81 -20 -27 -72 -24 -96 -66 -22 -94 0
1 83 79 32 22 66 6 39 9 30 50 41 76 21 57 60 90 29 13 11 72 87 86 74 38 48 -62 -91 -53 -43 -61 -89 -95 -40 -85 -77 -24 -64 -81 -26 -71 -15 -2 -28 -73 -19 -58 -4 -54 -34 -75 -96 -7 -8 -51 -56 -68 -36 -93 -47 -42 0
15 51 27 7 62 40 39 35 75 87 65 77 78 49 84 81 9 31 67 11 66 50 29 30 38 95 34 44 1 89 13 33 63 72 47 64 61 68 80 18 -41 -5 -71 -86 -12 -6 -24 -21 -58 -53 -14 -88 -54 -43 -82 -90 -3 -22 -94 -20 -92 -60 -96 -70 -59 -74 -46 -76 -23 -69 -37 -91 -8 -17 -85 -48 -36 -79 -10 -52 -55 -2 -16 -25 -56 -83 -4 0
6 78 30 35 90 44 63 7 16 36 80 93 75 77 34 70 88 71 67 62 39 69 68 84 3 20 53 45 25 28 54 10 72 26 73 -64 -5 -23 -95 -65 -32 -18 -82 -91 -13 -37 -12 -81 -41 -21 -76 -1 -94 -2 -55 -14 -17 -79 -60 -24 -86 -96 -38 -27 -50 -58 -59 -74 -87 -8 -89 -40 -85 -42 -22 -15 -51 -19 -33 -92 -46 -49 -9 -43 0
75 31 87 2 3 9 85 93 95 72 46 56 76 4 71 86 11 96 45 32 20 5 -34 -63 -69 -33 -35 -15 -16 -1 -79 -29 -89 -37 -59 -70 -78 -8 -51 -52 -26 -13 0
71 -43 -57 0
6 7 66 51 92 85 14 23 79 76 86 87 37 2 80 58 89 96 81 25 5 43 16 17 78 11 54 77 84 65 60 61 10 69 63 44 22 73 57 68 9 59 15 41 82 95 27 48 49 90 -35 -47 -29 -21 -1 -93 -13 -91 -50 -83 -31 -64 -45 -94 -40 -3 -53 -12 -74 -70 -18 -20 -28 -8 0
77 84 89 58 12 70 11 86 53 47 55 32 19 13 61 93 14 20 33 76 15 68 7 36 46 6 17 82 52 45 49 -39 -42 -43 -88 -28 -31 -8 -94 -41 -95 -72 -9 -4 -40 -90 -56 -21 -5 -96 -50 -10 -30 -38 -59 -51 -37 -87 -74 -83 -57 -79 -85 -67 -48 0
81 82 83 10 71 57 18 24 29 69 47 74 19 55 96 94 21 26 8 65 22 30 63 89 49 16 11 54 25 52 60 34 35 23 -15 -50 -67 -88 -20 -4 -46 -92 -59 -62 -80 -53 -36 -91 -73 -70 -37 -48 -31 -79 -76 -32 -44 -93 -40 -72 -1 -2 -61 -27 -9 -78 -42 -87 -17 -58 -7 -90 -84 -51 -13 -38 -86 0
60 22 82 3 75 8 68 85 6 4 53 74 1 61 58 24 96 76 70 94 -16 -42 -77 -28 -23 -11 -69 -95 -45 -9 -18 -52 -84 -12 -26 -79 -64 -50 -88 -38 -46 -39 -71 -86 -80 0
57 65 52 3 30 6 16 11 73 32 93 86 88 39 71 48 14 69 23 47 77 68 36 25 38 20 58 43 79 2 83 15 28 96 62 -45 -70 -19 -75 -8 -35 -91 -21 -55 -34 -18 -17 -27 -40 -81 -59 -82 -53 -61 -94 -13 -29 -7 -87 -12 -78 -92 -9 -31 -85 -22 -76 -37 -60 -24 -46 -51 -33 -41 0
5 23 -58 -82 -10 -43 -54 0
87 37 49 48 -73 -91 -67 -40 -2 0
15 5 92 44 23 13 54 85 95 39 -27 -32 -26 -90 -31 -24 0
84 8 82 83 65 22 6 37 25 52 61 17 30 40 23 3 57 -35 -39 -54 -50 -28 -71 -67 -20 -13 -11 -66 -72 -79 -31 -62 -75 -85 -86 -77 0
26 84 21 51 63 36 28 8 13 83 47 67 29 42 95 11 58 -35 -19 -44 -27 -15 -50 -10 -73 -92 -53 -90 -54 -77 -32 -56 -30 -75 -1 0
75 78 72 11 46 8 60 22 42 34 44 23 39 13 85 88 45 80 48 21 -9 -53 -61 -63 -15 -54 -18 -89 -71 -92 -19 -28 -58 -12 -6 -65 -86 -29 -50 -41 -4 -96 -37 -49 -26 0
75 54 68 22 30 9 42 4 16 36 79 20 64 24 84 61 77 85 10 73 11 69 19 46 96 60 93 27 47 89 18 82 87 51 83 14 -32 -55 -74 -2 -45 -7 -13 -91 -35 -50 -8 -90 -81 -70 -71 -72 -5 -56 -1 -39 -63 -29 -25 -48 -26 -34 -65 -52 -17 -3 -58 -23 -62 -76 -59 -66 -80 -95 0
66 88 15 81 36 46 75 49 71 31 37 14 18 93 50 54 34 51 11 57 52 48 55 80 85 40 24 33 45 35 56 41 23 87 43 59 96 19 79 90 16 28 -32 -92 -47 -21 -30 -2 -70 -25 -82 -22 -73 -84 -67 -62 -61 -68 -60 -6 -78 -1 -17 -29 -39 -86 -89 -38 -9 -83 -26 -4 -95 -63 -91 -20 -7 -72 -13 -64 -74 0
31 93 32 89 42 58 43 3 70 54 30 69 24 78 53 73 17 96 68 62 65 46 48 21 71 66 50 38 81 91 19 55 11 37 41 76 10 72 1 63 80 39 -33 -14 -8 -75 -40 -85 -79 -90 -57 -52 -64 -59 -56 -44 -15 -94 -34 -51 -13 -4 -22 -67 -12 -23 -82 -27 -74 -16 -28 -86 -26 -77 -61 -49 0
26 83 42 31 51 12 24 22 48 19 96 15 91 92 44 72 8 89 64 10 94 -60 -14 -63 -57 -77 -53 -30 -9 -78 -5 -55 -49 -56 -1 -95 -41 -62 -84 -66 -27 -32 -73 -71 -79 -80 -40 -47 -25 -81 -4 0
46 48 18 13 63 75 17 61 14 51 11 62 67 58 41 70 52 1 89 4 9 21 -24 -50 -55 -79 -10 -12 -71 -66 -16 -33 -91 -56 0
93 15 36 90 6 49 1 96 3 91 43 17 73 25 29 76 82 9 46 85 13 83 4 16 81 74 21 51 87 88 75 60 20 7 68 22 63 54 26 24 55 64 47 11 -52 -72 -59 -33 -28 -69 -37 -53 -39 -2 -79 -71 -56 -57 -5 -34 -66 -78 -38 -27 -95 -10 -48 -23 -77 -32 -31 -62 -42 -80 -67 -61 -65 -40 -89 -86 -58 -12 -8 -50 -30 -44 -35 -70 -19 -94 -45 -14 -92 -18 0
2 27 29 41 52 54 80 8 89 68 96 34 21 19 38 53 14 25 28 40 92 3 17 -72 -57 -81 -70 -6 -43 -30 -90 -79 -48 -82 -10 -7 -36 -69 -85 -75 -86 0
24 59 46 48 91 13 69 56 27 36 71 76 5 26 84 9 50 60 81 31 11 47 20 53 32 39 45 33 16 68 3 52 43 7 40 38 6 88 -17 -70 -58 -77 -12 -82 -96 -41 -92 -2 -72 -89 -78 -66 -28 -1 -44 -61 -35 -10 -18 -37 -57 -19 -80 0
76 47 44 21 62 88 50 60 66 73 26 82 45 7 96 34 20 8 24 57 58 19 -41 -61 -92 -90 -67 -1 -40 -51 -95 -31 -78 -74 -59 -35 -5 -18 -46 -10 -91 -2 -6 0
16 72 88 67 11 62 69 33 87 42 -91 -38 -76 -13 -12 -52 -74 -22 -39 -79 -59 -47 -44 -57 -37 -29 -56 -84 -63 -71 -46 -34 -40 0
44 37 84 27 67 65 15 72 66 31 92 34 83 1 71 24 76 53 50 16 33 43 90 89 41 3 36 10 -30 -23 -46 -58 -54 -39 -18 -68 -40 -91 -13 -12 -70 -8 -61 -73 -78 -42 -81 -14 -94 -47 -21 -96 -59 -79 -11 -77 -52 -4 -19 -45 -85 -35 -17 -80 -88 -20 -64 -9 0
58 43 10 66 84 62 50 1 80 92 34 67 44 72 78 61 -19 -29 -25 -23 -57 -15 -81 -69 -41 -56 0
42 40 22 10 66 62 87 9 13 41 8 52 35 14 50 60 84 7 3 79 64 48 37 16 89 96 81 -47 -59 -25 -5 -92 -74 -70 -68 -21 -51 -65 -12 -85 -82 -54 -90 -57 -6 -29 -27 -2 -75 -53 -72 -77 -28 0
67 93 31 55 2 94 86 35 38 71 4 52 47 1 70 75 29 82 56 34 48 23 90 30 9 65 58 25 95 78 22 83 44 28 45 43 27 -7 -42 -33 -12 -49 -37 -5 -13 -3 -66 -68 -91 -76 -8 -69 -72 -89 -46 -32 -62 -80 -11 -39 -77 -79 -84 -85 -57 -40 -59 -41 -53 -19 -96 -64 -20 -17 -36 -73 -92 -6 -61 -18 -21 0
35 70 12 49 9 36 41 74 54 85 93 71 6 84 2 82 39 67 5 81 95 63 8 61 86 38 11 75 90 15 25 22 33 7 50 55 45 47 96 32 80 73 91 -68 -79 -16 -60 -1 -43 -94 -72 -10 -3 -28 -21 -57 -4 -31 -30 -89 -58 -77 -44 -19 -62 -83 -92 -26 -24 -88 -46 -66 -78 -64 -34 -37 -18 -40 -42 -29 -56 -65 -17 -51 -59 -20 0
28 67 44 61 49 51 26 -7 -63 -43 -22 -91 -39 -16 -59 -90 -57 -78 0
63 31 35 59 49 94 2 71 25 26 48 20 17 50 -61 -23 -30 -29 -53 -14 -39 -56 0
8 88 21 19 58 43 96 45 90 16 15 28 59 69 37 62 71 87 36 65 68 22 44 70 51 54 34 -84 -78 -64 -92 -13 -83 -63 -41 -75 -77 -40 -95 -53 -52 -57 -80 -32 -39 -60 -79 -38 0
79 17 3 41 62 2 42 94 43 91 74 1 82 58 52 44 36 51 65 30 20 72 14 70 76 71 31 77 7 66 49 9 75 28 16 56 50 54 -26 -73 -69 -64 -55 -19 -93 -95 -23 -53 -80 -90 -12 -88 -81 -78 -47 -29 -10 -35 -8 -40 -4 -11 -21 0
42 58 95 49 63 11 52 29 1 70 57 47 80 -86 -12 -92 -39 -62 -34 -54 -74 -76 -4 -28 -46 -65 -50 0
76 60 26 4 88 48 40 11 84 20 37 6 66 61 17 41 33 19 24 59 67 74 79 8 91 83 65 16 94 96 80 38 10 64 75 51 36 82 -2 -95 -56 -68 -78 -29 -55 -70 -87 -52 -15 -92 -71 -23 -54 -9 -93 -25 -43 -30 -39 -31 -14 -81 -7 -90 -47 -44 -3 -21 -12 -42 -22 -1 -46 -62 -50 -34 -85 -73 0
46 35 24 27 53 60 37 87 44 70 93 43 11 81 83 64 -6 -94 -67 -80 -18 -51 -52 -88 -78 -71 -76 -85 -10 -45 -32 -41 -33 -23 -66 -8 0
58 31 16 45 64 66 33 39 -5 -34 -29 -8 -10 0
75 73 18 13 3 9 92 36 33 72 56 61 78 20 57 21 67 43 46 52 83 49 5 11 88 28 86 62 2 53 35 38 17 76 89 60 44 19 90 45 65 55 27 63 79 82 68 -40 -85 -12 -6 -41 -4 -47 -25 -42 -93 -48 -58 -87 -64 -81 -91 -96 -7 -26 -30 -39 -15 -66 -23 -84 -1 -95 -59 -69 -70 -14 -80 -22 -16 -29 -31 -34 -54 -10 -51 -24 -77 0
61 15 80 72 77 35 25 73 93 95 5 57 2 16 87 23 62 12 26 40 10 90 85 41 65 3 20 44 32 -49 -42 -82 -39 -53 -43 -21 -30 -22 -54 -4 -13 -1 -51 -46 -68 -17 -58 -37 -81 -96 -33 -6 -94 -29 -75 -84 0
88 89 74 85 78 14 20 49 35 24 95 90 -80 -76 -92 -65 -75 0
34 63 17 39 -62 0
21 91 52 61 18 32 -30 -22 -63 -23 -58 -41 -65 0
51 87 80 8 15 65 45 83 93 33 72 70 71 53 -19 -9 -17 -29 -73 -62 -11 -61 -92 -3 -55 -34 -22 -69 -79 -16 -74 -30 -25 -41 -6 0
46 11 78 3 80 33 85 39 26 13 31 77 8 45 40 84 95 61 89 88 69 19 53 38 67 1 93 63 51 56 12 64 21 6 72 43 90 79 -68 -18 -82 -83 -24 -42 -14 -66 -41 -32 -27 -87 -94 -28 -15 -35 -47 -54 -55 -10 -81 -25 -49 -50 -20 -5 -57 -91 -52 -7 -4 -76 -36 -65 -44 -22 0
66 78 89 18 55 10 20 22 43 49 90 2 1 9 26 17 59 15 41 67 58 73 29 60 31 53 -80 -37 -50 -48 -4 -68 -5 -56 -72 -62 -21 -82 -63 -76 -30 -36 -83 -91 -38 -44 -25 -42 -7 -19 -75 -79 -64 0
25 -15 -21 -77 -94 -45 -61 0
96 11 29 71 26 64 37 42 -90 -27 -58 -40 -61 -76 -9 -36 0
60 36 91 83 12 33 26 53 14 43 15 38 28 17 11 89 72 85 1 67 16 7 3 95 96 -49 -41 -2 -93 -25 -62 -70 -9 -37 -51 -86 -74 -58 -4 -84 0
87 65 27 52 66 44 21 34 58 88 22 -35 -84 -20 -28 -33 0
21 1 57 89 59 10 23 71 68 42 62 43 81 51 95 47 -46 -58 -92 -84 -14 -30 -19 -3 0
74 40 93 39 2 46 78 88 95 50 10 5 70 56 1 54 82 22 7 68 44 17 59 3 37 60 8 34 23 35 42 53 43 61 77 51 -91 -76 -92 -31 -89 -52 -48 -62 -45 -81 -86 -67 -71 -58 -29 -30 -57 -41 -72 -26 -75 -32 -11 -87 -47 -27 -25 -94 -73 -20 -19 -80 -49 -69 -90 -12 -63 -55 -4 -79 -36 -84 -9 -85 -24 -21 -15 -38 -33 -28 -14 -18 0
25 85 83 69 77 78 33 10 4 32 40 52 66 92 42 -93 -56 -38 -41 -49 -84 -30 -82 -68 -47 -1 -70 -17 -11 -74 -3 -89 -50 0
95 86 12 76 61 7 2 89 63 20 3 37 57 79 84 41 44 15 45 53 30 65 77 78 50 48 26 59 73 94 28 27 92 5 1 43 83 49 81 85 60 24 6 91 11 32 40 67 87 -19 -21 -36 -80 -31 -90 -70 -16 -82 -52 -35 -38 -56 -62 -71 -23 -69 -42 -9 -39 -55 -17 -18 -14 -25 -34 -13 -22 -74 -75 -4 -47 -66 -33 -93 -58 -29 -51 0
96 61 52 80 39 3 49 16 92 2 15 59 86 87 26 24 81 43 32 77 65 66 31 44 70 27 63 85 -55 -30 -7 -9 -48 -78 -29 -89 -57 -93 -11 -4 -36 -41 -79 -47 -74 -28 -84 0
67 18 43 4 16 74 24 71 93 62 23 3 49 39 42 50 26 8 37 13 36 55 34 9 12 88 58 -84 -57 -81 -32 -7 -59 -10 -94 -19 -33 -29 -92 -91 -35 -60 -51 -47 -80 0
36 14 85 92 10 62 83 57 24 50 42 87 93 -7 -27 -45 -9 -68 -37 -77 -12 -82 -64 -20 -38 -8 0
80 4 69 54 27 26 85 2 71 59 62 94 82 12 20 96 63 19 88 42 43 29 74 32 93 68 76 65 22 34 78 70 -86 -58 -77 -90 -92 -48 -28 -67 -5 -50 -44 -18 -56 -83 -57 -17 -21 -31 -84 -15 -14 -66 -23 -73 -7 -37 -91 -24 -13 -87 -52 0
28 51 49 80 93 42 17 57 48 -43 -31 -10 -32 -21 -8 -2 -23 -46 -69 -20 -34 0
21 48 32 71 65 74 15 47 51 24 13 60 73 92 26 75 33 61 -85 -58 -91 -45 -7 -20 -8 -63 -76 -12 -42 -94 -36 -53 -79 -43 -49 -22 -16 -30 -37 0
83 56 25 93 32 17 54 47 30 31 39 59 20 46 6 81 16 65 91 33 87 1 70 36 49 75 22 51 92 5 45 78 35 34 10 27 71 7 -28 -21 -79 -60 -2 -4 -38 -3 -63 -26 -69 -90 -86 -53 -18 -12 -50 -77 -19 -15 -9 -72 -11 -67 -24 -61 -94 -74 -29 -80 -89 -57 -88 -64 -66 -8 -55 -14 -96 -41 0
87 69 6 58 77 46 95 67 -36 -64 -12 -15 -75 -20 -22 0
63 41 31 64 53 32 76 18 47 20 95 55 43 22 87 40 96 38 28 54 48 91 26 67 70 90 12 77 34 86 81 3 30 61 -24 -79 -52 -46 -75 -59 -6 -21 -62 -72 -71 -13 -19 -82 -16 -80 -65 -29 -5 -89 -68 -83 -60 -25 -66 -10 -51 -56 -35 -8 0
85 50 19 47 82 71 7 48 15 59 -4 -12 -52 -64 -16 -20 -42 -23 -91 -78 0
71 51 93 78 19 41 92 77 3 35 44 45 4 34 -76 -32 -1 -38 -52 -86 -53 -79 -22 -55 -59 -91 -62 -21 -60 -26 -95 -5 -36 -20 -13 -18 0
48 96 87 59 79 42 47 16 53 9 89 32 6 64 62 35 21 94 92 46 52 93 1 30 4 60 19 33 34 41 58 11 65 38 67 63 51 76 25 81 -8 -91 -69 -36 -75 -66 -80 -43 -74 -23 -2 -40 -27 -7 -70 -24 -84 -82 -15 -85 -10 -90 -3 -72 -57 -20 -26 -88 -56 -54 -17 -68 -29 0
93 23 20 32 40 76 35 18 5 65 34 27 66 59 29 9 44 83 25 28 49 36 -47 -73 -15 -75 -11 -96 -56 -42 -17 -61 -39 -48 -82 -57 -58 0
53 42 8 26 86 68 16 88 -41 -82 -94 -93 -69 -77 -52 0
21 31 16 90 2 19 77 48 60 3 33 26 93 54 6 5 30 14 45 55 41 73 32 25 18 86 52 -34 -64 -22 -38 -82 -69 -87 -91 -20 -24 -28 -47 -36 -51 -70 -13 -66 -7 -39 -65 -8 -75 -11 -56 -40 -1 -79 -23 -58 -50 -67 -43 -84 -71 -85 -35 -92 -49 -37 -53 -42 -61 -59 0
65 32 6 29 75 74 37 28 30 82 57 58 42 48 95 39 53 27 62 14 47 66 56 3 12 55 72 93 43 92 16 76 2 70 89 24 71 44 7 81 5 64 51 45 -61 -77 -22 -63 -49 -88 -90 -40 -68 -1 -60 -4 -80 -85 -8 -46 -94 -17 -54 -31 -52 -69 -86 -34 -67 -15 -21 -23 -73 -25 -33 -35 -59 -84 -19 -13 -38 -11 -50 -18 -9 -96 -78 -20 -10 -83 -36 -26 -41 -87 -91 0
75 50 83 35 26 73 91 57 42 89 70 52 71 36 23 33 7 -4 -17 -65 -60 -13 -49 -80 -34 -16 -46 -44 -76 -94 -40 -28 -15 -68 0
6 63 94 2 16 32 39 4 62 51 1 92 48 11 65 77 -82 -83 -72 -37 -61 -50 -79 -26 -8 -14 -52 -53 -18 -21 -7 -31 -28 -73 -24 -45 -89 -23 0
90 88 51 76 71 34 36 47 44 10 50 70 67 65 28 13 82 53 80 95 37 59 33 85 91 62 -92 -55 -7 -77 -69 -6 -11 -72 -52 -61 -16 -46 -54 -38 -73 -66 -20 -8 -18 -30 -4 -41 -43 -26 -93 0
29 73 61 39 25 53 86 30 24 67 23 84 76 45 94 35 22 12 16 50 49 21 2 -27 -65 -91 -62 -90 -77 -7 -13 -96 -88 -81 -43 -17 -41 -59 -42 -8 -95 -37 -79 -51 -75 -52 -20 -78 -87 0
91 45 1 6 59 62 74 23 73 67 65 68 40 47 5 38 24 29 31 28 86 4 26 12 3 75 83 19 60 10 80 46 21 95 48 77 61 -22 -53 -43 -15 -20 -39 -11 -32 -16 -2 -89 -44 -82 -92 -8 -84 -66 -50 -9 -18 -17 -64 -52 -93 -51 -70 -69 -30 -34 -13 -63 -36 -57 -78 -90 -25 -94 -85 -35 -7 -88 -72 -76 -71 -55 -37 -79 -49 -96 -42 -58 -87 -56 -41 -54 0
18 39 78 22 87 47 80 89 88 85 63 -3 -34 -7 -45 -19 0
60 75 70 40 22 43 -4 -50 -92 -26 -57 -27 0
60 56 28 90 15 10 50 54 64 6 59 8 37 39 78 1 42 89 29 11 69 49 48 -19 -30 -44 -72 -17 -73 -26 -71 -16 -51 -65 -18 -87 -12 -31 -95 -13 -2 -91 -94 -66 -38 -5 -81 -20 -93 -80 -53 -85 -25 -41 -83 -46 -96 0
79 1 14 8 43 53 23 11 7 16 70 58 47 22 77 37 72 15 68 44 30 38 31 -67 -18 -82 -24 -60 -55 -75 -65 -33 -62 -89 -80 -32 -25 -48 0
13 16 43 39 33 79 81 35 24 40 29 53 55 -89 -30 -10 -22 -12 -11 -88 -41 -86 -23 -58 -67 -15 -9 -27 -4 0
63 9 80 6 54 11 38 41 45 89 70 13 93 53 92 95 85 16 31 52 27 20 67 84 5 40 30 55 18 78 12 50 36 2 56 1 -17 -74 -14 -19 -81 -73 -3 -64 -83 -29 -87 -24 -75 -32 -46 -91 -79 -65 -71 -23 -47 -15 -61 -37 -43 -72 -7 -66 -88 -51 -77 -35 -28 -22 -10 -90 -44 -82 -68 -21 -49 -58 -34 0
8 13 81 32 21 96 69 88 28 74 48 87 60 35 80 6 92 31 1 83 50 71 73 14 78 3 4 58 93 59 85 46 16 68 65 82 38 29 44 10 91 33 -19 -61 -49 -64 -55 -43 -2 -86 -40 -52 -30 -54 -79 -26 -66 -53 -57 -36 -24 -37 -76 -70 -23 -47 -11 -56 -12 -39 -63 -18 -84 -25 -67 -41 -7 -75 -94 -42 -77 -9 -5 -90 -95 -20 -72 -22 -34 -17 -89 0
59 67 45 25 95 50 37 10 55 69 8 33 40 92 42 11 51 89 91 62 68 65 44 1 7 85 78 52 84 32 70 -80 -75 -5 -24 -34 -96 -90 -66 -18 -16 -30 -14 -57 -36 -12 -48 -41 -47 -83 -13 -46 -56 -31 -82 -17 -20 -73 -86 -64 -4 -79 -94 -81 -27 -74 -88 -28 -49 -15 -71 -60 0
20 73 32 38 18 74 39 12 59 9 6 82 34 83 4 48 29 65 67 62 17 61 71 51 35 86 -75 -96 -41 -95 -85 -31 -1 -57 -53 -69 -43 -10 -56 -40 -5 -23 -68 -60 -77 -28 -2 -58 -44 -80 -76 -7 -81 -66 -14 -54 -21 -26 0
65 67 22 63 75 34 85 5 84 20 95 61 82 11 47 53 91 40 39 80 96 79 89 37 -12 -51 -48 -86 -8 -28 -32 -36 -73 -87 -44 -93 -7 -30 -9 -14 -4 -72 -54 -56 -24 0
27 12 1 87 71 73 37 10 46 91 92 36 65 86 58 61 25 93 14 18 56 39 43 64 57 45 76 55 85 32 96 49 60 38 5 81 41 17 23 26 95 75 -8 -24 -80 -40 -19 -89 -34 -29 -28 -2 -88 -20 -47 -48 -90 -22 -51 -16 -83 -4 -59 -42 -13 -68 -7 -74 -44 -3 -6 -54 -50 -82 -94 -77 -66 -35 -30 -52 -69 0
82 73 12 29 32 25 96 77 41 86 81 42 78 87 47 65 89 3 31 28 9 56 50 55 68 54 22 43 62 -93 -95 -39 -72 -52 -57 -48 -33 -85 -38 -79 -2 -70 -18 -15 -30 -8 -5 -13 -90 -45 -63 -61 -88 -4 -34 -36 -37 -74 -71 -49 -44 -11 -17 -94 -58 0
5 94 77 56 63 71 8 70 68 35 75 4 67 42 11 41 69 73 -54 -61 -64 -14 -13 -32 -85 -36 -39 -43 -53 -96 -46 -30 -40 -18 -78 -80 -48 -33 -72 0
58 39 45 89 32 74 63 79 65 93 31 77 92 90 41 56 23 47 61 36 86 54 84 70 67 4 96 40 49 53 72 18 64 69 38 -16 -37 -82 -46 -95 -76 -21 -17 -10 -73 -75 -88 -48 -62 -87 -7 -26 -34 -30 -6 -71 -78 -50 -13 -55 -51 0
8 80 12 50 63 69 34 91 27 93 19 31 77 38 32 20 14 55 82 -42 -37 -2 -36 -23 -94 -70 -83 -56 -90 -71 -5 -17 -89 -18 0
74 60 24 67 81 5 73 94 59 72 12 64 10 23 71 84 46 31 30 11 33 47 40 66 91 9 83 13 86 58 20 1 69 50 92 18 44 80 2 51 48 16 79 53 88 82 62 -3 -45 -15 -89 -78 -75 -52 -65 -70 -19 -54 -8 -41 -93 -14 -49 -21 -57 -7 -36 -68 -63 -39 -90 -96 -22 -26 -87 -29 -34 -61 -25 -17 -56 -27 -55 -4 -77 -43 -32 -76 -95 -37 -85 -6 -28 -42 -38 0
14 46 13 28 93 77 84 81 73 82 39 62 32 45 24 8 19 59 41 75 31 40 89 36 71 25 2 83 80 -15 -58 -69 -17 -61 -4 -50 -47 -43 -94 -88 -52 -20 -54 -3 -55 -5 -92 -27 -95 -53 -9 -64 -56 -74 -7 -60 -48 -29 -68 -63 -42 0
88 41 96 15 2 63 66 22 18 91 45 84 74 83 60 58 57 82 4 75 8 86 59 43 54 76 17 85 39 36 68 29 16 87 62 10 6 51 9 27 46 73 37 26 38 1 72 77 94 33 -13 -42 -90 -53 -48 -55 -12 -7 -5 -78 -19 -34 -65 -95 -28 -61 -80 -92 -79 -32 -35 -81 -23 -31 -3 -25 -49 -93 -50 -56 -11 -89 -40 -20 -69 -67 -44 -52 -70 -24 -47 -71 -64 -21 -14 0
59 92 27 53 11 83 72 58 17 33 34 46 25 75 9 73 39 69 65 66 37 50 13 71 51 26 80 56 47 57 77 32 94 22 6 44 23 36 40 8 86 43 28 87 18 1 41 15 49 -35 -30 -64 -7 -78 -62 -29 -82 -88 -42 -76 -67 -2 -90 -91 -21 -3 -19 -54 -96 -10 -20 -95 -48 -68 -85 -84 -55 -61 -5 -31 -16 -14 -70 -4 -12 -81 -63 -24 -93 0
41 31 62 7 36 73 57 54 19 44 89 88 78 75 83 49 74 48 84 92 8 91 95 59 -37 -21 -69 -2 -56 -13 -66 -30 -90 0
30 16 62 52 94 10 8 20 92 3 5 12 17 31 40 56 26 81 85 29 35 41 53 55 -82 -84 -34 -58 -1 -87 -71 -6 -63 -60 -91 -27 -2 -46 -83 -66 -24 -90 -32 -49 -67 -96 -54 0
82 64 50 59 16 29 43 37 94 10 47 71 12 85 80 79 76 9 60 46 32 95 55 74 70 45 23 77 17 -39 -84 -72 -34 -56 -69 -81 -6 -3 -87 -11 -53 -61 -8 -33 -42 -49 -5 -36 -7 -86 -25 -2 -38 -63 -13 0
86 52 31 19 88 2 56 30 23 62 38 71 -89 -28 -82 -65 -63 -5 -48 -27 -44 -39 -37 0
16 13 67 76 7 82 95 5 61 -30 -68 -44 -58 -70 -46 -62 -86 -83 -56 -28 -63 -32 -24 -33 -60 0
61 68 8 35 75 44 21 6 10 33 18 -17 -14 -73 -19 -74 -96 -40 -9 -60 -27 -37 -26 -31 -63 -1 -57 -22 -95 0
91 33 18 43 34 19 95 22 73 23 15 28 53 62 24 31 16 7 56 81 11 12 58 -46 -25 -1 -8 -88 -29 -89 -72 0
4 78 -70 -25 0
75 92 31 32 15 77 43 29 -33 -68 -19 -8 -28 -35 -74 -70 -69 -47 -21 -59 0
12 91 25 54 38 29 26 14 20 80 85 6 71 41 79 -56 -16 -69 -31 -76 -75 -74 -70 -34 -1 -33 -50 0
41 39 77 8 46 88 40 55 12 51 44 24 76 69 36 68 43 21 84 5 30 23 63 42 79 32 65 91 29 66 7 61 18 20 73 1 14 2 17 70 3 93 25 4 6 31 92 89 82 34 49 45 9 56 -48 -57 -38 -47 -87 -13 -33 -59 -75 -78 -96 -50 -26 -94 -80 -64 -85 -22 -71 -15 -52 -27 -81 -10 -60 -90 -58 -86 -37 -19 -95 -62 -53 -35 -28 -74 -83 -72 0
49 67 95 70 68 60 16 53 31 80 33 74 12 38 65 18 90 11 78 34 10 28 20 14 37 23 85 21 87 93 30 76 35 -3 -91 -40 -84 -63 -24 -94 -41 -57 -52 -8 -4 -6 -96 -61 -82 -89 -5 -77 -26 -29 -2 -42 -72 -88 0
35 21 31 -50 -41 -6 -74 -48 0
53 14 92 96 43 48 67 64 57 12 50 33 42 73 1 6 23 86 27 15 60 75 55 3 5 4 21 40 31 62 30 65 85 8 83 9 91 10 95 37 -76 -17 -51 -32 -90 -70 -89 -39 -38 -18 -44 -59 -88 -11 -47 -74 -35 -20 -81 -45 -24 -49 -68 -71 -25 -61 -80 -58 -19 -7 -34 -29 -22 -26 -63 -84 -82 -2 -54 -13 -87 -52 -16 -93 0
53 75 37 11 89 25 23 24 83 93 35 7 14 44 73 4 32 15 22 77 45 51 70 38 5 -95 -64 -46 -78 -60 -58 -29 -87 -39 -30 -76 -42 -59 -54 -72 -49 -63 -86 -16 -26 -34 -91 -56 -79 0
1 59 33 67 45 8 90 77 18 23 16 79 86 27 36 21 25 57 30 93 96 48 42 12 58 66 83 13 20 65 40 34 72 26 92 9 71 73 2 44 46 61 76 89 29 88 35 41 91 28 84 69 32 74 5 82 -4 -62 -81 -70 -94 -31 -19 -54 -38 -37 -10 -87 -11 -7 -43 -6 -53 -3 -68 -15 -55 -63 -14 -60 -56 -51 -39 -75 -49 -52 -22 -64 -47 -95 -78 -17 -80 -85 0
36 67 -89 -86 0
27 1 8 90 70 14 86 13 48 89 74 10 15 60 2 75 45 44 25 56 30 3 22 43 17 95 55 47 69 77 19 35 40 46 37 38 93 88 -31 -82 -94 -68 -85 -7 -63 -59 -62 -34 -21 -32 -42 -53 -24 -91 -83 -61 -64 -66 -6 -29 -67 -58 -11 -39 -57 -5 -80 -54 -36 -28 -92 -72 -84 -73 -76 -26 -49 -41 -52 -33 -20 -18 0
23 38 29 83 85 72 75 58 59 92 93 24 8 70 66 44 32 61 65 54 5 48 71 9 94 67 82 13 40 -86 -47 -4 -2 -49 -15 -41 -80 -26 -31 -42 -12 -11 -51 -69 -28 -62 -53 -30 -17 -10 -46 -96 -55 -95 -87 -19 -78 0
40 61 47 96 83 -71 -64 -6 -2 -29 -13 -93 -69 0
3 91 18 74 46 67 17 52 -53 -77 -90 -27 -44 -57 -42 -51 -83 0
62 23 14 57 55 85 93 91 40 20 7 3 31 66 86 24 71 49 43 -27 -32 -79 -63 -47 -46 -95 -65 -51 -69 -9 -8 -64 -29 -53 -33 -15 -18 -5 -16 -48 -82 -89 -25 0
7 41 36 16 53 9 85 88 68 19 38 78 20 33 4 17 8 62 83 -72 -12 -32 -27 -73 -49 -40 -66 -80 -92 -75 -28 -2 -51 -86 -30 -70 -13 0
65 27 81 73 47 10 14 85 60 82 6 59 12 83 38 45 55 23 37 33 87 7 74 42 11 66 21 2 30 -18 -50 -22 -86 -4 -44 -75 -88 -9 -48 -39 -71 -54 -84 -91 -95 -28 -56 -43 -52 -58 -69 -53 -62 -79 -57 -80 -24 -78 -29 -67 -90 0
16 93 8 95 18 89 30 43 28 83 74 6 42 87 96 94 53 59 15 80 44 36 50 40 90 3 63 86 67 9 14 23 25 24 33 22 62 77 10 51 45 11 79 31 60 58 29 13 72 1 65 68 52 12 4 -92 -49 -26 -56 -7 -88 -75 -70 -38 -37 -41 -19 -91 -34 -76 -69 -35 -61 -17 -55 -2 -57 -47 -39 -54 -32 -66 -73 -27 -20 -81 -48 -5 -84 -78 0
29 67 3 92 48 93 71 86 62 11 88 68 19 8 4 58 64 10 44 47 38 49 78 14 51 35 85 21 18 89 57 -25 -72 -1 -31 -13 -45 -20 -12 -66 -74 -55 -7 -41 -30 -32 -9 -22 -61 -40 -76 -77 -70 -80 -90 -37 -94 -15 -23 -87 -79 -17 -60 -81 -24 -2 -73 -84 -43 -75 -59 -39 0
91 64 18 62 73 75 15 23 30 54 70 35 45 17 33 68 87 71 76 88 41 40 85 -74 -81 -6 -72 -44 -61 -9 -29 -79 -2 -86 -50 -20 -26 -94 -46 -37 -12 -53 -19 -42 -13 -24 -60 -67 0
5 16 56 32 42 2 37 29 57 86 59 17 41 8 25 30 54 14 40 65 80 43 90 -31 -24 -92 -15 -26 -49 -64 -51 -94 -48 -93 -70 -33 -46 -71 -69 -21 -11 -18 -66 -53 -72 -95 -9 -6 -77 -55 -20 0
30 69 51 61 85 76 22 28 2 54 60 20 7 84 87 39 63 6 66 50 78 31 71 83 94 88 9 56 93 72 -24 -53 -89 -33 -3 -55 -16 -46 -95 -12 -57 -10 -74 -15 -43 -27 -38 -82 -73 -75 -92 -18 -65 -52 -11 -19 0
87 46 47 15 78 29 79 93 85 28 10 25 31 80 54 83 39 77 14 22 38 55 30 86 -61 -89 -41 -65 -74 -24 -82 -48 -20 -95 -75 -33 -19 -51 -70 -44 -42 -23 -59 -18 -88 -21 -2 -64 -63 -12 -96 -52 -60 -17 -92 -56 0
96 68 92 54 83 11 78 38 12 47 57 8 17 81 16 22 76 34 53 9 90 -37 -85 -82 -67 -20 -75 -56 -59 -91 -63 -66 -84 -55 -4 -60 -24 -93 0
38 63 95 80 31 77 84 91 25 10 71 61 46 68 13 90 27 19 83 8 54 4 94 48 18 55 89 87 11 65 14 33 85 -41 -74 -24 -72 -6 -86 -44 -81 -21 -15 -52 -49 -20 -34 -66 -40 -45 -43 -59 -47 -17 -23 -75 -32 -26 -35 -36 -78 -57 0
38 10 1 19 3 46 84 57 62 48 31 12 90 63 78 91 64 41 55 94 80 39 49 89 88 22 13 82 66 47 33 11 17 21 73 60 9 69 72 32 83 7 27 36 5 -79 -2 -4 -76 -54 -40 -29 -71 -95 -35 -23 -44 -85 -42 -25 -65 -14 -58 -53 -61 -81 -67 -18 -51 -93 -28 -34 -16 -59 -45 -50 -30 -92 -8 -6 -37 -52 -20 -77 -68 -74 -26 -87 -96 -86 -56 0
20 23 82 43 41 33 52 88 25 35 17 38 15 39 92 1 8 31 -73 -50 -53 -27 -66 -86 -69 -48 -55 -62 -12 -67 -70 -22 -65 0
31 62 39 81 43 88 19 65 35 96 36 48 21 11 23 4 64 80 83 70 49 12 -30 -34 -20 -40 -87 -63 -54 -90 -82 -61 -71 -24 -67 -29 -66 -55 -72 0
79 13 72 18 5 69 90 51 6 34 22 80 63 17 84 15 65 62 61 81 53 87 16 29 82 48 21 88 91 8 83 36 38 64 35 89 4 50 23 93 55 92 -26 -19 -10 -86 -75 -27 -45 -33 -11 -24 -1 -47 -14 -37 -77 -9 -95 -39 -57 -2 -25 -71 -58 -49 -30 -60 -41 -68 -94 -85 -3 -44 -66 -76 -73 -28 -70 -42 -12 -56 -7 -52 -43 -54 -32 0
55 13 -56 0
6 22 14 27 4 80 50 94 34 45 87 7 18 70 1 72 47 54 46 40 91 39 66 51 17 20 71 83 42 74 79 86 73 55 26 65 21 25 84 32 19 48 23 93 -89 -2 -96 -57 -59 -33 -76 -41 -56 -75 -90 -31 -62 -60 -58 -11 -49 -5 -37 -53 -69 -9 -15 -95 -10 -63 -78 -8 -28 -44 -67 -16 -13 -88 -92 -35 -29 -43 -68 0
4 45 26 85 95 17 10 51 48 43 86 94 5 55 42 9 87 59 44 80 32 -54 -70 -84 -56 -82 -19 -92 -96 -40 -23 -61 -1 -50 -3 -89 -90 -20 -31 -35 -72 -93 -25 -8 -57 -39 -27 0
15 46 -45 0
95 18 87 81 82 51 25 89 65 1 -29 -53 -43 -85 -4 -67 -96 -7 -31 -91 -34 -26 0
71 63 54 29 95 37 23 72 22 16 82 80 3 26 34 74 48 40 64 15 8 2 90 53 66 9 28 52 62 73 47 61 11 56 86 41 96 44 30 79 17 36 84 81 14 46 24 13 65 -77 -83 -32 -18 -88 -85 -12 -49 -33 -4 -89 -92 -10 -43 -39 -78 -45 -20 -31 -5 -51 -1 -50 -55 -59 -69 -38 -21 -60 0
66 69 12 13 89 96 84 29 95 57 59 14 77 92 93 63 11 36 70 50 68 31 52 23 30 47 61 87 35 51 71 88 72 4 39 15 24 55 54 67 17 22 34 38 37 -8 -62 -81 -90 -75 -42 -83 -10 -33 -65 -64 -79 -73 -48 -26 -21 -5 -2 -32 -86 -82 -25 -1 -46 -3 -20 -6 -56 -40 -76 -85 -91 -44 -78 -16 -58 0
93 1 27 52 62 84 61 79 66 16 37 7 90 43 75 72 50 42 9 51 44 15 96 94 92 4 29 71 95 68 14 31 33 -91 -35 -26 -8 -12 -25 -63 -77 -80 -48 -64 -36 -20 -78 -17 -38 -54 -18 -11 -28 -59 -88 -69 -22 -56 -6 -10 -34 -19 -73 -39 -82 0
2 55 52 65 36 56 59 41 34 58 87 31 24 4 43 79 70 64 35 69 82 76 29 45 46 21 90 60 11 84 8 66 -9 -7 -86 -12 -27 -80 -23 -72 -62 -92 -74 -38 -71 -50 -67 -47 -19 -39 -53 -49 -54 -14 -96 -17 -25 -33 -22 -91 -75 -28 -73 -18 -10 -30 -44 -77 -13 -94 -85 -5 -88 -81 -78 -42 -68 -32 -51 -16 -20 -15 -1 -61 0
10 49 26 47 71 33 62 27 57 44 90 94 40 95 80 4 86 34 -72 -21 -50 -43 -93 -36 -15 -45 -64 -68 -16 -65 -78 -30 -42 -58 -38 -67 0
57 15 76 45 4 73 70 89 34 9 66 79 53 7 1 92 86 58 -35 -61 -82 -91 -44 -71 -72 -69 -23 -64 -42 -63 -6 -88 -3 -87 -24 -8 -84 -28 -67 -13 -65 -14 -81 -36 -59 -68 -50 0
42 83 55 51 63 18 20 4 96 16 89 -7 -12 -26 -38 -29 -37 -41 -64 -73 -91 -81 -14 -92 -25 0
30 56 32 82 -68 -81 -90 -85 0
57 39 3 6 33 44 81 18 94 90 77 22 32 61 10 76 2 27 12 14 15 75 92 80 70 24 4 23 58 30 41 69 28 8 86 37 9 85 91 82 40 -47 -93 -79 -49 -21 -89 -51 -25 -88 -59 -84 -60 -74 -5 -16 -13 -31 -11 -29 -83 -95 -55 -20 -78 -71 -19 -56 -1 -34 -63 -7 -17 -26 -53 -42 -68 -45 -87 -50 -43 -36 -66 -54 -48 -65 -52 -46 0
67 72 37 15 24 89 2 14 62 10 20 38 69 60 21 53 27 51 19 58 46 13 43 61 49 75 32 44 17 66 70 86 25 45 31 95 26 35 78 11 55 68 30 28 4 77 81 3 -91 -18 -50 -7 -87 -22 -85 -96 -8 -71 -80 -29 -90 -23 -94 -74 -39 -33 -42 -41 -93 -73 -48 -57 -92 -12 -88 -54 -63 -59 -6 -76 -5 -52 -34 -9 -40 -79 -64 -36 -1 -47 0
7 56 13 92 4 88 72 65 80 36 60 24 84 27 42 64 81 39 10 44 85 59 33 34 46 41 91 19 5 -38 -86 -17 -23 -3 -9 -62 -53 -79 -52 -82 -2 -15 -96 -50 -29 -78 -11 -14 -40 -12 -68 -75 -35 -6 -16 -57 -76 -25 -45 -18 -70 0
7 92 56 77 72 61 30 46 82 75 3 94 37 65 88 38 55 39 68 79 22 67 24 69 25 12 8 4 57 52 58 91 95 21 35 51 13 5 87 42 -31 -60 -83 -53 -40 -20 -76 -93 -36 -28 -44 -33 -10 -2 -62 -43 -63 -81 -47 -85 -26 -80 -84 -59 -48 -34 -9 -73 -19 -70 -29 -6 -71 -15 -54 -17 -41 -45 -32 -78 -49 -50 -27 -90 -96 -18 -86 -16 -66 -23 -64 -74 0
35 17 55 51 8 42 44 31 95 79 83 -25 -30 -41 -82 -52 -64 0
15 61 5 18 95 57 88 92 1 69 75 31 52 10 85 49 4 43 62 38 17 68 7 82 41 33 14 96 25 40 28 42 3 55 -66 -11 -13 -23 -34 -73 -36 -48 -59 -76 -51 -65 -81 -44 -8 -93 -64 -45 -12 -60 -26 -16 -54 -2 -74 -47 -30 -9 -24 -78 -37 0
93 38 77 55 87 -88 -45 -40 -24 -60 0
3 43 15 83 -75 -30 -37 -36 -58 -20 -64 0
37 43 52 54 7 38 5 66 22 10 86 42 39 21 1 55 84 -13 -16 -64 -2 -73 -65 -58 -72 -28 -32 -78 -91 -17 -75 -50 -70 -48 -36 0
30 90 2 9 55 76 24 26 72 7 23 94 66 78 54 41 28 56 89 75 47 -64 -80 -58 -51 -25 -34 -96 -45 -69 -38 -57 -79 -36 -35 -86 -74 -44 -42 -11 -39 -83 -1 -31 -60 0
41 91 87 57 54 53 4 -42 -50 -29 -90 -65 -3 -38 -15 -71 0
90 50 37 35 84 63 36 31 14 89 15 80 59 77 78 70 91 8 9 51 40 76 26 7 53 48 65 67 30 33 46 45 60 47 19 43 87 81 24 16 49 -23 -52 -38 -86 -61 -96 -25 -71 -18 -73 -64 -83 -5 -20 -88 -62 -3 -32 -44 -13 -69 -28 -11 -41 -94 -12 -27 -2 0
6 45 68 73 29 17 65 52 1 81 10 83 57 53 93 56 88 31 43 84 27 60 42 50 25 24 78 47 41 38 49 -76 -55 -36 -69 -72 -13 -80 -54 -87 -46 -92 -40 -77 -95 -28 -16 -51 -89 0
49 4 33 58 61 46 38 48 42 86 62 77 80 28 70 29 73 66 82 41 -13 -7 -71 -22 -78 -20 -60 -65 -59 -12 -9 -26 -21 -32 -93 -1 -85 -96 -5 -79 -74 -94 -81 0
2 53 -5 -52 -24 0
81 89 31 76 -82 -4 -34 -71 0
20 76 30 42 90 80 83 47 43 75 60 68 96 70 31 13 46 -59 -3 -82 -39 -21 -38 -28 -91 -73 0
80 24 67 64 12 95 41 16 76 27 44 74 34 10 40 42 69 59 60 61 5 29 7 3 25 20 28 68 17 9 11 14 19 23 18 -58 -72 -85 -6 -94 -92 -46 -91 -82 -73 -49 -36 -39 -55 -13 -75 -15 -37 -30 -48 -77 -78 -62 -8 -35 -79 -22 -53 -38 -31 -32 -4 -52 -90 -63 -87 -70 -89 -54 -50 -65 -21 -51 0
54 96 71 25 46 6 2 39 77 95 16 93 14 81 18 8 51 68 11 79 47 76 26 82 62 49 56 78 27 84 88 75 52 10 86 23 -15 -3 -42 -48 -94 -41 -80 -22 -87 -53 -66 -89 -64 -43 -70 -34 -33 -40 -1 -7 -45 -37 -12 -19 -59 -73 -44 -74 -91 -50 -24 -90 -85 -29 -72 -31 -32 -57 -38 -83 -21 -4 0
79 43 24 87 42 35 23 61 55 65 52 41 86 49 1 77 48 40 -30 -31 -38 -11 -62 -20 -25 -56 -13 -29 -76 -80 -26 -28 -93 -68 -89 -3 -92 -37 -67 0
44 95 48 84 57 24 75 19 78 17 36 96 92 3 80 64 43 54 1 2 40 22 -59 -42 -74 -6 -26 -60 -23 -35 -8 -12 -91 -34 -25 -63 -94 -4 -62 -68 -88 -47 -79 -11 -27 -93 -87 -16 -53 -65 -38 0
19 9 42 60 11 54 14 29 64 39 32 88 21 24 93 8 25 85 10 49 63 96 84 94 38 1 65 95 56 2 16 82 43 73 69 4 17 30 44 5 78 83 -62 -34 -72 -33 -80 -22 -87 -90 -77 -48 -35 -6 -86 -74 -15 -51 -58 -46 -76 -50 -57 -75 -36 -79 -81 -7 -52 -28 -12 -27 -45 -23 -71 -18 -13 -66 -89 -40 -67 -61 0
76 6 12 38 51 39 61 18 68 53 22 35 49 30 17 1 27 15 5 31 32 33 14 9 -71 -29 -70 -58 -87 -94 -40 -96 -11 -37 -36 -72 -93 -8 -92 -44 -45 -4 -59 -83 -19 -41 -57 -82 -80 -16 -52 -95 -62 -48 -90 -23 -55 -28 -47 -64 -66 -78 -91 -73 0
13 50 66 18 73 69 78 92 55 77 46 80 63 7 14 83 52 35 9 72 88 19 89 94 25 36 32 33 67 17 26 38 5 44 1 4 62 91 48 71 11 2 3 42 40 49 82 34 64 59 -6 -87 -43 -86 -68 -8 -53 -70 -57 -95 -74 -30 -21 -54 -27 -23 -41 -45 -39 -79 -47 -37 -96 -22 -10 -51 -76 -93 -85 -61 -12 -84 -75 -20 -56 -24 -15 -28 -29 -90 -81 -60 -65 0
20 58 8 50 93 78 70 36 43 33 71 92 54 2 40 41 1 80 81 42 90 67 56 59 13 7 35 38 16 9 18 60 23 -22 -77 -34 -44 -89 -25 -15 -74 -62 -87 -55 -68 -19 -84 -64 -85 -94 -52 -14 -47 -96 -61 -49 -46 -95 -83 -69 -5 -26 -75 -65 -66 0
67 30 90 5 16 27 18 48 38 34 10 23 74 35 29 -44 -20 -4 -19 -78 -26 -12 -9 -93 -40 -57 -54 -51 0
84 50 59 87 14 47 38 28 65 6 35 43 39 55 40 74 79 67 70 30 2 96 44 20 78 91 58 7 25 48 61 5 54 85 64 77 94 69 56 -42 -8 -63 -41 -68 -21 -95 -51 -45 -23 -10 -24 -86 -75 -72 -33 -52 -3 -17 -66 -9 -32 -76 -27 -60 -83 -81 -13 -90 -37 -88 -62 -18 -26 -89 -73 -34 -92 -16 -53 -80 -57 -19 -12 -36 -71 -49 -11 -29 -15 0
26 58 17 25 11 12 18 56 71 89 28 87 76 44 23 62 27 79 42 83 19 96 52 31 14 34 9 70 2 94 46 73 5 -6 -86 -33 -61 -63 -49 -60 -84 -10 -48 -21 -3 -88 -64 -13 -41 -43 -93 -74 -50 -32 -1 -15 -55 -7 -65 -45 -69 -91 -75 -82 -39 -77 -95 -92 -67 -53 0
62 52 19 68 61 44 92 38 -28 -2 -87 -80 -22 -55 -83 -30 -78 -1 -12 -34 -47 -66 -24 -91 -48 -32 -15 -74 0
42 28 5 86 63 -49 -81 -16 -40 -76 0
71 15 -74 -10 -83 -49 0
88 74 26 34 -10 -18 -64 -76 -54 -6 -84 -53 -49 -25 -55 -69 -67 -1 -11 0
25 7 28 40 13 60 70 30 19 80 53 81 49 57 95 54 91 96 77 65 4 84 20 86 35 50 88 32 75 47 10 85 83 42 68 59 5 23 17 -92 -16 -18 -24 -26 -48 -71 -51 -93 -52 -76 -6 -44 -66 -69 -38 -14 -37 -64 -12 -3 -1 -61 -33 -90 -15 -46 -22 -73 -8 -41 -39 -87 -63 -74 -34 -78 -89 -72 -21 -94 -9 -62 -36 -79 -82 -56 0
73 96 86 65 32 62 37 10 67 81 42 68 76 72 26 85 24 -93 -58 -57 -1 -15 -74 -36 0
72 92 16 52 67 30 91 78 89 10 -32 -27 -34 -21 -88 -38 -15 -82 -64 -79 -59 -44 0
71 94 77 67 36 64 9 51 4 5 45 66 47 16 20 10 84 68 24 30 86 53 12 52 21 32 43 23 90 38 -7 -48 -13 -82 -58 -2 -3 -35 -59 -56 -73 -37 -49 -34 -87 -69 -85 -42 -78 -79 -28 -88 -83 -61 -15 -26 -54 -62 -19 -57 -18 -75 -95 -80 -74 -40 -27 -1 0
55 33 14 62 3 16 43 36 54 50 88 13 66 4 10 31 63 35 75 23 91 37 82 73 56 76 78 6 80 72 79 67 7 21 44 12 64 20 74 19 8 61 9 89 92 65 -90 -39 -26 -46 -84 -57 -42 -71 -48 -30 -38 -40 -53 -29 -94 -60 -18 -25 -49 -5 -68 -28 -69 -17 -85 -27 -83 -58 -51 -24 -81 -2 -22 -95 -87 -41 -96 -32 -1 -47 -52 -70 -59 0
63 14 17 -30 -90 -32 -71 -1 0
24 59 16 79 20 94 6 83 28 54 82 22 15 25 35 73 3 33 76 8 -48 -39 -70 -29 -67 -91 -36 -93 -37 -96 -60 -41 -52 -61 -46 -77 0
56 86 63 19 43 70 41 60 13 73 54 8 17 44 51 35 75 61 22 91 72 -55 -49 -10 -21 -76 -77 -47 -52 -31 -2 -37 -96 -4 -7 -40 -14 -80 -11 -9 -67 -46 -59 0
70 48 33 79 36 80 56 94 42 45 46 47 20 59 -39 -29 -18 -4 -92 -64 -60 -84 -85 -51 -44 -12 -65 -62 -67 0
41 33 12 54 80 3 66 93 21 32 45 28 10 56 34 61 90 20 29 40 43 62 78 52 -4 -1 -22 -69 -85 -70 -49 -36 -48 -30 -8 -44 -73 -35 -9 -68 -19 -14 -86 -58 -72 -13 -83 -25 -39 -15 -96 -57 -71 -26 0
6 79 37 52 85 -60 -38 -67 -18 -32 -55 0
78 32 96 51 10 -53 0
87 79 42 4 28 -35 -24 -64 -20 -77 -83 -40 -50 -14 0
-59 -82 -89 -27 0
91 1 48 5 67 93 61 95 78 22 7 63 47 74 45 85 69 75 41 49 25 70 4 92 36 10 30 3 53 60 62 11 68 32 42 17 79 96 59 90 58 55 76 81 84 -46 -26 -94 -9 -82 -27 -28 -21 -77 -15 -18 -14 -38 -8 -86 -65 -89 -35 -72 -23 -57 -19 -34 -87 -2 -12 -33 -20 -66 -83 -51 -56 -88 -13 -37 -43 -6 -73 -54 -64 -52 -71 -44 -29 -16 -80 0
40 53 82 46 87 58 39 94 27 11 61 63 10 15 3 81 33 -47 -32 -45 -48 -62 -59 -77 -6 -80 -78 -18 -5 -86 -56 -72 -12 -55 -25 -7 -90 -96 -9 -69 0
91 58 29 59 44 93 11 64 26 51 42 7 96 39 79 22 82 67 5 15 70 88 24 60 19 66 17 35 1 -16 -72 -77 -89 -49 -74 -33 -18 -2 -54 -46 -75 -85 -71 -43 -56 -31 -40 -12 -52 -69 -30 -73 -9 -50 -6 -87 -84 -80 -78 -48 0
20 74 56 4 10 22 8 11 27 70 7 62 2 24 16 83 84 6 72 13 61 35 93 12 29 18 86 -92 -43 -88 -28 -31 -78 -25 -53 -67 -69 -55 -39 -85 -23 -79 -71 -60 -5 -63 -49 -17 -81 -94 -76 -46 -96 0
34 76 89 13 85 62 7 66 92 33 50 19 53 47 45 42 64 63 -61 -31 -10 -74 -2 -56 -83 -95 -36 -52 -43 -11 -4 -80 -25 -18 0
21 59 14 96 93 16 88 26 64 71 19 47 77 2 51 41 18 42 73 62 8 57 58 94 39 43 32 22 37 91 74 85 49 78 11 -79 -44 -53 -72 -38 -24 -84 -15 -33 -87 -65 -23 -35 -70 -89 -66 -67 -83 -4 -80 -5 -30 -31 -61 -54 -50 -86 -92 -3 -29 -34 -68 -63 -52 -7 -69 -9 -48 -10 -56 -36 -95 -40 -75 0
51 53 56 42 26 68 2 45 73 17 78 3 82 74 -23 -94 -89 -61 -60 -47 -11 -37 -21 -39 -9 -76 -1 -77 0
74 4 91 78 79 16 70 90 43 38 45 7 55 57 50 47 68 -88 -1 -63 -65 -93 -67 -14 -46 -31 -56 -76 -17 0
71 8 48 49 47 14 -52 -1 -60 -15 -30 -72 -11 -25 -66 -80 -19 -32 -18 -22 0
25 90 69 62 79 27 58 88 95 96 7 39 63 34 21 -16 -66 -19 -33 -3 -94 -24 -26 -61 -30 -80 -54 -36 -91 -35 -2 -12 0
54 62 18 42 84 36 88 77 55 6 32 9 69 52 59 82 2 10 60 3 57 29 26 4 72 43 64 -37 -95 -56 -86 -44 -73 -39 -61 -21 -20 -41 -65 -48 -92 -89 -58 -46 -27 -5 -7 -25 -76 -74 -45 -16 -63 -94 -66 -67 -78 -83 -30 -80 -49 -17 0
28 77 18 39 -88 -41 -82 -13 -47 -11 -80 0
54 96 50 85 40 29 73 88 1 87 51 72 58 4 21 12 14 34 68 15 25 36 23 69 80 74 65 49 48 20 62 33 16 81 6 45 57 86 13 52 44 67 18 3 27 66 -60 -84 -56 -47 -2 -76 -8 -42 -92 -79 -30 -26 -39 -28 -77 -71 -11 -78 -24 -32 -46 -53 -43 -91 -61 -82 -31 -70 -63 -41 -7 -94 -90 -19 -17 -75 -64 -37 -93 0
94 79 42 43 95 6 37 38 -81 -3 -41 -22 -63 0
35 34 37 77 65 7 93 -59 -86 -63 -4 -95 -10 -67 -29 -80 -16 -62 0
78 40 54 22 16 53 70 3 64 63 41 62 15 26 -13 -77 -6 -30 -19 -55 -12 -94 -8 -29 -81 -18 -56 -28 -96 -89 -50 0
25 77 14 47 50 21 87 20 6 37 30 34 26 92 22 29 33 39 -88 -44 -46 -95 -91 -80 -72 -40 -67 -10 -2 -81 -36 -84 -70 -68 -74 -66 -58 -94 -75 -79 -57 -4 -62 -13 -64 -52 -59 -19 -69 0
12 17 73 22 74 78 10 87 31 85 7 56 81 63 43 25 2 52 89 40 55 13 42 88 41 66 62 72 38 57 20 21 36 30 65 67 19 71 96 68 3 70 83 76 23 27 48 50 14 49 45 86 -69 -58 -94 -44 -32 -91 -79 -95 -16 -9 -47 -4 -77 -39 -84 -28 -60 -18 -26 -54 -24 -80 -6 -33 -5 -53 -59 -29 -61 -1 -11 -8 -92 -82 -93 -90 -51 -46 -34 -75 -37 -64 -15 0
12 66 18 58 23 29 4 32 9 3 39 15 51 17 48 59 55 14 60 87 40 94 13 42 93 79 35 16 -54 -85 -95 -46 -27 -37 -86 -83 -33 -62 -75 -67 -77 -91 -26 -21 -89 -34 -69 -8 -24 -74 -43 -71 -88 -96 -57 -72 -80 -70 -63 -2 -6 -19 -45 -10 -64 0
39 23 73 64 2 10 90 50 85 14 60 59 8 63 -96 -29 -19 -33 -89 -27 -54 -94 -55 -6 -12 -28 -68 -36 -81 -7 -76 -62 -69 -53 -16 0
60 87 57 14 31 63 65 74 35 21 40 32 76 91 82 30 90 53 9 89 29 11 19 7 93 12 15 95 70 88 84 39 17 86 61 38 59 -94 -50 -83 -77 -20 -80 -4 -56 -49 -62 -75 -2 -33 -18 -13 -43 -52 -92 -78 -58 -23 -71 -1 -41 -85 -67 -28 -45 -36 0
74 94 22 65 59 91 11 82 89 40 43 88 31 46 54 4 48 79 62 76 93 90 71 52 57 10 78 12 80 64 87 32 72 3 17 30 6 61 16 92 96 86 53 95 9 34 15 47 -77 -84 -1 -63 -28 -44 -81 -66 -70 -67 -13 -23 -7 -73 -49 -56 -58 -35 -20 -27 -25 -75 -55 -39 -50 -14 -45 -41 -69 -29 -19 -5 -83 -18 -21 -2 -42 -8 -85 -26 -68 -60 -24 0
43 85 91 80 -79 -48 -60 -32 -74 -49 -36 -22 0
50 8 56 1 4 83 33 37 72 74 90 29 -93 -30 -23 -58 0
95 12 92 56 57 88 6 81 83 22 49 37 94 36 34 76 15 64 41 75 44 52 63 93 54 17 60 30 26 16 67 73 74 78 5 65 40 51 -70 -77 -10 -28 -25 -42 -66 -58 -19 -29 -13 -82 -33 -23 -2 -79 -24 -71 -72 -59 -14 -27 -35 -61 -90 -1 -80 -9 -89 -68 -38 -43 -50 0
15 12 56 44 78 85 65 96 53 48 20 59 92 10 37 13 81 50 26 46 6 8 68 66 62 80 93 49 30 21 77 63 91 35 39 5 45 90 -29 -64 -88 -27 -60 -70 -41 -18 -61 -87 -36 -69 -74 -83 -47 -51 -58 -23 -7 -2 -9 -52 -34 -1 -32 -84 -17 -24 -33 -38 -28 -57 -71 -16 -42 -22 -72 -54 -19 -67 -73 -4 -11 -25 -3 -89 0
23 18 67 31 77 8 96 91 82 17 78 19 44 66 89 21 83 87 81 70 26 72 10 14 73 2 16 45 76 74 5 51 11 95 85 57 24 34 65 -1 -35 -41 -37 -27 -7 -32 -30 -48 -38 -92 -56 -20 -61 -75 -64 -3 -86 -43 -69 -55 -50 -71 -93 -12 -84 -4 -54 -13 -29 0
17 31 5 89 53 56 64 9 75 40 71 45 23 25 39 65 54 48 21 78 86 34 74 4 -59 -20 -15 -43 -87 -22 -18 -13 -83 -70 -28 -44 -11 -19 -76 -55 -49 -10 -46 -32 -52 0
24 50 78 11 7 36 67 53 6 64 25 82 92 45 63 47 79 16 40 10 -8 -27 -66 -43 -71 -60 -38 -83 -20 -74 -46 -3 -29 -81 -22 0
13 52 67 95 85 65 14 57 53 47 63 31 43 -87 -41 -54 -25 -75 -62 -32 -22 -84 -38 -21 -23 -76 -78 -29 -19 -5 0
3 21 81 23 93 74 70 90 66 91 27 88 96 44 47 16 45 34 46 42 95 53 -94 -80 -19 -75 -14 -68 -67 -58 -17 -79 -9 -35 -6 -51 -15 -20 -56 -57 -25 -60 -84 -76 -43 -50 -61 -40 -59 -64 -28 0
73 40 24 81 83 5 59 -76 -37 -49 -26 -51 0
50 43 42 12 55 32 58 57 88 46 74 15 40 35 94 79 28 63 41 9 8 95 29 64 56 21 92 17 48 60 24 91 66 77 37 30 19 76 96 75 80 69 81 73 47 4 54 78 83 31 -68 -52 -6 -5 -87 -20 -61 -34 -70 -84 -27 -23 -44 -11 -25 -16 -51 -7 -10 -13 -45 -53 -65 -89 -1 -2 -85 -26 -67 -14 -33 -39 -82 -93 0
80 5 40 1 6 18 16 63 58 17 50 33 68 34 86 93 82 77 94 39 74 76 36 37 87 71 95 52 59 90 22 26 81 89 73 84 88 -64 -49 -85 -92 -41 -51 -54 -66 -27 -44 -78 -47 -91 -55 -13 -42 -14 -3 -48 -25 -24 -69 -12 -38 -57 -53 -19 -75 -7 -56 -4 -61 -11 -43 -72 -21 -46 -67 -8 0
89 83 53 73 3 58 26 94 4 33 28 93 79 70 7 96 22 10 -49 -87 -34 -51 -13 -69 -77 -86 -30 -91 -19 -47 -56 -60 -85 -71 -44 -57 -80 -25 -29 -84 0
46 75 70 87 95 12 17 57 65 4 83 45 51 56 26 14 43 72 10 27 47 78 58 38 62 5 85 1 53 96 55 29 22 42 93 52 16 82 7 71 15 59 76 61 79 50 -21 -74 -30 -28 -8 -40 -9 -64 -33 -44 -91 -35 -94 -81 -32 -66 -92 -20 -18 -48 -3 -60 -2 -25 -11 -36 -24 -86 -68 -63 -77 -13 -49 -34 -41 0
23 0
69 28 46 87 17 35 62 95 72 49 16 70 64 22 8 47 67 61 38 76 13 77 25 84 63 3 44 23 68 90 93 71 36 29 27 52 15 57 43 26 10 14 82 45 -58 -32 -51 -33 -75 -79 -41 -5 -24 -59 -56 -2 -30 -18 -34 -96 -11 -86 -54 -89 -31 -9 -88 -55 -50 -37 -12 -80 -65 -92 -40 -21 -85 -6 -42 -60 -83 -4 -73 -53 -48 -39 -19 -81 -66 -1 -94 -74 -20 -91 0
71 67 79 44 2 74 81 48 62 -36 -8 -53 -78 -37 -3 0
50 63 87 38 71 1 25 55 20 56 84 -22 -28 -18 -49 -83 -4 -70 -35 -75 -23 0
57 36 47 12 40 85 38 -29 -94 -55 -32 -30 -72 0
55 66 5 46 17 3 86 78 72 95 50 9 12 53 83 89 24 91 58 62 94 68 59 87 6 2 42 31 63 15 32 1 -35 -52 -54 -81 -40 -60 -11 -56 -33 -14 -18 -16 -64 -79 -80 -30 -27 -47 -19 -34 -38 -45 -26 -28 -4 -49 -92 -44 -8 -13 -22 -76 -7 -96 -77 -36 -73 0
9 35 22 70 56 43 45 13 69 89 66 28 1 67 65 4 10 47 16 94 20 87 6 24 68 25 77 36 74 81 37 8 39 84 83 95 50 49 -59 -51 -48 -63 -34 -91 -17 -14 -26 -90 -92 -73 -38 -72 -46 -78 -21 -88 -61 -44 -42 -32 -7 -71 -33 -57 -54 -64 -23 -2 -30 0
60 58 3 16 72 10 24 67 31 5 37 69 71 39 22 9 6 41 -80 -8 -36 -62 -47 -40 -81 -77 -87 -15 -73 -53 -1 -33 -85 -2 -63 0
72 88 14 -49 -56 -89 0
94 42 68 -53 -46 -66 -89 -19 -18 -90 0
79 5 4 55 69 87 71 91 -56 -13 -43 -8 -94 -89 -37 0
70 75 28 33 64 13 81 23 61 21 93 38 74 51 67 44 14 6 27 62 71 86 54 90 37 -10 -25 -22 -95 -17 -57 -55 -18 -46 -82 -58 -53 -83 -11 -66 -5 -45 -72 -48 -39 -92 -34 -26 -20 -24 -7 -9 -16 -63 -4 -3 -85 -80 -91 -65 -42 -68 -43 0
41 73 74 42 53 49 30 91 63 62 61 25 23 67 24 11 94 58 18 20 31 57 88 86 12 5 22 66 28 36 87 78 1 59 -19 -10 -32 -7 -54 -37 -80 -93 -52 -15 -79 -34 -92 -14 -71 -96 -26 -35 -90 -84 -95 -44 -89 -82 -48 -3 -38 -72 -8 -51 -46 -47 -40 -29 -81 -9 -76 -55 -64 -85 -16 0
73 11 91 30 36 20 41 74 79 22 72 78 82 63 25 56 42 77 15 62 87 18 14 55 88 -94 -45 -54 -52 -68 -29 -40 -28 -1 -48 -21 -2 -34 -44 -58 -85 -38 -93 -76 -51 -50 -17 -35 -84 -24 0
9 36 10 54 50 33 21 61 49 79 34 12 17 25 26 45 77 89 75 28 52 86 -3 -11 -87 -91 -44 -46 -94 -64 -73 -93 -8 -5 -53 -72 -37 -27 -23 -65 -92 -35 -14 0
19 21 90 20 64 -34 -95 -2 -65 -89 -13 -79 -57 0
55 -82 0
95 38 70 53 96 72 9 78 43 89 1 63 86 47 62 29 28 48 15 81 41 22 23 32 55 59 10 83 76 50 19 36 4 17 67 7 40 6 -77 -92 -87 -57 -52 -46 -11 -24 -18 -34 -85 -65 -79 -20 -75 -31 -25 -60 -2 -80 -58 -73 -14 -8 -90 -45 -35 -49 -44 -16 -37 -64 -12 -26 -88 0
61 62 90 34 96 58 93 86 81 73 13 83 35 76 49 33 11 50 64 38 92 20 71 26 53 18 1 -17 -82 -54 -46 -60 -80 -10 -27 -69 -9 -3 -75 -57 -19 -42 -74 -30 -88 -41 -85 -66 -65 -45 -23 -94 -67 -5 -72 -31 -59 -15 -87 -91 -43 -8 -36 -68 -95 -6 -89 -39 -70 -29 0
56 49 75 1 53 79 76 59 78 46 23 66 18 2 80 4 3 84 41 62 40 85 89 43 31 28 54 -64 -61 -92 -34 -82 -47 -20 -88 -60 -24 -93 -21 -87 -39 -67 -30 -48 -73 -29 -36 -83 -70 -65 -33 -22 -37 -16 -52 -12 -69 -86 -38 0
50 13 71 26 93 58 86 32 88 94 6 43 28 4 2 53 17 49 39 38 68 77 15 45 72 65 95 -22 -76 -85 -3 -9 -7 -8 -59 -55 -27 -44 -63 -23 -96 -69 -48 -92 -67 -51 -54 -25 -30 -61 -10 -83 -12 -41 -64 -14 -33 -82 -75 -46 0
52 66 32 73 75 15 16 23 92 55 68 89 5 54 85 46 86 35 18 83 87 90 21 47 27 59 82 33 58 2 -29 -76 -61 -67 -93 -42 -37 -17 -40 -70 -45 -71 -39 -79 -28 -81 -44 -13 -20 -30 -77 -3 -51 -65 -4 -62 -38 -6 -84 -56 -8 -25 -26 -57 -11 -19 -64 0
5 13 67 81 33 7 19 88 61 79 -64 -30 -90 -45 -86 -46 -27 -42 -24 -71 -73 -8 -10 0
77 70 48 11 47 74 8 76 69 14 44 79 50 80 90 58 61 94 78 66 86 43 41 91 30 72 73 46 1 31 40 -54 -33 -39 -29 -75 -35 -25 -84 -63 -10 -68 -56 -9 -89 -87 -64 -27 -62 -21 -4 -57 -13 -52 -36 -12 -88 -37 0
81 76 86 77 55 80 45 -10 -60 -12 -74 -33 -8 0
65 28 56 50 23 80 8 63 68 47 85 20 21 7 43 91 5 33 6 64 71 49 67 1 40 70 60 3 66 89 75 90 32 29 74 69 13 45 62 51 41 46 -35 -53 -95 -10 -92 -94 -11 -44 -55 -77 -15 -73 -2 -52 -38 -31 -30 -42 -78 -17 -22 -54 -79 -16 -4 -18 0
65 14 9 55 44 46 3 81 50 63 56 93 61 67 38 89 20 76 72 52 57 24 85 71 36 1 13 37 54 34 78 2 18 96 83 30 77 87 26 43 17 -39 -40 -27 -58 -75 -60 -29 -22 -51 -16 -23 -42 -47 -64 -19 -31 -91 -49 -53 -28 -74 -32 -92 -45 -90 -8 -73 -25 -35 -62 -41 -70 -6 -88 -10 -5 -86 -68 -69 -84 -66 -59 0
31 91 74 55 77 66 8 10 68 3 56 6 64 79 53 62 96 88 84 2 11 63 58 30 76 7 60 4 52 81 59 89 15 17 27 23 35 67 36 19 5 28 9 83 48 71 -50 -92 -78 -40 -29 -24 -47 -39 -72 -1 -69 -37 -95 -16 -85 -20 -43 -57 -32 -45 -93 -65 -21 -22 -70 -38 -49 -25 -82 -34 -75 -61 -44 -41 -33 -73 -46 -12 -13 -42 -26 -94 -86 -90 -51 -80 -54 0
67 42 48 14 33 5 1 30 25 54 2 6 7 61 77 50 34 74 94 53 64 90 56 28 80 29 9 31 17 39 10 83 4 15 63 91 69 62 87 37 71 -19 -85 -13 -72 -73 -88 -41 -58 -47 -95 -32 -8 -86 -70 -40 -52 -75 -49 -24 -59 -38 -18 -16 -51 -81 -84 -76 -65 -46 -26 -43 -3 -55 -89 -21 -44 0
53 95 67 8 70 47 65 82 2 27 88 32 21 91 16 68 76 77 4 7 51 58 85 94 17 79 26 64 13 90 44 71 35 78 84 86 -23 -31 -12 -34 -18 -6 -33 -69 -41 -75 -49 -80 -28 -52 -25 -24 -3 -81 -14 -74 -50 -46 -11 -43 -37 -96 -56 -36 -89 -83 -45 -39 -9 -72 -73 -57 -22 -92 -15 -30 -54 -61 -38 -87 0
69 59 83 17 2 9 18 44 75 36 79 37 25 40 32 82 94 81 19 63 80 85 30 66 3 6 24 90 72 43 89 45 1 -55 -70 -62 -20 -74 -34 -67 -5 -33 -61 -95 -52 -86 -91 -31 -15 -56 -39 -57 -77 -50 -11 -58 -13 -64 -42 -53 0
55 33 53 14 37 28 88 46 22 92 61 83 57 13 26 59 60 79 10 67 3 9 25 2 71 29 52 12 32 18 49 80 81 35 64 56 70 73 91 95 94 38 66 21 68 39 77 -76 -44 -65 -96 -27 -74 -34 -87 -86 -72 -31 -19 -75 -93 -62 -40 -11 -15 -84 -51 -4 -20 -42 -16 -7 -8 -43 -54 -24 -48 -36 -45 -5 -6 -69 -63 -82 -89 -78 0
30 -45 0
50 72 33 80 89 -54 -43 -5 0
44 67 84 61 31 72 73 49 -23 -96 -66 -11 -24 -62 -76 0
62 32 49 65 46 87 35 79 25 85 57 33 45 4 5 68 82 56 24 67 55 95 1 70 81 73 66 11 60 26 63 59 91 27 76 -28 -22 -8 -88 -31 -58 -78 -83 -42 -89 -74 -80 -61 -71 -9 -53 -36 -12 -75 -39 -51 -52 0
9 15 52 66 7 31 56 18 11 22 16 42 41 80 37 72 53 57 90 62 92 85 48 21 55 10 54 88 65 50 93 8 38 5 68 87 36 89 -47 -69 -81 -76 -6 -30 -91 -1 -13 -83 -46 -60 -24 -67 -27 -75 -77 -17 -95 -86 -44 -14 -61 -79 -25 -64 -51 -63 -12 -34 -84 -3 0
55 61 -81 -4 0
63 71 47 42 3 84 58 78 23 16 50 4 2 80 69 85 68 39 48 66 32 6 12 96 -37 -41 -33 -36 -25 -20 -17 -91 -8 -56 -52 -34 -95 -67 -55 0
11 18 4 82 3 89 63 56 40 25 86 94 83 84 67 36 27 77 96 59 58 66 92 69 48 44 39 13 91 71 68 14 76 47 16 45 21 7 24 34 15 31 90 23 26 61 75 38 22 -9 -12 -88 -29 -78 -10 -53 -85 -81 -43 -41 -57 -52 -50 -32 -70 -1 -37 -20 -79 -42 -80 -95 -30 -72 -49 -93 -28 -2 -64 -60 -17 -74 -65 -19 -55 -33 -6 -62 -54 -46 -35 -8 -51 -5 0
46 64 50 33 93 56 95 77 63 23 38 1 14 74 22 61 81 42 4 59 39 12 83 82 28 71 96 58 91 62 85 31 -89 -70 -19 -78 -6 -72 -30 -87 -7 -60 -68 -53 -20 -24 -52 -35 -32 -8 -75 -15 -25 -29 -16 -40 -2 -26 -18 -94 -43 -21 -66 -44 -57 -36 -9 -10 -55 -11 -47 -84 -65 -45 0
54 65 79 85 6 33 41 26 72 93 95 32 44 64 67 24 87 45 60 77 55 52 37 10 39 46 7 63 27 76 75 40 68 17 69 -84 -11 -62 -83 -51 -15 -14 -25 -89 -36 -12 -53 -86 -19 -38 -28 -47 -78 -22 -8 -57 -70 -80 -5 -73 -1 -81 -43 -71 -50 -18 -30 -2 -34 -16 -90 -20 -31 -94 0
13 52 7 17 84 92 31 41 77 24 94 82 45 9 14 12 48 22 39 35 50 74 66 37 38 61 -81 -72 -11 -56 -34 -42 -88 -64 -51 -44 -18 -28 -29 -26 -63 -46 -30 -1 -90 -16 -6 -49 0
18 92 95 61 36 89 87 72 37 49 91 69 52 -50 -6 -68 -44 -15 -4 -81 -14 -57 -28 -55 -60 -34 -88 -82 -8 -66 -93 -19 -22 -39 -12 -56 -45 -76 0
75 46 77 1 55 33 4 83 27 57 74 70 20 41 44 53 39 9 96 54 95 24 66 32 7 61 38 11 2 67 72 88 56 29 92 93 49 17 45 37 48 73 -76 -10 -87 -15 -79 -52 -26 -62 -36 -14 -80 -35 -84 -89 -5 -69 -90 -30 -71 -21 -22 -63 -34 -3 -31 -59 -86 -13 -50 -82 -42 -51 -91 -81 -25 -16 -23 -19 -64 -43 -85 -12 -58 0
35 76 6 32 61 82 27 17 75 28 70 72 83 89 78 38 91 -96 -34 -1 -51 -48 -92 -10 -94 -21 -71 -43 -22 -7 0
93 14 72 87 59 63 46 1 31 -54 -34 -84 -27 -68 -58 -30 -88 -39 -77 -41 0
61 1 38 -33 -60 -36 0
69 44 19 33 34 -73 -58 -37 -89 -36 -83 0
29 8 6 48 41 76 46 16 5 38 9 20 83 95 52 -28 -19 -39 -27 -58 -3 -65 -42 -51 -1 -87 -85 -53 -31 -92 -26 -75 0
58 4 25 55 41 50 83 47 61 39 59 18 13 85 17 45 26 -54 -60 -52 -3 -62 -43 -9 -51 -1 -30 -15 -37 -19 -82 0
49 26 30 69 56 54 88 57 15 8 38 21 78 82 7 81 58 42 59 17 53 60 52 40 87 31 -10 -91 -70 -61 -23 -86 -80 -79 -22 -84 -96 -11 -2 -75 -35 -36 -73 -43 -62 -65 -24 -16 -25 -14 0
4 33 82 79 46 20 21 59 28 58 37 5 94 19 84 7 56 24 29 70 95 73 6 53 43 92 44 51 30 -17 -63 -76 -49 -80 -50 -40 -3 -16 -23 -1 -85 -11 -39 -2 -61 -65 -55 -8 -68 -57 -91 -9 -78 -72 -74 -87 0
65 33 89 43 -27 0
46 91 96 15 20 29 40 11 49 88 9 86 51 82 36 34 19 71 31 21 80 65 43 81 23 44 47 39 68 24 27 58 50 79 78 85 30 -95 -2 -37 -16 -54 -48 -61 -87 -10 -59 -83 -56 -94 -53 -77 -22 -60 -90 -66 -57 -14 -8 -73 -62 -92 -70 -45 -6 -32 -55 -67 -76 -38 -5 -7 -74 -33 -17 -12 -28 -13 -52 -89 -72 -64 0
-6 -14 -52 0
68 74 1 67 61 86 88 6 2 81 20 11 49 10 41 8 26 44 94 -24 -39 -93 -55 -62 -95 -3 -52 -75 -51 -63 -69 -33 0
42 90 61 81 3 78 35 12 55 59 74 8 63 95 30 96 39 27 58 75 2 25 88 21 83 87 32 33 77 54 44 -60 -73 -84 -45 -76 -80 -11 -23 -48 -14 -26 -41 -72 -82 -5 -86 -93 -1 -6 -57 -28 -15 -18 -64 -4 -24 -20 -71 -91 -16 -68 -46 -92 -34 -38 -36 -67 -66 -50 0
83 41 35 94 61 12 89 32 37 8 71 11 52 36 91 68 3 29 20 17 14 40 39 67 48 26 59 5 57 55 86 1 -96 -75 -21 -80 -34 -74 -69 -10 -38 -76 -4 -6 -95 -65 -72 -66 -87 -42 -62 -33 -78 -49 -51 -93 -30 -88 -2 -79 -28 -70 -18 -44 -73 -46 -63 0
94 18 67 93 43 31 65 25 74 19 16 -55 -23 -32 -48 -73 -71 -38 -77 -17 -62 -60 -80 -66 -91 -28 -35 -83 -50 -11 -39 -4 -34 -14 -44 -57 -45 -42 -54 -68 -69 -53 0
89 26 66 82 59 96 52 68 -12 -81 -51 -28 -3 -10 -16 -80 -40 -18 0
75 67 94 22 51 12 70 9 60 68 66 19 38 35 63 36 24 91 62 3 86 4 61 58 92 -52 -27 -13 -45 -20 -41 -93 -85 -90 -88 -37 -54 -55 -57 -81 -39 -76 -83 -49 -79 -69 -50 -23 -46 -59 -17 -43 -30 -44 -80 0
27 66 75 21 29 67 84 81 91 63 46 76 26 24 48 31 11 4 37 41 73 65 39 53 8 22 19 52 28 43 13 47 93 -40 -68 -18 -85 -77 -58 -54 -57 -86 -56 -82 -74 -7 -83 -45 -64 -55 -62 -80 -23 -90 -51 -15 -44 -49 -16 -10 0
28 8 88 91 35 52 4 19 81 56 16 23 63 59 95 18 -17 -7 -44 -22 -33 -71 -29 -82 -74 0
6 24 66 79 82 88 63 14 57 52 69 27 12 73 42 26 49 90 9 -85 -93 -74 -33 -34 -23 -67 -29 -86 -18 -62 -41 -46 -81 -39 -95 -72 -47 -21 -37 -59 0
32 35 53 90 22 3 57 14 71 74 88 29 72 85 25 27 65 84 59 93 36 34 30 1 63 12 21 48 8 26 58 -19 -80 -2 -11 -41 -69 -43 -55 -42 -73 -96 -87 -75 -50 -56 -83 -92 -68 -28 -16 -31 -81 -6 -15 -33 -40 -49 -52 -91 -86 -62 -54 -78 0
3 74 75 63 29 35 10 89 -21 -44 -7 -12 -77 -37 0
6 49 77 17 29 26 13 79 54 82 81 12 39 21 35 28 93 18 23 3 5 45 41 33 22 -67 -95 -87 -64 -4 -37 -62 -30 -47 -69 -34 -89 -75 -65 -9 -8 -10 -7 -74 -2 -61 -14 -38 -19 -51 0
76 28 66 36 24 -17 -80 -52 -64 -12 -51 -41 -72 -92 -67 -42 -87 0
84 62 68 32 3 91 94 54 2 53 93 35 47 72 86 95 75 55 -26 -73 -43 -11 -65 -58 -63 -9 -33 -69 -28 -6 -16 -48 -96 -21 -80 -57 -51 -81 -56 -70 -67 -7 0
25 43 59 37 56 71 23 33 1 36 83 29 51 -30 -82 -73 -34 -63 -2 -38 -42 -69 0
16 8 41 5 32 47 6 14 71 24 94 96 18 19 42 63 40 79 33 12 61 55 51 54 76 29 83 34 64 30 43 72 45 78 2 3 23 27 46 7 13 85 15 -44 -91 -4 -74 -82 -68 -58 -69 -21 -62 -17 -80 -81 -56 -57 -35 -38 -93 -60 -37 -89 -1 -25 -87 -75 -86 -39 -26 -67 -22 -36 -50 -70 -31 0
6 20 73 41 10 34 25 64 39 28 87 4 23 63 50 -38 -22 -59 -82 -47 -24 -72 -55 0
2 8 17 77 51 73 69 52 64 7 78 70 27 39 1 -63 -57 -36 -4 -54 -61 -21 -19 -11 -49 -67 -33 -71 -94 -35 -56 -38 -66 -42 -89 -20 -37 -86 -47 -65 -46 -72 -88 -5 -92 -6 0
73 42 89 17 35 26 16 15 82 7 83 81 38 13 76 44 24 51 33 68 69 63 94 61 30 90 66 10 52 39 -36 -11 -74 -22 -27 -18 -70 -37 -67 -45 -56 -31 -43 -60 -91 -92 -86 -12 -75 -85 -9 -47 -32 -95 -87 -41 -40 -62 -46 -55 -57 -8 -71 0
69 11 31 84 15 88 6 1 96 16 8 80 59 39 45 74 63 68 60 50 83 81 42 55 38 66 52 54 25 47 12 7 44 28 5 56 3 49 36 -27 -53 -94 -22 -92 -32 -4 -51 -29 -13 -89 -79 -19 -76 -30 -35 -18 -93 -48 -65 -33 -73 -86 -61 -75 -90 -40 -14 -67 -9 0
32 10 83 20 54 63 19 61 77 16 34 18 64 44 74 33 55 89 69 52 92 13 85 36 57 96 60 9 71 22 84 21 3 70 43 51 62 45 76 8 -5 -46 -39 -11 -29 -95 -17 -90 -23 -66 -14 -25 -4 -82 -86 -40 -31 -50 -48 -49 -26 -30 -38 -37 -58 -78 -79 -75 -65 -41 -91 -87 -12 -94 -93 -56 -59 -1 -35 0
66 12 0
14 57 60 89 83 3 26 78 9 69 93 12 52 54 44 13 4 61 58 41 10 70 16 21 35 28 86 6 73 92 -15 -96 -37 -55 -27 -64 -40 -5 -24 -45 -42 -51 -34 -63 -43 -84 -20 -81 -50 -25 -33 -76 -62 -75 -2 0
9 62 2 47 44 90 42 29 27 60 17 51 7 91 -46 -10 -67 -53 -66 -75 -56 -94 -26 -35 -77 -25 -89 -58 -65 -69 -30 0
39 33 26 67 79 -80 -91 -93 -46 -24 -48 -59 -16 -37 0
14 67 16 33 37 9 83 60 75 82 3 44 36 86 7 24 13 64 57 47 27 93 15 18 49 5 81 74 6 89 11 41 23 31 77 38 48 92 96 88 68 -71 -30 -56 -34 -1 -73 -94 -32 -21 -26 -29 -91 -85 -46 -53 -76 -55 -72 -40 -10 -2 -78 -65 -50 -62 -52 -66 -8 -54 -42 -35 -43 -59 -90 -80 -51 -79 -25 -84 -58 -39 -70 -12 0
21 14 69 59 76 45 83 93 13 19 25 64 52 37 74 47 80 -18 -94 -2 -27 -96 -11 -50 -9 -33 -46 -17 0
8 80 19 43 69 26 96 60 66 49 42 67 27 47 -1 -51 -18 -86 -92 -71 -55 -59 -20 -50 -52 -30 -77 -82 -65 -14 0
20 -81 0
72 74 48 94 18 40 6 33 65 61 27 92 80 22 79 20 85 14 46 51 63 83 81 44 95 64 30 16 70 52 36 88 75 38 25 56 21 41 49 43 11 73 91 -60 -90 -57 -4 -77 -39 -59 -71 -58 -45 -37 -32 -53 -8 -96 -13 -62 -93 -5 -28 -24 -47 -50 -67 -76 -23 -12 -26 -35 -69 -82 -55 -19 -3 -10 -89 -15 -7 -34 -68 -84 -78 -29 0
33 95 45 37 24 83 6 56 88 69 65 57 73 66 -21 -5 -49 -71 -43 -48 -55 -42 -54 -67 -28 -39 -58 0
32 7 66 71 33 94 95 68 1 20 49 18 87 41 22 28 35 81 2 43 14 21 73 51 6 78 46 67 12 70 45 40 39 5 52 9 55 24 29 19 58 61 86 -50 -25 -4 -90 -96 -47 -75 -42 -88 -34 -77 -54 -60 -26 -57 -76 -72 -15 -53 -30 -3 -36 -83 -23 -69 -37 -38 -64 -79 -91 -62 -16 -13 -84 -8 -31 -56 -27 -85 -93 -74 -59 0
28 45 91 54 95 31 51 63 59 40 33 13 22 8 90 85 69 96 50 58 3 15 65 19 84 20 81 16 49 78 46 57 47 60 21 62 5 56 64 89 11 14 25 70 88 41 53 -39 -32 -93 -2 -74 -34 -44 -35 -92 -1 -17 -23 -10 -12 -27 -86 -79 -75 -48 -76 -71 -18 -94 -80 -38 -52 -9 -77 -42 -29 -36 -26 -61 -83 -43 -30 -37 -68 -67 -66 -24 0
57 35 15 59 50 7 38 66 26 3 51 41 52 21 74 4 71 96 85 37 54 9 82 70 47 36 2 75 8 22 88 73 86 25 5 34 42 49 91 28 67 39 76 -77 -18 -63 -33 -6 -11 -43 -83 -53 -17 -27 -58 -60 -95 -69 -61 -72 -1 -13 -48 -20 -62 -64 -14 -56 -45 -92 -19 -55 -10 -90 -32 -87 -16 -68 -31 -89 -65 -40 -30 -78 0
1 75 58 61 45 2 44 22 71 15 10 21 17 20 84 64 55 73 83 8 63 30 59 72 35 7 77 62 74 39 50 24 41 31 94 34 88 38 40 -56 -11 -69 -81 -53 -80 -13 -57 -12 -86 -6 -48 -42 -19 -79 -49 -85 -65 -95 -67 -91 -9 -54 -51 -93 -90 -89 -36 -87 -33 -60 -25 -5 -76 -27 -16 0
8 63 75 73 45 71 30 58 54 57 29 11 5 51 67 -27 -17 -2 -83 -15 -37 -16 -6 -23 -52 -60 -19 -87 -77 -28 -85 -48 -69 -68 0
94 20 51 33 49 79 69 42 23 9 37 25 78 81 83 59 90 26 39 84 80 88 82 2 87 60 27 96 14 57 34 72 41 56 -50 -30 -89 -45 -4 -13 -7 -77 -47 -24 -46 -66 -53 -11 -35 -75 -48 -36 -19 -65 -95 -44 -8 -1 -93 -61 -5 -32 -58 0
30 52 21 50 80 18 73 65 24 96 78 3 53 87 42 83 55 23 63 1 15 -70 -48 -85 -61 -26 -31 -57 -27 -88 -49 -22 -69 -81 -54 -37 -35 -28 -17 -64 -44 -94 -45 0
24 7 55 81 17 94 43 83 -92 -27 -1 -79 -56 0
20 6 76 52 -82 -55 -93 -85 -8 -89 -54 -72 -86 -43 0
95 18 52 45 88 43 94 41 38 20 74 67 12 4 56 13 23 25 87 8 73 81 17 54 53 44 1 -30 -91 -10 -11 -70 -51 -49 -15 -84 -64 -77 -7 -58 -47 -78 -22 -72 -96 -68 -19 -60 0
44 96 62 69 50 38 30 21 45 6 82 22 34 59 70 66 64 47 16 74 94 57 68 12 24 60 -4 -73 -89 -79 -81 -93 -75 -51 -46 -80 -88 -61 -48 -91 -71 -13 -36 -14 -72 -92 -32 -87 -67 -31 -37 -41 -63 0
89 73 78 66 31 49 57 40 10 56 8 61 42 26 52 24 -60 -43 -21 -1 -58 -19 -3 -65 -36 -34 -20 0
29 9 55 -94 -45 -42 -82 0
89 27 73 52 9 94 44 79 5 8 54 46 21 7 81 36 32 24 13 28 67 83 19 53 70 10 18 47 40 65 56 88 42 3 61 74 29 48 12 58 1 64 63 33 60 -37 -55 -2 -77 -6 -25 -68 -16 -43 -30 -62 -38 -78 -66 -45 -69 -95 -59 -26 -35 -91 -85 -41 -34 -90 -50 -20 -14 -51 0
65 -92 -41 -55 0
53 49 15 52 59 20 64 95 36 -48 -66 -55 -74 -41 -72 -94 -58 -70 -50 -4 -16 0
50 26 3 52 9 37 -93 -69 -35 -81 -8 -49 0
22 52 44 76 45 25 74 41 37 89 82 72 69 7 38 13 93 29 86 32 48 54 88 10 36 9 95 90 92 64 62 28 20 91 65 17 60 5 39 -21 -83 -27 -24 -50 -34 -80 -75 -11 -15 -6 -26 -40 -96 -85 -81 -73 -4 -23 -43 -61 -67 -31 -3 -55 -8 -71 -68 -66 -35 -84 -63 -51 -30 -53 -79 0
25 69 83 82 91 54 3 47 63 32 67 64 55 77 40 61 57 10 65 4 50 59 7 53 44 31 45 76 80 16 96 24 48 88 78 15 72 60 52 -37 -43 -20 -11 -42 -41 -5 -29 -12 -95 -58 -90 -9 -1 -8 -23 -26 -27 -21 -81 -35 -46 -75 -18 -86 -56 -79 -33 -93 -73 -39 -94 -36 -49 -92 -66 -19 -22 -34 -74 -87 0
37 8 55 13 12 87 68 33 19 18 93 90 43 39 35 42 7 95 49 60 92 46 10 5 81 31 69 11 67 38 16 74 22 15 94 47 9 14 6 78 28 4 27 63 96 62 77 40 58 61 -66 -72 -82 -24 -56 -86 -21 -57 -70 -79 -88 -65 -91 -71 -53 -44 -29 -34 -64 -20 -25 -76 -41 -59 -50 -23 -84 -51 -80 -3 -17 -2 -73 -52 -75 -89 -1 -85 -26 -83 -30 -36 -54 0
81 51 12 71 89 42 58 15 33 49 78 38 11 56 62 40 35 26 66 1 3 46 91 55 72 73 82 76 20 28 32 59 79 52 80 65 90 29 16 84 68 -10 -34 -14 -77 -47 -6 -87 -36 -9 -86 -27 -94 -13 -67 -95 -45 -54 -8 -22 -17 -83 -25 -64 -70 -44 -92 -31 -50 -57 -75 -74 -21 -61 -63 -23 -4 -96 -60 -93 -37 -69 -53 -48 -2 -5 -30 -88 -43 -85 -41 -24 -19 -7 0
43 63 19 4 91 61 44 66 36 2 25 52 84 31 65 15 92 54 10 26 55 14 74 85 45 59 87 21 79 83 32 37 13 39 34 8 62 40 -41 -16 -46 -1 -70 -30 -11 -77 -33 -50 -28 -5 -12 -95 -69 -90 -23 -56 -27 -51 -81 -86 -53 -48 -17 -76 -73 -42 -64 -82 -7 -24 -93 -78 -60 -57 -47 -3 -6 -96 -72 -58 -20 -38 -9 0
94 51 89 39 92 29 57 96 62 59 83 31 30 67 73 32 26 63 4 81 76 35 46 91 52 71 18 16 6 54 12 9 95 61 13 7 14 25 43 41 22 75 48 58 23 -77 -90 -86 -15 -78 -65 -60 -74 -55 -28 -66 -44 -21 -5 -36 -17 -45 -80 -93 -1 -8 -56 -40 -68 -70 -85 -88 0
62 61 25 95 87 65 81 34 11 85 2 9 1 63 45 91 -93 -52 -31 -88 -15 -56 -14 -71 -8 0
40 19 54 14 85 28 93 13 24 82 60 33 32 69 7 31 86 65 11 27 81 3 88 94 18 80 62 36 59 57 68 73 -45 -78 -92 -95 -49 -79 -66 -20 -84 -61 -42 -41 -25 -56 -30 -6 -34 -10 -46 -8 -63 -58 -26 -83 -4 -44 -90 -70 -76 -55 -87 0
65 94 29 -92 0
63 22 17 96 94 83 2 4 70 15 64 25 87 95 82 32 -73 -72 -51 -44 -45 -52 -28 -76 -75 -21 -36 -67 -10 -33 -8 -39 -78 -40 0
21 88 67 30 62 89 31 23 80 57 59 56 28 -95 -12 -91 -90 -37 -2 -55 -76 -54 -16 -34 -81 -3 -71 -10 -61 -74 0
27 12 61 19 86 30 22 57 66 60 26 6 52 31 38 79 92 42 17 65 91 88 23 68 77 -21 -46 -7 -4 -93 -58 -48 -32 -62 -15 -90 -59 -5 -39 -70 -33 -73 -95 -50 -82 -37 -84 -49 -8 -36 -81 -63 -9 -54 0
83 62 14 7 64 85 57 77 16 70 79 21 9 69 63 41 23 54 8 82 47 92 32 60 3 43 39 75 20 22 51 17 59 50 38 5 11 94 -19 -25 -65 -78 -89 -76 -61 -80 -55 -33 -96 -71 -48 -73 -45 -12 -74 -66 -28 -88 -10 -35 -34 -6 -40 -18 -46 -29 -72 -1 -91 -4 -31 -36 -2 -30 -87 -52 -26 -56 -93 -15 0
40 13 30 83 46 93 45 14 72 96 15 85 88 86 -65 -56 -78 -31 -28 -68 -27 -20 -91 -18 -55 0
51 85 6 44 42 86 22 40 59 57 16 4 68 41 3 46 28 56 77 17 81 32 91 95 -27 -19 -79 -76 -25 -7 -26 -35 -47 -53 -58 -69 -21 -83 -37 -61 -90 -5 -78 -45 -60 -20 -75 -96 -15 -23 -33 -29 -49 -55 -36 -73 -87 0
52 88 53 38 75 8 91 6 4 93 71 20 42 64 90 25 79 11 83 45 18 47 5 69 43 10 -78 -44 -92 -39 -58 -31 -27 -46 -85 -49 -13 -95 -35 -40 -51 -65 -70 -50 -15 -82 -84 -68 -59 -17 -24 -2 -56 -81 0
42 54 45 52 69 72 60 83 37 62 64 81 31 3 8 27 4 33 70 17 16 59 38 26 35 36 91 10 75 66 -63 -95 -88 -85 -77 -48 -96 -49 -44 -93 -9 -53 -6 -41 -25 -90 -71 -58 -68 -73 -30 -80 -15 -94 -14 -67 0
90 92 -25 -95 0
45 86 82 72 46 17 74 7 68 23 18 22 -38 -62 -47 -49 -63 -10 -93 -12 -27 0
23 77 29 36 6 85 27 -83 -14 -79 -16 -86 -21 -47 -94 -72 -78 -51 -88 0
55 87 96 39 -17 -34 -27 -79 0
34 49 57 25 92 2 58 18 62 39 13 47 11 84 19 48 65 4 36 74 20 71 42 51 35 70 15 50 55 7 80 8 28 10 38 72 -56 -83 -46 -3 -9 -30 -23 -88 -93 -86 -43 -26 -45 -78 -82 -37 -61 -29 -91 -5 -17 -40 -81 -59 -14 -94 -79 -76 -63 0
31 56 72 89 42 24 29 5 54 95 65 50 15 21 75 14 13 20 62 44 76 40 2 55 -28 -49 -45 -48 -32 -47 -6 -46 -34 -23 -73 -88 -92 -83 -39 -16 -74 -4 -60 -90 -68 -59 0
83 27 31 3 43 47 35 82 15 54 60 78 4 95 67 80 91 93 58 72 48 45 30 92 6 55 21 61 17 2 9 5 19 68 76 87 77 57 70 59 96 18 -74 -37 -44 -7 -46 -71 -69 -34 -90 -56 -62 -29 -14 -65 -10 -81 -40 -42 -22 -32 -11 -25 -79 -24 -53 -13 -1 -86 -73 -8 -16 -33 -64 0
87 6 38 37 89 84 80 68 82 95 75 14 19 35 -26 -73 -50 -74 -32 -42 -5 -53 -54 -51 -70 -49 -93 0
77 21 51 93 30 13 5 36 1 73 12 89 75 78 68 81 19 46 23 7 52 55 -84 -60 -80 -76 -74 -57 -41 -92 -66 -64 -72 -86 -49 -22 -10 -85 -9 -39 -25 -62 0
63 71 80 73 60 32 92 47 83 5 77 -31 -16 -53 -4 -90 -52 -46 -23 -35 0
27 58 48 84 83 33 46 81 56 47 43 14 68 59 20 19 26 25 1 72 86 37 74 5 7 15 11 70 61 12 -2 -85 -49 -65 -16 -90 -67 -50 -63 -28 -55 -73 -82 -53 -93 -54 -36 -41 -52 0
67 24 37 27 34 2 36 5 92 31 78 62 47 71 22 26 10 75 13 44 17 23 55 -43 -30 -89 -63 -3 -51 -4 -8 -73 -84 -68 -66 -19 -70 -81 -58 -77 0
88 55 35 41 94 21 10 49 82 67 81 42 -52 -24 -66 -60 -34 -19 0
47 10 21 85 24 20 63 35 39 86 19 -49 -96 -61 -31 -34 -38 -65 -58 -42 -41 -6 0
40 67 55 4 70 8 22 95 2 72 87 92 38 7 45 79 29 56 30 25 44 15 68 91 3 58 93 86 33 71 5 90 63 42 19 49 54 88 13 6 31 21 61 20 46 69 16 32 37 -80 -52 -18 -89 -94 -10 -34 -28 -81 -53 -83 -23 -78 -1 -64 -60 -43 -50 -65 -59 -24 -85 -17 -77 -82 -11 -74 -57 -27 -41 -36 -47 0
1 27 45 31 65 47 12 7 39 33 29 49 68 48 13 81 9 75 77 37 91 25 88 21 63 14 93 86 72 94 55 24 78 73 67 20 56 69 70 57 40 85 74 6 19 60 -89 -2 -28 -15 -66 -90 -95 -52 -80 -51 -32 -41 -96 -42 -5 -84 -17 -64 -62 -83 -30 -79 -11 -38 -23 -18 -50 -35 -87 -53 -34 -54 -10 -71 -76 -92 -82 -8 -61 -46 -3 -58 -16 -44 -43 -59 -22 -36 0
14 74 1 87 47 9 7 12 81 77 41 11 59 63 95 43 62 31 89 -88 -42 -93 -33 -17 -53 -45 -66 -5 -48 -34 0
64 68 81 25 54 37 51 59 1 62 63 90 10 49 38 87 75 53 45 20 39 71 94 -18 -7 -11 -44 -24 -70 -69 -52 -28 -67 -6 -55 -74 -66 -56 -82 -8 -72 -77 -60 -65 -17 -23 -93 -36 -96 -26 0
2 11 35 41 5 36 92 94 22 79 12 66 63 37 77 30 93 24 46 44 -83 -72 -39 -84 -74 -69 -1 -89 -87 -43 -62 -60 -45 -16 -59 -19 -57 -25 -86 -13 -52 -54 -65 -40 -78 -90 -96 -32 -17 0
34 58 15 89 47 74 91 -39 -45 -6 -85 -19 -87 -78 -41 -49 -79 -18 0
70 21 74 16 25 56 36 78 81 42 91 1 55 30 73 75 6 96 45 57 58 59 -4 -67 -5 -72 -63 -9 -89 -28 -39 -54 -53 -2 -15 -7 -32 -27 -44 -40 -29 -37 -85 -31 -26 -17 -60 -14 -62 0
85 71 74 49 34 2 61 66 23 26 63 92 65 82 12 95 90 31 57 51 48 4 37 80 8 36 50 1 45 29 18 14 10 16 -32 -86 -68 -56 -83 -44 -47 -72 -39 -59 -91 -21 -89 -30 -60 -41 -27 -11 -67 -94 -54 -53 -13 -43 -70 -42 -77 -76 -62 -84 -22 -46 -24 0
83 17 12 21 52 39 81 85 57 24 68 80 14 7 58 61 55 76 -82 -67 -63 -60 -36 -91 -49 -9 -2 -56 -38 -59 -8 -62 -42 -27 -1 -15 -33 -41 -44 0
65 24 13 45 77 85 21 59 49 2 61 62 32 72 11 86 81 43 46 36 57 96 73 90 87 71 52 92 16 94 55 66 79 10 4 35 26 5 54 -91 -70 -93 -80 -56 -60 -51 -14 -74 -82 -25 -30 -12 -19 -34 -41 -8 -76 -58 -38 -3 -37 -53 -89 -75 -1 -44 -69 -18 -63 -84 -15 -40 -22 -42 -88 -95 -31 -64 -20 -9 -6 -47 -33 -17 -78 -67 -83 -50 0
28 9 10 38 84 94 66 41 86 27 68 83 7 74 85 13 33 2 34 17 30 45 55 24 92 47 4 56 48 63 91 16 57 72 21 53 25 14 12 82 73 76 44 61 51 3 80 -93 -87 -90 -29 -15 -89 -65 -88 -70 -96 -37 -64 -42 -79 -78 -39 -60 -69 -49 -46 -40 -1 -18 -26 -81 -54 -77 -58 -32 -36 -71 -95 -8 -5 -50 -31 -20 -75 -6 -19 -43 -59 -67 -35 -52 0
25 64 46 80 23 42 74 13 60 6 15 85 48 70 16 82 34 57 81 39 72 29 26 61 49 30 65 95 -7 -54 -3 -44 -45 -58 -63 -55 -17 -4 -79 -35 -52 -28 -53 -20 -12 -10 -2 -69 -87 -67 -71 -96 -90 -86 -50 -94 -40 -73 -41 -83 -5 -89 -21 -77 -32 -1 -56 -36 0
12 36 80 41 69 64 22 9 13 2 37 24 52 23 58 62 83 18 21 71 76 34 77 51 46 57 20 -89 -65 -75 -3 -26 -5 -59 -39 -28 -17 -49 -74 -15 -16 -33 -56 -88 -90 -68 -91 -50 -53 -40 0
14 60 25 44 64 96 90 81 41 13 -12 -31 -46 -86 -52 -94 -50 -51 -58 -11 -3 -20 -73 0
41 52 45 95 53 61 -46 -70 -38 -62 -80 -17 -39 -14 -51 -55 -60 0
8 23 82 39 55 29 77 95 19 94 92 58 93 5 20 27 45 91 81 80 16 14 2 30 84 -26 -51 -83 -66 -52 -47 -36 -78 -15 -42 -7 -53 -63 -86 -43 -54 -18 -33 -3 -75 -50 -61 -40 -87 -56 -28 -90 0
15 64 6 11 53 83 58 7 37 30 59 20 14 60 82 79 80 54 69 17 42 22 56 23 68 8 25 46 57 89 94 95 18 24 1 35 -34 -45 -36 -29 -13 -40 -66 -31 -10 -2 -85 -47 -76 -81 -72 -63 -48 -62 -87 -71 -33 -9 -44 -70 -41 -12 -61 -3 -75 -26 -88 -96 -52 -65 -38 -74 -51 -4 -27 -21 -77 -49 -90 -55 -92 -19 0
94 41 84 24 93 42 60 11 73 88 27 67 50 28 52 83 85 49 53 2 63 75 5 57 20 71 89 9 81 21 12 95 7 87 77 39 80 43 3 29 76 78 70 33 14 -36 -92 -79 -61 -15 -56 -59 -48 -26 -18 -90 -23 -22 -64 -10 -40 -32 -74 -96 -62 -51 -45 -58 -37 -6 -91 -66 -16 -13 -25 -30 -69 -38 -8 -31 -46 -68 0
19 57 38 64 32 33 43 89 56 73 88 5 17 87 27 39 55 52 78 25 18 28 66 46 21 79 9 29 13 81 48 86 93 6 24 59 44 67 37 72 12 3 7 58 -77 -71 -83 -69 -8 -16 -96 -14 -23 -62 -85 -75 -11 -68 -45 -34 -91 -40 -4 -53 -1 -47 -31 -20 -36 -60 -94 -42 -80 -26 -51 -41 -61 -92 -90 -76 -95 -65 -15 -63 -54 -10 -70 -82 -74 -30 -50 -84 -2 -22 0
28 22 23 85 4 50 24 76 5 19 95 6 78 36 57 60 35 2 59 31 65 92 25 47 10 21 66 64 53 20 12 34 61 -63 -14 -68 -55 -74 -87 -32 -75 -41 -79 -69 -84 -30 -70 -82 -77 -1 -90 -81 -16 -89 -71 -8 -96 -29 -51 -83 -49 -18 -7 -27 -45 -15 -11 -91 -42 -72 -62 -38 -17 -48 -40 -13 -44 -9 -93 -37 -86 -58 -54 -52 -46 -88 -80 -33 0
31 64 14 1 88 61 12 6 66 94 13 47 19 28 27 86 68 79 48 72 85 93 44 75 95 89 5 80 43 10 41 -9 -83 -45 -57 -71 -8 -63 -16 -65 -25 -87 -24 -22 -58 -91 -90 -53 -76 -42 -32 -4 -55 -92 -18 -54 -7 -60 -78 -33 -15 -74 -77 -84 -26 0
-34 0
37 5 3 21 95 51 83 68 -11 -92 -14 -13 -42 -34 -19 -8 -41 -63 -45 -7 0
40 51 31 55 38 8 15 96 22 84 88 71 91 74 29 17 79 -76 -33 -23 -61 -43 -89 -58 -72 -13 -19 -50 -48 -27 -52 -47 -37 -9 -83 -7 0
75 27 13 17 46 3 7 92 72 90 55 4 10 95 44 68 78 30 65 28 57 29 61 32 70 54 74 37 9 66 5 -51 -48 -85 -33 -93 -26 -22 -67 -71 -84 -81 -15 -52 -18 -40 -39 -19 -63 -11 -45 -49 -1 -24 -60 -89 -16 -20 -86 -42 -91 -62 -79 -8 0
85 78 71 31 30 20 55 32 51 83 95 4 65 77 25 1 43 41 94 38 84 73 74 70 16 89 57 68 88 18 22 81 75 91 66 56 35 -3 -29 -63 -33 -8 -59 -28 -24 -76 -54 -14 -49 -9 -13 -12 -21 -60 -92 -15 -34 -47 -62 -6 -50 -5 -40 -67 -37 -87 -10 -46 -19 -53 -26 -82 -64 -2 -48 -7 -52 -11 -23 0
11 59 81 94 62 39 70 49 77 21 32 63 9 73 54 71 85 51 55 30 83 43 33 66 80 18 76 84 6 -91 -47 -26 -52 -93 -74 -24 -69 -61 -45 -10 -41 -88 -19 -34 -42 -58 -23 -35 -15 -7 -65 -82 -5 -31 -12 -8 -48 -44 -95 -37 -56 0
76 9 75 7 58 47 74 14 89 72 61 49 78 6 71 55 40 25 43 -52 -28 -3 -70 -29 -79 -4 -53 -1 -41 -69 -33 -62 -64 -82 -11 0
54 78 33 69 51 73 45 28 67 52 95 50 82 57 58 71 3 21 22 32 38 14 47 36 40 8 16 12 20 2 42 66 24 1 86 61 84 5 62 6 9 7 87 27 74 -41 -94 -23 -31 -30 -19 -65 -81 -34 -15 -43 -63 -53 -80 -55 -49 -76 -70 -75 -17 -39 -29 -46 -85 -13 -72 -26 -68 -77 -91 -37 -59 -88 -96 -60 -44 -18 -11 -56 -89 -64 0
87 64 5 60 58 23 67 57 16 3 11 34 21 85 94 38 63 91 47 42 27 95 31 74 39 33 4 77 41 20 51 -84 -35 -49 -54 -1 -61 -78 -48 -92 -13 -59 -65 -76 -83 -46 -52 -40 -86 0
7 36 77 43 53 49 27 94 42 83 35 60 9 25 23 13 8 89 75 -28 -37 -84 -90 -24 -1 -15 -17 -69 -31 -55 -34 -11 -4 -87 -92 -72 -19 -64 0
84 3 46 8 79 1 44 9 6 26 63 56 24 5 66 59 47 88 19 32 74 25 93 14 49 90 73 55 31 10 61 72 53 2 57 21 91 -77 -51 -81 -52 -76 -85 -37 -41 -39 -70 -15 -34 -27 -86 -30 -78 -13 -40 -22 -82 -94 -60 -18 -12 -11 -58 -16 -68 -45 -4 -48 -20 -23 -83 -67 -75 -33 -17 -36 -89 -38 0
51 56 11 20 34 84 70 3 80 86 43 87 68 89 78 40 67 18 36 76 85 49 82 79 58 54 25 52 41 72 29 32 62 16 48 -75 -33 -35 -59 -15 -71 -10 -92 -17 -39 -91 -74 -4 -88 -6 -38 -94 -8 -30 -44 -81 -21 -73 -96 -24 -37 -65 0
53 28 72 81 52 95 63 88 11 13 34 67 71 58 4 80 65 30 20 83 2 50 87 37 40 27 38 47 75 84 64 90 21 29 6 5 44 85 54 49 39 73 62 1 89 59 -86 -3 -15 -8 -46 -14 -74 -79 -45 -42 -61 -18 -23 -77 -78 -22 -32 -12 -92 -17 -35 -94 -26 -41 -96 -60 -56 -70 -33 -9 -43 -66 -36 -76 -91 -68 -19 -55 -25 -93 -48 -31 -10 -69 -16 -57 -7 0
77 33 8 26 80 83 87 11 7 68 76 18 72 10 24 36 6 67 17 28 86 34 4 70 49 37 58 79 85 82 66 59 89 16 95 63 96 12 44 71 69 -2 -45 -15 -90 -56 -27 -57 -61 -93 -43 -1 -65 -62 -41 -48 -47 -50 -81 -55 -3 -40 -91 -5 -42 -35 -22 -73 -75 0
7 2 30 46 67 31 10 80 35 74 53 64 66 55 25 39 20 47 34 45 21 36 11 27 -38 -40 -16 -50 -90 -81 -37 -33 -56 -61 -15 -8 -77 -14 -32 -85 -17 -23 -75 -91 -94 -43 -70 -49 -51 -26 -69 -52 -54 -62 -87 -76 -44 -68 -59 -18 -79 0
55 92 43 34 24 81 67 41 59 27 12 20 37 87 64 71 4 50 90 61 54 88 80 28 45 18 42 9 14 47 1 26 76 16 2 79 33 49 73 -69 -65 -46 -23 -25 -30 -8 -38 -75 -56 -96 -68 -83 -22 -6 -72 -86 -19 -39 -95 -77 -82 -94 -85 -15 -91 -84 -51 -70 -48 -66 -89 -31 -58 -36 -74 -17 -63 -53 -44 -10 -57 -5 -32 -52 -60 -21 -11 -35 -78 -40 -62 -7 0
18 5 17 23 15 74 63 91 84 13 42 2 47 14 87 7 93 27 45 24 86 41 20 9 26 96 92 60 34 44 57 51 4 35 36 12 40 19 71 -10 -59 -89 -3 -49 -37 -11 -85 -29 -90 -48 -56 -61 -65 -28 -80 -58 -64 -38 -53 -22 -68 -33 -62 -79 -83 -70 -46 -67 -32 -82 -30 -8 -16 -31 -25 -81 -54 -50 -95 -75 -1 -21 0
92 62 18 86 96 80 83 59 41 22 31 52 81 7 94 53 68 61 78 87 46 77 72 -20 -50 -17 -66 -9 -60 -82 -40 -29 -58 -91 -2 -10 -5 -79 -6 -64 -27 -54 -89 -48 -44 -23 -33 -49 0
18 42 93 32 88 44 39 4 68 74 72 92 35 51 60 26 91 23 81 19 7 25 64 45 67 84 85 -36 -24 -96 -16 -3 -63 -49 -5 -21 -86 -43 -15 -28 -12 -40 -52 -17 -58 -70 -78 -62 -33 -41 -30 -1 -66 -37 -54 -89 -22 0
17 25 6 63 -3 -87 -38 -4 -77 -49 -35 -47 -20 0
64 25 49 3 79 68 93 28 24 82 75 29 33 23 45 11 80 19 39 38 30 94 96 56 10 60 -46 -1 -37 -12 -44 -66 -34 -88 -43 -22 -71 -74 -62 -67 -42 -6 0
60 2 49 41 35 91 24 95 70 22 78 50 27 32 65 63 45 53 17 51 -58 -4 -67 -14 -55 -10 -75 -83 -9 -30 -46 -92 -68 -90 -11 -73 -20 -66 -61 -57 -76 0
32 75 5 81 65 33 78 11 18 26 94 88 9 25 47 87 29 21 2 41 36 4 12 -24 -10 -80 -59 -46 -68 -40 -56 -19 -23 -31 -3 -34 -89 -61 -90 -17 -53 -8 -63 -91 -20 -37 -54 -55 -51 -62 -28 -57 0
92 77 1 89 28 79 9 57 7 12 46 44 35 96 3 88 34 17 67 29 53 86 82 83 26 20 42 47 62 81 23 73 10 54 48 43 21 71 -2 -66 -60 -95 -40 -39 -41 -38 -70 -78 -50 -65 -6 -13 -58 -15 -84 -5 -90 -55 -93 -19 -59 -37 -74 -76 -11 0
69 2 63 47 90 34 35 39 31 87 4 50 78 19 32 11 22 28 84 70 86 37 20 23 38 15 93 64 13 53 91 76 5 49 6 33 72 25 -1 -41 -51 -58 -26 -61 -54 -17 -7 -65 -83 -57 -95 -27 -67 -62 -10 -88 -80 -89 -29 -79 -9 -44 -3 -94 -71 -56 -30 -24 -55 -82 -85 -16 -36 -74 -75 -68 0
8 6 32 77 79 65 11 25 10 35 17 50 83 60 69 59 88 20 87 38 43 95 26 57 16 89 62 76 94 85 74 1 63 13 15 22 46 7 9 34 -54 -86 -47 -5 -21 -36 -44 -92 -52 -70 -84 -82 -39 -42 -30 -4 -72 -40 -80 -2 -41 -23 -71 -33 -24 -49 -14 -61 -31 -96 -3 -18 -53 -93 -27 -12 -78 -19 -73 -55 -48 -64 -37 -28 -56 0
60 66 7 27 36 56 75 10 84 74 16 34 95 51 28 93 39 20 85 62 47 2 90 55 63 71 29 79 54 64 53 82 43 22 8 -37 -23 -67 -35 -88 -73 -91 -92 -25 -42 -5 -40 -57 -96 -87 -69 -83 -77 -11 -4 -81 -26 -59 -78 -49 -31 -46 -45 -19 0
64 6 77 56 79 10 25 76 70 38 19 91 48 35 29 55 15 24 11 52 -85 -26 -61 -34 -57 -7 -84 -4 -8 -62 -94 -1 -88 -2 -30 -80 -58 -90 -69 -67 -78 -28 -46 -71 0
52 94 56 31 40 69 91 18 92 14 10 83 80 7 76 49 85 47 3 41 24 87 55 74 63 72 38 82 45 51 -70 -4 -59 -67 -79 -2 -64 -37 -39 -50 -6 -73 -5 -48 -96 -62 -35 -44 -13 -54 -20 -8 -30 -46 -61 -42 -26 -84 -28 -89 -43 -81 -17 -33 -21 -57 -29 -58 -32 -12 -88 -86 -25 -78 -15 -22 -93 -53 0
61 70 -40 -36 0
63 95 26 59 77 23 44 93 35 64 14 61 87 51 33 56 11 74 91 96 85 80 46 17 57 16 27 31 54 43 76 52 20 -55 -5 -71 -88 -13 -60 -72 -65 -89 -94 -62 -73 -81 -41 -4 -69 -36 -53 -83 -49 -75 -90 -40 -15 -78 -39 -2 -82 -18 -47 -86 -92 -79 -42 0
61 95 77 79 38 -6 -78 -20 -64 0
67 50 66 44 4 31 51 62 65 54 52 92 87 28 23 15 45 73 39 72 9 75 60 11 41 16 88 59 14 6 58 95 37 -7 -26 -10 -84 -82 -53 -36 -3 -49 -47 -77 -83 -17 -48 -32 -55 -70 -18 -8 -56 -61 -64 -43 -86 -80 -93 -33 -12 -94 -68 -13 -79 -96 -5 -69 -30 0
34 65 33 63 73 17 13 94 7 51 67 58 86 60 26 81 1 -85 -42 -83 -10 -15 -46 -92 -96 -31 -82 -28 -43 -57 -14 -48 -74 -95 -21 -32 -76 -4 -44 -25 -36 -84 -79 -5 -91 0
35 13 78 55 37 33 17 58 74 96 60 34 7 62 12 95 25 61 73 4 89 80 87 -27 -39 -26 -36 -91 -63 -51 -40 -50 -92 -56 -75 -68 -79 -19 -57 -41 -29 -15 -28 -45 -52 -88 -10 -11 -84 -22 -43 -44 -83 -20 -94 -86 -32 -81 -24 -67 -46 -30 0
29 22 21 17 61 57 40 58 75 45 89 2 -95 -15 -37 -33 -63 -78 -3 -32 -82 -24 -41 -86 -38 -80 -92 -79 0
21 68 55 95 20 15 83 53 28 54 1 49 56 6 31 93 2 16 75 84 78 23 36 -5 -24 -96 -42 -67 -66 -19 -62 -8 -76 -9 -34 -80 -64 -86 -65 0
79 69 -89 0
12 78 21 41 50 80 20 56 79 64 76 35 51 87 1 24 74 65 8 93 28 22 52 30 -47 -3 -11 -32 -69 -53 -9 -38 -36 -88 -72 -43 -71 -54 -25 -77 -68 -90 -45 -63 -14 -18 0
64 62 66 7 15 77 73 40 95 89 43 72 11 38 10 52 81 26 9 51 69 34 36 65 28 16 70 19 80 31 76 61 63 79 46 90 82 55 92 23 22 93 48 56 -37 -54 -13 -67 -25 -85 -3 -6 -71 -74 -27 -75 -5 -42 -94 -86 -88 -21 -35 -32 -50 -29 -17 -41 -45 -60 -53 -12 -24 -2 -47 -83 -84 -18 -8 -57 -1 -30 -20 -59 0
75 21 45 7 61 41 17 32 30 89 71 82 19 69 44 22 93 4 81 39 85 23 78 34 92 -13 -33 -9 -79 -56 -88 -2 -77 -67 -62 -1 -52 -96 -26 -42 -70 -80 -6 -65 -37 -94 0
8 90 82 78 14 62 77 56 26 72 46 2 23 85 80 19 41 37 92 22 36 75 84 65 24 30 9 81 96 21 58 49 63 91 47 35 73 51 27 39 29 -87 -86 -16 -69 -94 -83 -40 -13 -88 -17 -18 -95 -52 -54 -33 -12 -50 -15 -7 -57 -6 -4 -55 -64 -89 -42 -76 -20 -3 -71 -38 -59 -45 -43 -5 -1 -79 -34 -66 -11 -32 -10 -68 -44 -60 -74 -53 -67 -70 -61 -93 -25 -31 0
87 21 95 6 82 63 68 3 91 78 20 41 38 17 54 51 57 69 4 44 24 11 77 85 92 96 27 84 71 62 73 25 93 86 46 75 -12 -70 -16 -65 -13 -32 -49 -5 -18 -30 -1 -83 -56 -39 -50 -53 -35 -89 -36 -61 -48 -8 -66 -14 -74 -55 -43 -26 -45 -47 -52 -40 0
51 21 81 57 34 79 74 55 36 77 89 64 29 -96 -46 -7 -66 -3 -83 -88 -23 -41 -17 0
42 16 25 24 75 79 82 72 61 53 4 50 54 32 13 85 15 23 39 83 5 26 87 44 6 27 35 45 59 9 84 2 65 29 63 33 1 37 7 43 67 -76 -78 -57 -48 -51 -30 -86 -70 -96 -31 -10 -20 -55 -19 -36 -91 -88 -49 -22 -21 -3 -56 -41 -34 -68 -17 -58 -40 -62 -64 -80 -46 -52 -18 -73 -74 -77 -69 -89 -28 -92 -14 -8 -90 -71 0
87 55 22 66 82 70 75 91 12 63 41 11 37 67 -4 -13 -9 -14 -94 -27 -36 -30 -79 -64 -38 -43 -5 -46 0
74 14 36 22 49 23 16 7 82 32 29 1 83 66 -40 -10 -31 -38 -60 -63 -89 -76 -62 -8 -86 -67 -37 0
37 21 50 47 51 52 12 54 88 83 75 57 68 40 41 61 92 30 69 67 29 86 95 56 36 3 53 79 38 90 1 7 87 -31 -66 -39 -65 -84 -76 -16 -26 -91 -42 -32 -82 -35 -6 -48 -19 -15 -70 -20 -45 -60 -4 0
11 45 31 77 64 22 20 15 94 78 53 32 5 60 72 40 36 66 28 88 83 27 46 61 10 -38 -29 -49 -43 -1 -75 -95 -14 -82 -37 -41 -76 -33 -69 -74 -71 -8 -91 -4 -65 -6 -19 -70 -12 -16 -73 -92 -9 -85 -90 -2 -54 -87 -17 -58 0
63 35 94 49 4 85 32 27 60 93 79 59 50 39 56 16 69 8 84 11 21 68 18 22 82 40 61 -6 -54 -47 -43 -5 -3 -78 -51 -44 -15 -29 -73 -1 -38 -36 -62 -88 -14 -37 -23 -66 -12 -87 -89 -74 -41 -34 -30 -77 -25 -80 -96 -9 -75 -26 -57 -46 -58 -90 0
9 88 83 55 -32 -2 -58 -48 -42 -78 -94 -49 -86 0
54 55 79 1 73 51 10 83 86 56 78 13 80 7 -89 -76 -33 -50 -11 -85 -25 0
57 96 38 65 90 30 87 75 93 92 66 35 47 39 80 58 55 6 77 43 33 31 78 68 51 86 41 50 37 81 62 64 25 94 40 82 63 84 -9 -24 -45 -23 -67 -71 -91 -15 -49 -72 -42 -27 -61 -36 -44 -3 -16 -4 -29 -32 -20 -95 -53 -89 -8 -74 -79 -59 -60 -88 -52 -83 -54 -28 -76 -18 -19 -2 -12 -70 -10 -46 -26 -22 -48 -34 -14 -11 -56 -21 0
74 95 80 44 17 57 50 -79 -81 -90 -53 -46 -83 -56 -33 0
38 70 91 6 26 34 96 45 79 55 15 65 9 27 58 -92 -56 -4 -68 -76 -31 -62 -21 -73 -61 -69 -30 -18 -46 -93 -83 -71 -32 0
91 59 35 7 27 5 15 88 64 79 77 83 73 52 48 26 87 16 42 6 71 65 96 50 62 10 18 58 3 38 9 69 95 80 75 66 41 94 61 17 45 51 12 1 49 -47 -74 -53 -85 -72 -4 -57 -2 -89 -60 -43 -32 -23 -84 -44 -82 -22 -34 -21 -86 -63 -93 -40 -92 -70 -46 -25 -28 -37 -78 -68 -8 -14 -55 -30 -76 -24 0
66 47 37 2 26 64 13 30 76 88 33 -11 -61 -91 -3 -73 -81 -35 -75 -89 -16 -58 0
39 66 49 88 6 81 43 72 18 27 65 70 3 34 53 69 94 87 59 58 26 61 -77 -89 -47 -90 -9 -21 -10 -44 -30 -93 -17 -22 -45 -33 -56 -75 -1 -41 -80 -62 0
27 86 61 23 76 12 64 81 89 74 67 46 31 44 1 62 20 71 -28 -73 -45 -84 -41 -69 -39 -90 -70 -66 -60 -91 -54 -56 -58 0
64 2 49 13 81 63 7 95 44 8 57 55 82 -21 -10 -9 -79 -75 -61 -88 -74 -83 -29 -91 -50 -76 0
44 73 45 96 11 79 41 74 10 7 59 86 77 31 55 21 67 38 46 19 47 23 70 88 22 66 83 71 93 24 5 57 42 69 76 15 56 8 37 33 26 80 50 14 -62 -81 -68 -75 -34 -49 -20 -29 -92 -82 -32 -78 -58 -1 -87 -9 -13 -40 -27 -16 -72 -53 -39 -51 -3 -17 -61 -52 -36 -91 -18 -85 -54 -95 -94 -35 -63 -6 -12 -60 -4 -64 -28 -48 -30 -90 -43 -25 0
17 21 76 5 14 22 55 69 38 94 43 34 2 33 20 25 31 30 57 71 48 51 13 74 46 42 62 93 53 52 70 40 72 37 -8 -7 -54 -47 -79 -64 -73 -24 -90 -39 -9 -44 -83 -36 -63 -27 -12 -78 -18 -65 -92 -82 -56 -61 -81 -87 -28 -89 -80 -88 -15 -84 -91 -45 -23 -96 -4 0
56 92 76 49 47 2 89 83 5 63 52 23 75 3 94 96 86 66 71 53 13 29 41 68 73 32 74 1 61 87 9 30 95 8 17 43 12 27 26 -42 -58 -59 -38 -39 -40 -82 -11 -45 -31 -28 -93 -25 -16 -54 -91 -33 -77 -4 -88 -46 -6 -64 -81 -15 -19 -80 -50 -14 -36 -85 -67 -65 -79 -10 -48 -90 -22 0
94 35 7 8 88 47 85 84 63 22 69 39 19 42 79 64 68 36 37 10 18 62 27 26 78 70 2 41 81 29 -77 -65 -31 -71 -46 -83 -66 -12 -11 -30 -55 -17 -96 -86 -52 -20 -87 -89 -14 -48 -72 -74 -82 -53 -54 -76 -73 -16 -13 -4 -15 -32 0
60 32 5 24 18 89 88 75 57 14 58 6 12 2 35 96 20 37 69 22 29 66 55 83 72 17 11 93 34 15 25 84 30 -26 -70 -48 -91 -16 -77 -43 -61 -27 -40 -87 -4 -36 -42 -50 -54 -10 -94 -90 -64 -33 -38 -52 -3 -95 -1 -76 -23 -49 -92 -7 -47 -73 -67 -39 -41 0
62 26 5 47 37 7 67 78 79 66 3 8 9 49 1 40 27 61 2 -71 -36 -35 -85 -89 -81 -70 -83 -88 -16 -92 -58 -33 -77 -6 -72 -84 -13 -86 -91 -54 -19 -25 -51 -65 0
8 28 54 40 1 41 6 21 95 26 59 81 51 60 72 9 65 63 24 58 69 84 88 70 78 7 67 42 57 87 96 14 27 46 -36 -77 -68 -38 -23 -56 -22 -73 -48 -91 -31 -53 -49 -29 -76 -71 -17 -3 -92 -44 -93 -86 -43 -32 -39 -33 -20 -13 -12 -79 -2 -89 -66 -47 -61 -52 -15 -94 -55 -82 -50 -74 -62 -90 -25 -10 0
53 65 5 93 48 61 22 9 1 3 6 70 88 12 -95 -15 -50 -27 -44 -35 -71 -51 -34 -32 -96 -69 -36 0
33 67 10 77 30 12 81 31 75 32 3 80 22 66 25 29 59 34 90 69 89 9 50 16 45 23 60 35 92 65 68 14 83 19 95 44 82 20 28 47 61 42 5 64 24 -7 -79 -6 -87 -15 -96 -48 -13 -85 -73 -52 -38 -88 -39 -63 -36 -56 -1 -4 -43 -58 -54 -49 -62 -26 -46 -17 -74 -11 -37 -93 -70 -53 -94 -84 -40 0
56 79 96 2 53 72 22 33 69 64 86 92 20 11 3 37 87 60 71 94 23 -25 -18 -54 -21 -68 -10 -88 -19 -63 -78 -51 -93 -16 -34 -73 -15 -84 -80 0
66 36 75 44 84 81 31 79 30 34 94 5 51 86 71 60 62 61 53 42 18 10 29 -76 -48 -55 -80 -77 -54 -6 -89 -12 -40 -82 -92 -37 -7 -56 -38 -69 -46 -8 -27 -50 -68 -33 -16 -4 -15 -83 -24 -28 -57 -41 -45 -67 0
74 82 14 54 67 37 23 18 62 44 85 13 42 94 88 28 76 50 95 15 43 49 9 10 6 66 45 72 20 41 11 5 40 75 78 32 59 86 51 -16 -68 -19 -96 -47 -61 -12 -92 -84 -71 -52 -48 -83 -8 -93 -30 -27 -39 -65 -60 -69 -64 -7 -89 -29 -57 -46 -4 -26 -77 -38 -81 -56 -79 -63 -24 -34 -22 -70 -31 -17 -1 0
89 21 68 65 30 -23 -34 -72 -44 0
12 7 95 52 34 48 39 90 72 27 67 28 49 79 73 78 9 54 3 63 56 66 96 16 70 5 43 85 68 88 30 23 25 -6 -10 -44 -91 -94 -22 -74 -42 -40 -87 -32 -36 -84 -18 -11 -53 -45 -64 -1 -14 -82 -19 -89 -83 -51 -69 -20 -37 -29 -55 -92 -65 -75 -62 0
3 29 55 8 81 44 23 59 86 45 50 36 48 -9 -27 -70 -34 -1 -58 -53 -13 -40 -51 -73 0
