c NeuroCodeBench 2.0 CNF formula with verdict Sat
p cnf 81 423
9 58 80 63 77 31 10 51 32 66 59 62 14 -27 -23 -40 -5 -42 0
30 62 18 45 79 26 49 12 7 52 37 81 36 73 54 22 34 61 5 25 43 65 17 20 55 -57 -41 -46 -75 -19 -76 -67 -24 -6 -42 -32 -35 -72 -27 -23 -63 -68 -2 -28 -13 -47 -77 -4 0
51 61 30 73 79 24 34 74 17 48 6 2 58 50 35 76 64 26 59 25 45 -19 -12 -65 -14 -44 -55 -66 -13 -68 -71 -81 -60 -28 -54 -72 -21 -18 -10 -16 -32 -78 -43 -75 -1 -22 -52 0
16 13 50 20 8 24 21 1 22 18 55 14 42 60 39 11 15 4 61 26 68 29 69 40 31 46 33 -5 -27 -47 -59 -34 -25 -37 -75 -10 -76 -73 -71 -54 -66 -19 -3 -70 -79 -53 -32 -48 -67 -49 -30 -2 -45 -80 -7 -56 -38 -51 -44 -58 -52 -78 -17 -12 -35 -77 -62 -63 -9 -74 -81 0
70 25 41 72 24 28 51 63 42 61 73 49 8 27 78 36 38 44 13 30 1 67 62 69 26 17 6 66 55 -53 -58 -4 -33 -3 -43 -75 -34 -77 -59 -48 -18 -60 -9 -35 -74 -57 -20 -11 -32 -76 -31 -16 -5 -15 -22 -12 -40 -14 -39 -64 -47 -54 -21 -10 -2 -29 -50 -7 -45 -79 -56 -71 -65 0
2 44 -77 -1 0
41 17 56 50 63 57 28 29 32 59 23 4 44 2 13 61 66 72 34 60 14 6 54 19 40 22 73 74 58 25 79 48 64 65 10 80 78 31 70 -27 -39 -11 -55 -71 -42 -12 -20 -7 -62 -43 -75 -3 -77 -30 -8 -1 -33 -49 -52 -5 -21 -26 -81 -18 -46 -69 -24 -68 -16 0
20 16 75 58 38 62 70 21 78 44 -45 -76 -31 -4 0
21 63 35 24 72 68 43 5 33 26 62 41 78 12 1 8 80 32 16 69 19 46 49 31 74 40 64 73 2 58 14 61 -17 -56 -9 -37 -53 -77 -75 -66 -52 -48 -36 -34 -38 -42 -27 -29 -79 -81 -67 -51 -59 -65 -25 -23 -22 -10 -18 -71 -11 -44 -7 -15 -20 0
22 52 4 65 8 23 63 66 77 6 28 78 60 3 -37 -40 -47 -13 -73 -38 -75 -16 -25 -45 -14 -39 -32 -33 -48 -34 0
6 4 14 67 38 3 66 18 31 80 2 53 56 50 43 71 75 55 12 61 25 69 -70 -17 -19 -7 -74 -52 -13 -37 -64 -22 -68 -58 -45 -78 -36 -15 -81 -47 -23 -1 -79 -42 -35 -20 -26 -62 -77 -30 -5 -24 -46 0
59 4 10 1 70 11 13 40 57 74 8 -63 -64 -50 -21 -38 -47 -81 -22 0
9 12 70 39 29 62 5 58 30 11 63 -49 -40 -4 -21 -33 -44 -10 -41 -73 -2 -59 0
19 68 66 59 45 79 76 41 73 20 28 30 9 37 25 36 72 63 10 17 18 60 75 48 78 -31 -14 -44 -47 -6 -61 -71 -42 -58 -5 -23 -29 -74 -8 -56 -51 -67 -40 -21 -16 -39 -32 -50 -33 -15 -26 -69 -81 0
79 48 19 56 -27 -54 -36 -66 -62 -78 -46 -70 -68 -58 -18 -73 0
20 19 75 15 52 8 77 61 74 80 9 64 16 50 53 -46 -40 -25 -72 -79 -37 -51 -39 -31 -28 -65 -55 -71 0
27 79 18 34 12 64 73 81 32 45 31 50 19 48 3 58 60 10 72 61 77 52 21 43 47 65 53 -2 -56 -49 -66 -38 -59 -28 -16 -4 -37 -41 -80 -46 -7 -55 -51 -25 -76 -69 -14 -68 -42 -6 -1 -70 -33 -71 0
10 74 77 63 11 49 62 15 81 57 36 39 24 26 69 75 31 60 53 44 43 79 28 22 18 8 55 66 -30 -5 -35 -16 -6 -29 -61 -70 -68 -38 -64 -2 -41 -73 -1 -76 -71 -54 -45 0
49 0
26 18 55 31 66 63 8 59 75 12 60 20 45 15 79 49 62 11 64 80 34 -44 -16 -48 -81 -30 -35 -76 -57 -65 -46 -43 -58 -70 -68 -19 -27 -47 -22 -41 -38 -6 -39 -9 -7 0
24 25 20 45 62 19 10 50 53 28 35 8 33 6 14 74 7 23 64 51 61 21 65 42 -56 -44 -9 -52 -17 -32 -55 -67 -36 -43 -11 -34 -30 -47 -70 -37 -40 0
52 17 24 46 80 59 13 66 33 2 48 28 19 42 40 65 34 26 75 62 9 61 32 54 69 37 70 53 44 79 60 -64 -35 -39 -63 -76 -23 -77 -47 -29 -5 -56 -36 -11 -25 -41 -72 -15 -38 -67 -7 -51 -1 -21 -68 -20 -31 -22 -27 -55 -57 -81 -73 -3 -30 -43 -4 -18 -71 -45 -78 -49 -58 -12 -6 -14 -16 -74 -8 -10 0
8 28 78 30 75 67 49 4 5 3 57 41 18 56 25 24 39 65 14 51 71 13 66 45 43 47 79 -7 -54 -72 -33 -81 -22 -17 -34 -70 -42 -62 -52 -38 -16 -69 -61 -55 -44 -68 -48 -60 -37 -2 -64 -9 -26 -58 -12 -59 -23 -40 -63 0
15 32 52 22 42 75 57 65 36 5 43 62 53 66 11 72 29 2 59 12 45 6 38 -64 -77 -47 -16 -13 -28 -30 -56 -70 -18 -49 -14 -55 -7 -35 -51 -34 -23 -37 -1 -81 -33 -25 -4 -8 -74 -27 0
80 65 68 66 1 55 72 40 71 3 67 49 16 30 58 73 56 69 26 46 44 2 -11 -41 -20 -25 -62 -35 -39 -70 -76 -43 -22 -51 -37 0
1 81 23 17 48 31 67 44 74 26 10 15 33 38 13 49 41 60 59 36 69 80 -34 -16 -53 -14 -63 -55 -52 -47 -46 -56 -72 -18 -42 -66 -12 -6 -20 -7 -57 -71 -39 0
80 41 55 72 7 46 15 34 47 20 29 22 68 73 52 33 35 19 8 27 16 76 11 50 57 40 63 21 59 51 5 32 13 78 12 43 56 81 58 14 44 49 48 53 62 61 -23 -25 -2 -3 -4 -31 -79 -42 -17 -26 -54 -36 -30 -24 -74 -18 -28 -38 -60 -1 -6 -39 -64 -45 -9 -66 -77 -67 -65 -10 -69 -75 -71 0
55 74 33 49 63 66 21 8 9 -34 -20 -52 -46 -60 -31 -77 -44 -38 -36 -15 -22 0
66 38 60 67 76 12 39 68 65 70 35 30 33 36 3 54 5 71 61 37 22 2 47 25 58 46 6 43 51 72 21 62 31 19 42 -20 -24 -28 -27 -15 -78 -4 -77 -41 -57 -45 -8 -11 -56 -55 -16 -1 -64 -49 -9 -59 -34 0
24 74 73 15 55 25 54 43 20 8 5 71 26 70 76 67 38 64 -33 -2 -22 -16 -12 -35 -9 -48 -52 -68 -60 -18 -46 -13 0
25 15 58 75 45 54 52 42 -56 -8 -51 -60 -37 -31 -81 -10 -13 -22 0
38 65 72 30 70 28 9 7 59 23 -40 -73 -3 -62 -35 -61 -54 -47 -43 -76 -53 -66 -34 -80 -33 -41 -5 0
80 3 54 75 61 2 7 68 32 47 74 56 41 42 34 18 15 45 4 -11 -76 -69 -5 -65 -40 -64 -9 -6 -14 -23 -26 -73 -31 -35 -43 -72 -37 -79 -59 -22 -46 -24 0
51 17 -67 -71 0
3 73 31 8 16 13 25 55 53 58 59 11 75 81 21 29 66 1 79 35 4 18 33 46 -2 -30 -39 -19 -5 -41 -68 -49 -78 -77 -48 -64 -61 -22 -47 -60 -43 -56 -37 -80 -12 -15 -24 -36 -20 -76 -10 -45 -17 -38 -7 -72 -26 -65 0
5 40 24 -70 -27 -38 -14 -59 -80 -68 -51 -61 0
9 62 5 54 21 79 73 50 67 77 20 36 41 14 35 7 74 46 10 55 24 22 60 64 53 63 32 11 70 25 59 65 -4 -51 -1 -30 -19 -23 -71 -33 -52 -3 -68 -15 -66 -48 -80 -69 -72 -2 -57 -16 -56 -61 -28 -42 -18 -43 -37 0
45 60 6 55 12 8 21 1 10 36 59 5 51 3 43 2 24 63 50 81 62 47 56 37 23 73 29 52 -25 -67 -30 -34 -20 -54 -19 -9 -80 -77 -18 -74 -38 -64 -49 -71 -11 -42 -75 -48 -32 -79 -72 -7 -22 -40 0
57 4 8 12 36 19 10 9 -63 -59 -38 -73 -81 -29 -65 -28 -71 -2 0
58 48 9 13 53 57 39 31 56 44 59 14 63 70 68 37 38 36 41 76 15 2 49 22 43 62 30 -34 -51 -75 -18 -78 -6 -66 -80 -29 -11 -4 -17 -45 -8 -61 -27 -10 -72 -67 -46 -23 -32 -7 -35 -1 -64 -33 0
31 79 8 2 12 35 23 41 32 29 74 56 46 -18 -10 -57 -62 -67 -34 -50 -43 -20 -64 -42 -47 0
44 65 1 29 49 60 81 66 45 40 35 54 15 36 76 61 48 51 17 63 75 32 53 14 37 26 22 39 24 74 11 -25 -38 -21 -73 -58 -19 -57 -55 -47 -3 -43 -33 -56 -13 -72 -23 -71 -34 -42 -18 -50 -64 -31 -4 -9 -52 -46 -69 -5 -41 -16 -79 0
9 43 40 78 26 4 81 69 75 17 52 21 56 59 42 50 58 45 5 49 6 13 36 39 76 3 -74 -14 -7 -8 -31 -77 -65 -41 -28 -51 -72 -12 -63 -35 -61 -1 -66 -80 -70 -30 0
19 70 73 34 63 56 41 17 12 6 72 57 31 64 39 10 1 53 38 66 8 23 52 54 25 24 28 49 18 58 51 48 35 5 68 65 43 -78 -33 -44 -71 -55 -40 -74 -76 -75 -42 -69 -9 -27 -81 -50 -21 -79 -80 -20 -60 -61 -13 -46 0
15 63 6 8 70 20 -48 -45 -41 -39 -21 -49 -42 -44 -77 -68 -40 -81 -33 -37 -16 -4 -80 0
9 44 48 81 57 65 19 6 53 70 56 -59 -15 -50 -24 -39 -62 -64 -25 -35 -67 -22 -42 -60 -7 0
37 51 -30 -6 -25 -49 0
12 71 20 7 31 39 54 -35 0
61 70 47 8 76 28 24 58 32 4 42 3 46 26 67 9 65 45 7 44 81 -35 -48 -23 -49 -51 -19 -57 -78 -36 -79 -68 -69 -37 -27 -66 -80 -73 -53 -50 -63 -52 -15 -43 -55 -31 -10 0
53 81 60 13 25 28 40 9 30 57 59 5 67 38 56 68 7 19 54 17 21 2 63 50 14 49 73 10 -47 -27 -36 -58 -78 -64 -34 -61 -45 -46 -8 -16 -12 -79 -52 -39 -31 -24 -11 -72 -76 -4 -77 -6 -41 -51 -74 -66 -44 -23 -55 -26 -80 -15 -22 -32 -37 -3 -62 -20 -71 0
50 51 48 67 33 58 54 27 75 65 64 38 60 18 39 74 59 34 47 -6 -45 -5 -8 -3 -31 -11 -16 -37 -80 -56 -76 -1 -77 -70 -10 -15 -21 -73 -17 -23 -61 -68 -24 -62 -79 -26 -19 -32 -78 -29 -9 -12 -46 -13 -41 -4 0
3 72 13 36 55 17 11 73 45 19 49 66 42 -77 -2 -65 -81 -26 -18 -64 -63 -53 -58 -61 -78 0
59 39 37 69 10 -5 -9 -63 -74 -17 0
2 48 51 42 64 23 70 78 1 9 3 26 67 77 52 35 20 -12 -49 -59 -44 -16 -71 -66 -45 -4 -30 -14 -40 -69 -5 -25 -74 -55 -50 0
72 30 -27 -9 0
-14 -71 -58 0
15 46 37 51 62 73 79 47 64 25 5 68 2 12 71 14 69 18 77 76 55 36 49 63 67 38 81 -48 -11 -1 -74 -22 -10 -34 -78 -80 -9 -75 -4 -61 -58 -39 -24 -60 -31 -3 -32 -17 -33 -70 -26 -41 -16 -28 -30 -20 -53 -57 -19 -52 0
18 45 81 29 59 32 55 56 19 76 65 47 77 33 67 42 73 62 23 37 63 34 38 74 51 60 8 25 30 71 36 11 22 58 46 28 64 66 49 27 21 16 75 -72 -12 -9 -24 -20 -79 -7 -52 -4 -80 -68 -2 -69 -53 -17 -5 -48 -26 -14 -50 -6 -31 -15 -13 -78 -3 -40 -39 -61 -44 -1 -35 -41 -43 -57 0
25 75 21 68 54 51 9 73 37 4 80 47 60 30 27 26 62 64 58 12 43 14 32 72 -10 -24 -22 -65 -13 -17 -81 -48 -74 -63 -8 -15 -71 -28 -56 -2 -55 0
28 38 77 76 4 31 80 18 42 8 71 63 60 56 16 43 27 17 45 24 59 10 -79 -73 -51 -33 -15 -62 -29 -3 -35 -26 -52 -13 -61 -37 0
79 54 18 45 81 3 72 -9 -11 -26 -56 -75 -12 -77 -80 0
35 33 79 15 43 27 68 77 56 -2 -18 -70 -31 -9 -73 -21 -47 -1 -61 0
12 35 33 66 4 37 15 13 52 44 77 28 58 48 47 43 27 29 14 1 81 2 60 68 63 65 72 51 62 78 3 26 34 6 -25 -56 -45 -54 -20 -41 -80 -23 -40 -64 -53 -67 -75 -30 -59 -46 -31 -42 -55 -17 -8 -24 -79 -76 -7 -74 -73 0
56 44 11 42 9 -8 -68 -59 -22 0
52 9 46 10 20 59 60 50 45 5 65 48 55 61 39 11 8 62 19 53 18 13 -43 -51 -40 -31 -57 -2 -27 -67 -79 -38 -49 -7 -1 -77 -76 -32 -68 -22 -16 -36 -70 -34 -26 -37 -80 -63 -54 -42 -17 -25 -78 -75 -15 -23 -47 -4 -71 0
7 55 44 57 9 64 49 10 20 63 8 33 43 28 50 71 23 74 37 4 35 76 51 3 52 2 6 78 12 59 25 11 46 -40 -15 -65 -73 -47 -1 -5 -13 -31 -81 -68 -45 -66 -22 -77 -14 -80 -75 -42 -62 -58 -34 -36 -26 -27 -16 -54 -24 -61 0
39 61 -32 -50 -55 -31 0
81 72 80 64 36 23 63 61 41 32 13 40 6 74 26 44 4 39 7 21 54 55 56 25 5 49 75 31 66 53 16 59 -27 -57 -30 -73 -1 -76 -77 -67 -17 -43 -9 -33 -24 -79 -50 -42 -29 -71 -3 -15 -37 -14 -11 -34 -51 -62 -70 -60 -2 -38 -10 -18 -48 0
79 -80 -78 -76 0
17 61 40 11 47 76 42 28 71 65 53 1 7 19 -8 -30 -14 -46 -78 -20 -73 0
23 14 59 33 41 52 3 44 80 34 46 45 13 74 57 37 35 54 7 61 71 70 1 68 9 62 28 60 -24 -58 -76 -63 -64 -31 -16 -77 -75 -26 -40 -21 -78 -65 -5 -48 -42 -4 -39 -47 -29 -18 -22 -72 -67 -12 -27 -36 -69 -20 -49 -25 0
13 69 58 6 21 64 7 -4 -15 -27 -71 -10 -26 -16 0
28 8 74 44 17 60 46 26 32 57 3 23 40 78 33 80 81 38 39 52 35 36 25 63 64 1 22 51 59 69 55 6 68 29 67 79 14 20 37 54 5 47 12 43 -41 -2 -13 -16 -75 -49 -31 -21 -11 -27 -10 -9 -73 -24 -18 -4 -72 -53 -42 -77 -71 -65 -58 -19 -76 -61 -70 -56 -45 -50 -7 -62 -15 0
52 36 66 -57 -38 -63 0
81 39 60 45 25 8 11 23 52 78 51 72 54 -29 -1 -50 -67 -58 -38 -13 -68 -18 -42 -77 -55 -43 -19 -36 -63 0
27 1 57 42 5 73 63 79 55 61 69 43 26 71 8 70 77 9 81 4 76 67 51 45 11 29 62 36 14 25 -17 -72 -80 -7 -44 -13 -24 -68 -10 -28 -47 -31 -74 -65 -53 -6 -34 -56 -15 -38 -50 -19 -60 -75 -18 -21 -52 -32 -2 -64 -12 0
24 46 61 6 35 55 50 57 1 14 75 10 71 60 16 -67 -49 -52 -8 -68 -26 -44 -59 -63 -56 -39 -81 -23 -31 -15 -58 -77 -73 -13 -18 -72 -37 -65 -28 0
5 27 49 8 64 67 22 4 9 33 7 23 3 56 48 66 68 55 16 58 69 54 50 18 63 21 39 35 65 74 75 29 43 47 62 10 37 79 30 -80 -42 -25 -72 -51 -38 -53 -1 -70 -24 -31 -2 -6 -40 -61 -52 -60 -57 -71 -77 -41 -13 -78 -11 -12 -19 -15 -17 -81 -20 -46 -73 -14 0
46 55 70 74 23 79 57 29 6 12 2 81 30 -14 -43 -65 -51 -54 -62 -28 -15 -47 -56 -40 -31 -77 -67 -48 -18 -63 -41 -61 -26 -58 -73 -75 -72 -17 -44 -50 0
9 10 36 13 27 67 61 14 81 53 63 72 55 39 49 4 2 32 60 64 48 51 24 7 77 58 11 68 15 71 66 73 17 28 22 40 56 50 38 80 -70 -44 -78 -26 -1 -34 -52 -69 -31 -74 -79 -45 -43 -18 -47 -5 -33 -12 -65 -62 -20 -41 -46 -75 -25 -42 -8 -57 -6 -54 -3 -29 -35 -37 -23 0
63 54 41 11 60 55 12 2 29 44 39 43 15 6 46 52 20 27 75 36 13 51 49 66 68 3 37 26 47 17 14 40 7 56 24 1 5 32 70 -10 -78 -73 -19 -67 -4 -58 -50 -33 -45 -62 -79 -34 -80 -42 -21 -77 -30 -64 -53 -25 -71 -81 -72 -16 -18 -35 -65 -69 -76 -28 0
71 36 60 80 4 1 69 64 59 75 32 13 35 16 27 79 31 73 25 33 52 62 17 14 15 11 22 21 -50 -61 -46 -48 -54 -39 -23 -70 -77 -37 -58 -29 -30 -26 -57 -45 -7 -10 -65 -43 0
22 19 56 81 66 30 51 27 70 46 16 58 43 69 33 23 60 65 75 74 68 13 50 -61 -78 -77 -34 -26 -62 -8 -6 -72 -20 -35 -41 -67 -57 -9 -29 -37 -15 -45 -18 -44 -42 -38 0
66 4 59 9 79 39 51 15 62 64 26 22 5 42 71 75 67 49 52 37 61 34 45 -43 -31 -48 -81 -36 -76 -33 -16 -47 -21 -23 -55 -38 -65 -72 -6 -32 -10 0
50 16 35 31 60 25 64 26 76 5 81 46 17 30 13 80 21 20 66 51 14 -29 -47 -8 -74 -41 -57 -38 -70 -23 -56 -58 -65 -28 0
45 46 31 32 3 61 52 9 48 14 79 27 49 11 67 37 8 47 77 39 59 72 12 36 19 24 30 58 25 68 17 70 18 53 28 55 33 13 29 69 2 56 -6 -35 -76 -74 -1 -62 -43 -65 -44 -51 -40 -20 -60 -34 -21 -78 -22 -5 -64 -42 -10 -4 -75 -71 -26 -41 -73 -57 -7 -66 0
76 47 78 38 31 24 9 74 54 71 15 70 37 52 59 79 -2 -20 -46 -11 -80 -29 -73 -48 -57 -45 -64 -6 -66 -67 -58 -63 -75 -69 -72 -55 -22 0
34 6 1 78 57 14 39 3 36 66 43 18 11 55 16 32 49 72 80 59 71 4 76 26 27 30 23 42 51 22 65 19 41 -48 -54 -50 -77 -10 -56 -47 -7 -29 -28 -61 -24 -33 -70 -35 -45 -74 -12 -69 -21 -20 -31 -40 -64 -67 -68 -73 -5 -60 -62 -44 -13 -81 -8 -25 -63 -2 -58 0
32 61 45 44 64 15 18 25 2 -7 -23 -68 -75 -51 -78 -65 -67 -35 -13 -34 -62 -74 -29 -69 -30 0
69 37 58 44 22 56 32 72 65 3 16 78 2 -40 -66 -48 -50 -74 -70 -5 -53 -51 -47 -12 -20 -28 -7 -17 0
14 4 44 78 39 2 3 9 7 17 41 42 33 71 54 70 73 63 37 48 59 6 69 65 64 10 61 81 26 19 34 46 -13 -53 -77 -38 -24 -36 -23 -29 -66 -68 -56 -79 -49 -12 -80 -57 -52 -25 -15 -74 -1 -31 -67 -75 -5 -22 -62 -47 -30 -28 0
53 77 81 14 35 37 75 28 19 -48 -29 -54 -34 -42 -51 -45 -69 -17 -16 -4 -66 0
19 45 58 46 77 8 10 81 53 73 65 76 15 29 41 59 34 -23 -6 -5 -13 -71 -47 -54 -1 -43 -28 -30 -37 0
65 4 40 12 33 41 22 -53 -21 -1 -31 -52 -24 -38 -20 -51 -29 0
57 56 52 3 11 62 81 75 21 76 26 51 12 20 23 67 45 17 73 43 32 8 9 24 58 2 39 70 63 36 5 64 78 33 46 -79 -27 -55 -30 -35 -18 -77 -48 -40 -22 -1 -69 -71 -15 -42 -74 -54 -13 -38 -53 -14 -7 -28 -47 -37 -61 -25 -16 -34 -4 -80 -59 -6 -65 -19 -31 -66 0
20 24 80 5 78 19 26 13 47 15 63 21 6 30 57 71 66 51 32 65 74 69 42 40 50 3 54 35 61 -10 -7 -56 -41 -37 -73 -60 -58 -31 -2 -1 -79 -64 -77 -25 -62 -34 -68 -11 -49 -4 -27 -76 -46 -18 -59 -38 -43 -33 -28 0
74 56 9 -38 -11 -25 0
4 56 30 39 2 28 3 29 17 72 52 57 47 66 26 44 38 42 53 67 13 19 81 7 9 11 59 64 43 15 23 51 41 60 8 33 32 22 -46 -45 -24 -80 -75 -79 -69 -68 -6 -77 -10 -76 -5 -54 -31 -40 -35 -37 -49 -18 -25 -14 -55 -65 -63 -70 -34 -27 -50 -12 -16 -20 -71 -21 -73 0
15 52 24 17 68 50 3 58 23 31 76 43 78 22 -34 -60 -30 -49 -36 -9 -53 -74 -73 -67 -19 -56 -12 -75 -55 -47 -35 -16 -70 -48 0
16 61 25 73 47 9 52 54 31 26 62 44 19 17 41 63 7 80 37 48 13 4 58 76 72 6 78 75 -35 -56 -57 -69 -32 -60 -43 -77 -46 -15 -10 -30 -36 -5 -79 -1 -22 -67 -12 -27 -50 -39 -40 -70 -74 -24 -49 -8 -34 -65 -2 -18 -28 -68 -23 -59 -20 -14 0
10 29 66 33 8 53 15 6 64 31 20 62 69 9 37 30 34 12 27 63 24 4 56 76 39 45 44 59 -1 -73 -42 -74 -68 -57 -3 -14 -23 -46 -78 -16 -75 -21 -60 -18 -49 -36 -25 -61 -77 -67 -26 -28 -80 -35 -41 -71 -52 -79 -38 0
4 50 59 51 64 15 66 65 5 81 14 60 3 30 44 13 75 18 46 72 16 57 7 79 11 32 52 10 74 -9 -17 -63 -56 -33 -71 -62 -38 -8 -76 -49 -22 -70 -47 -61 -28 -21 -53 -77 -36 -73 -48 -26 0
36 54 7 31 65 76 39 71 48 12 24 -81 -70 -72 -59 -74 -62 0
24 69 62 17 61 11 2 79 25 47 55 66 14 30 58 64 3 46 6 49 29 71 -43 -41 -67 -77 -34 -4 -57 -72 -32 -80 -22 -74 -70 -1 -53 -48 -13 -28 -8 -27 -39 -10 -63 -81 -12 -33 0
77 68 1 52 10 16 58 81 35 46 20 21 65 30 3 41 2 74 47 19 23 27 55 -28 -22 -18 -53 -59 -66 -49 -45 -54 -6 -33 -57 -14 -48 -67 -13 -75 -43 -38 -71 -34 -42 -44 -73 -78 -76 -39 -8 -60 -5 -70 -7 -29 -11 -63 -56 -17 -4 -37 -15 -69 0
27 40 1 71 45 56 12 80 15 55 41 6 13 42 59 79 51 38 64 75 66 20 -34 -22 -67 -14 -60 -4 -16 -2 -31 -44 -47 -29 -49 -69 -37 -17 -39 -68 -43 0
53 23 8 44 6 49 66 7 56 68 12 16 3 28 67 19 81 69 11 41 46 70 22 42 55 78 30 2 47 72 61 17 -18 -29 -26 -65 -13 -75 -80 -54 -25 -51 -36 -59 -1 -43 -15 -27 -34 -33 -74 -31 -58 -50 -73 -38 -45 -4 -21 -76 -35 -24 -71 -62 -79 -60 -52 -39 -37 -9 -10 -57 0
62 33 72 76 28 59 24 31 4 11 63 16 65 61 69 7 68 67 19 15 42 20 35 52 57 9 45 -12 -49 -71 -40 -60 -21 -25 -34 -46 -5 -13 -78 -56 -37 -73 -39 -77 -29 -81 -27 0
41 62 56 76 71 73 11 36 52 38 65 39 37 3 28 8 24 15 26 21 47 29 61 60 50 74 14 80 46 57 64 13 4 66 31 30 72 32 -33 -53 -1 -75 -25 -19 -7 -6 -69 -78 -16 -40 -77 -68 -10 -42 -79 -67 -43 -70 -2 -12 -9 -5 -54 -27 -20 -51 -59 -23 -17 -34 -45 -55 -18 -35 -63 -22 -81 -48 0
71 79 30 54 49 51 60 10 64 63 5 -66 -22 -29 -27 -4 -20 -56 -70 -39 -18 -80 -52 -17 -38 -74 0
53 2 9 59 37 49 -70 -19 -62 -76 -5 -81 -68 -11 -35 0
22 76 -70 -44 0
48 17 66 60 80 62 79 38 57 40 56 54 11 19 29 25 14 78 59 18 5 24 53 63 26 41 64 -51 -7 -13 -68 -33 -77 -21 -70 -32 -22 -50 -35 -31 -52 -72 -27 -36 -75 -44 -46 -49 -20 -12 -43 -4 -47 -34 -71 -45 -61 -9 -42 -39 -74 -6 -28 0
45 9 78 70 58 11 19 64 24 -76 -37 -31 -62 -52 -15 -42 -53 -51 -69 0
44 58 70 52 11 55 3 80 22 17 8 15 68 23 63 1 10 78 73 21 77 4 71 56 48 -61 -66 -53 -14 -57 -20 -33 -2 -35 -16 -41 -62 -27 -25 -39 -36 -7 -5 0
4 42 68 47 79 22 57 19 29 81 67 -31 -20 -7 -78 -61 -80 -38 -69 -51 -76 0
59 29 1 15 81 58 7 12 53 31 63 69 52 -47 -11 -3 -66 -6 -16 -57 -54 -9 -21 -13 -49 -73 -51 -45 -60 -25 -26 -19 -46 -10 -44 -18 -80 0
81 24 40 26 32 9 70 61 8 55 17 41 15 45 -54 -80 -38 -44 -16 -28 -35 -19 -12 -62 -79 -42 -50 -37 -72 -77 -7 -43 -75 0
34 57 21 30 65 18 43 50 42 32 5 47 81 10 35 73 9 66 54 58 52 77 2 62 28 29 74 19 41 4 13 33 72 61 39 68 27 14 15 17 -80 -45 -26 -53 -25 -3 -12 -71 -38 -76 -49 -7 -63 -70 -79 -46 -6 -16 -56 -23 -55 -24 -31 -44 -51 -8 -20 -11 -60 -59 -78 -67 -64 -75 -48 -22 -40 0
68 70 16 51 38 26 50 8 18 56 33 22 54 78 12 24 -20 -4 -28 -64 -79 -27 -74 -77 -30 -3 -47 -69 0
31 21 50 -32 -19 -23 -66 0
73 66 7 74 39 28 42 78 75 31 11 59 62 72 9 1 40 19 56 37 69 79 20 55 13 47 2 -52 -35 -27 -17 -43 -34 -6 -76 -53 -12 -57 -51 -80 -48 -60 -64 -61 -30 -41 -25 -32 -18 -5 -38 -23 -15 -22 -3 -36 -44 -8 0
52 53 57 46 30 22 11 5 15 50 26 34 33 31 68 58 56 25 47 2 70 28 27 35 38 17 71 10 14 73 20 40 -18 -36 -43 -75 -81 -65 -41 -45 -7 -66 -24 -49 -51 -72 -12 -44 -32 -55 -37 -69 -79 -16 -62 -29 -9 -61 -48 -74 -67 0
74 48 53 43 31 73 22 55 15 36 63 38 54 16 25 61 49 69 39 65 35 10 47 62 79 2 80 45 9 75 14 -67 -51 -71 -41 -77 -42 -8 -23 -58 -59 -21 -72 -37 -78 -40 -20 -57 -7 -33 -68 -29 -5 -64 -66 -12 -13 -17 -6 -46 -52 -18 -1 -44 -60 -4 -19 -27 -30 -76 -26 0
21 64 59 22 4 20 61 67 40 42 26 49 5 7 38 35 57 33 1 55 62 24 54 66 23 39 74 15 71 58 9 47 31 19 76 44 14 56 -25 -30 -36 -51 -6 -65 -73 -27 -70 -75 -2 -37 -60 -77 -12 -16 -11 -45 -13 -46 -50 -72 -32 -80 -69 -78 -43 -81 -52 -8 -10 -41 -79 -63 -53 0
21 10 6 -41 0
20 79 35 78 47 7 36 24 76 2 18 54 55 75 80 12 74 66 10 21 72 33 6 51 26 16 -40 -70 -43 -49 -59 -45 -58 -77 -28 -71 -50 -60 -1 -64 -44 -46 -68 -17 -37 -4 -22 -8 -9 -29 -48 -30 -23 -31 -27 0
25 77 68 4 46 7 53 33 56 54 61 40 55 45 2 58 43 47 49 16 -34 -63 -11 -10 -32 -42 -48 -27 -59 -70 -51 -38 -41 -3 -66 -50 -71 -13 -74 -17 0
80 24 40 66 3 16 37 29 1 77 15 75 65 67 56 50 55 42 32 63 43 41 28 21 9 13 52 -2 -39 -18 -74 -12 -54 -27 -25 -62 -46 -8 -61 -49 -51 -23 -11 -68 -60 -64 -35 -44 -76 -71 -73 0
23 39 28 59 19 55 30 80 36 33 69 1 44 71 2 60 12 11 46 21 13 68 62 65 15 45 49 61 47 3 52 25 17 -53 -66 -42 -76 -22 -16 -29 -79 -10 -73 -24 -37 -41 -32 -67 -38 -9 -7 -48 -81 -4 -74 -26 -27 -63 -5 0
50 57 -5 -31 -72 -10 -34 -76 -59 -64 0
44 65 59 4 35 14 2 77 74 26 9 25 56 22 62 69 47 20 24 5 68 33 13 23 32 45 11 72 61 3 75 -39 -29 -48 -81 -76 -34 -37 -30 -78 -67 -8 -53 -7 -41 -60 -31 -57 -63 -42 -52 -51 -17 -79 -21 -12 -71 -70 -64 -15 -6 0
37 20 51 39 10 59 11 4 36 18 75 79 68 8 70 7 81 6 74 32 71 33 45 47 43 80 29 77 -62 -27 -69 -40 -46 -50 -42 -16 -24 -61 -52 -49 -21 -63 -41 -22 -28 -30 -17 -2 -15 -48 -9 -73 -44 -66 -13 -34 -78 -57 -72 -1 -67 -3 -58 -19 0
36 62 54 49 4 -70 -57 -81 0
53 78 59 39 46 51 -45 -74 -43 -6 0
49 16 61 18 44 47 17 50 22 40 36 58 81 28 20 69 57 56 73 59 39 27 42 -75 -12 -45 -74 -23 -70 -48 -37 -10 -26 -24 -77 -67 -25 -30 -7 -2 -63 -38 -41 -3 -60 -5 -34 -80 -53 -9 0
2 24 36 52 53 27 49 75 74 73 42 54 44 48 15 10 78 13 32 64 63 1 51 79 18 -28 -58 -69 -57 -55 -66 -31 -21 -33 -59 -7 -38 -11 -30 -16 -62 -68 -71 -6 -4 -41 -23 -81 -19 -14 -67 -3 0
74 7 8 20 27 44 6 9 45 64 46 16 5 11 54 61 62 67 35 68 65 69 19 78 41 58 3 52 1 36 75 49 22 25 28 73 18 24 -66 -29 -14 -51 -2 -17 -71 -42 -38 -53 -70 -72 -43 -77 -39 -21 -76 -57 -55 -13 -10 -79 -47 -60 -40 -12 -80 -32 -56 -15 -31 -33 -48 -63 0
66 34 32 38 8 31 77 -56 -73 -63 -22 -76 -5 -2 -27 -23 -46 0
36 79 78 26 55 10 59 54 20 44 19 30 -62 -71 -66 -31 -18 -29 -81 -14 -50 -49 0
48 36 20 -51 -60 -71 0
67 19 31 28 16 79 6 75 74 51 76 34 68 77 10 62 21 78 61 14 46 63 65 38 69 36 71 48 1 80 49 5 56 22 81 -3 -43 -20 -27 -45 -53 -60 -7 -9 -25 -47 -70 -39 -42 -23 -32 -35 -13 -33 -11 -12 -66 -58 -57 -55 -59 -54 0
65 6 -35 -50 -56 -47 -37 0
32 27 69 2 -79 -6 -4 -54 -47 -11 -67 0
72 63 56 64 10 46 52 65 8 35 39 58 37 62 25 48 24 5 59 28 54 4 33 21 69 13 55 22 74 50 47 66 70 42 68 19 53 60 78 34 61 -26 -18 -73 -3 -44 -12 -43 -1 -36 -20 -38 -31 -30 -79 -11 -16 -6 -45 -76 -51 -32 -81 -71 -14 -49 -77 -80 -7 -29 -27 -75 -15 -57 -2 -40 -41 -9 -67 -23 0
12 78 11 13 58 61 55 49 75 33 67 22 54 45 18 16 70 8 2 71 37 20 53 42 21 -6 -17 -24 -62 -27 -80 -9 -35 -41 -68 -73 -4 -52 -46 -15 -32 -25 -26 -10 -40 -28 -59 -38 -51 -57 -64 -63 -39 -3 -19 0
75 58 68 28 42 3 64 29 43 21 18 50 16 57 81 49 78 41 25 36 4 48 69 12 76 17 60 77 19 55 63 47 56 -7 -46 -10 -71 -51 -80 -22 -59 -53 -27 -66 -62 -54 -6 -11 -1 -39 -38 -9 -2 -61 -73 -31 0
71 9 67 46 38 51 78 47 50 65 81 64 30 73 -15 -43 -77 -29 -3 -74 -79 -70 -58 -4 -21 -36 -49 -39 -17 -41 0
55 61 46 77 21 54 69 17 42 78 51 49 68 19 40 9 10 57 72 20 -58 -6 -70 -52 -3 -7 -43 -23 -28 -36 -12 -45 -35 -32 -29 -44 -15 -76 -75 -25 -48 -71 -33 0
27 14 5 47 63 81 22 18 28 24 68 41 15 42 77 19 76 45 50 49 35 -4 -57 -16 -36 -2 -29 -39 -55 -13 -10 -52 -31 -70 -61 -75 -11 -1 -79 -59 -17 -7 0
51 81 32 16 76 42 34 29 63 67 40 52 58 26 39 48 70 28 4 22 3 74 14 75 33 11 2 46 64 -10 -53 -27 -13 -47 -9 -45 -59 -80 -50 -30 -18 -65 -66 -36 -69 -15 -60 -56 -7 -68 -73 -71 -6 -25 -21 -31 -77 -37 -20 -61 -57 -79 0
12 21 16 67 29 59 54 49 5 15 45 62 13 73 63 7 22 30 11 40 48 28 66 33 8 70 55 74 76 38 46 24 18 34 2 57 10 47 53 20 32 81 -1 -77 -31 -43 -44 -26 -69 -50 -36 -60 -78 -3 -17 -79 -37 -56 -27 -35 -4 -19 -39 -42 -6 -52 -41 -75 -51 -58 -71 -61 -72 -65 0
24 77 62 69 42 73 81 54 18 45 61 36 8 13 57 6 47 23 -46 -75 -72 -50 -64 -9 -35 -48 -74 -44 -21 -15 -76 -66 -27 0
67 2 27 42 50 59 -25 -54 -32 -78 -21 -3 -61 -52 -26 -70 -17 0
72 35 47 65 28 14 56 80 23 44 42 81 51 43 74 8 49 75 57 48 50 21 29 32 45 54 33 20 60 9 -26 -38 -68 -70 -2 -17 -66 -27 -78 -30 -25 -61 -67 -69 -19 -22 -71 -1 -46 -7 -36 -40 -59 -76 -52 -41 0
60 58 51 78 64 49 30 23 38 19 7 1 13 81 42 43 12 27 35 63 10 9 -20 -74 -5 -44 -61 -75 -41 -32 -28 -66 -11 -65 -22 -8 -21 -69 -70 -39 -59 -33 0
63 10 52 22 66 47 68 11 74 69 -45 -44 -29 -19 -39 -58 -40 -56 -3 -51 0
25 40 46 30 78 53 28 20 33 63 64 15 12 81 69 44 36 74 24 3 45 14 21 68 26 43 -9 -67 -59 -31 -32 -48 -11 -22 -37 -8 -18 -51 -54 -10 -34 -62 -6 -72 -71 -42 -61 -29 -58 -38 -35 -16 -27 -2 -55 0
47 44 68 46 29 49 77 28 -8 -67 -62 -27 -63 -53 -11 -35 -80 -34 -22 -30 0
15 70 13 49 80 5 77 16 78 57 40 1 71 63 7 19 26 36 39 68 66 25 79 65 9 75 21 4 73 44 2 23 20 41 29 56 27 48 51 81 45 -28 -62 -64 -43 -8 -55 -69 -17 -58 -24 -3 -6 -11 -12 -38 -14 -22 -31 -33 -67 -42 -72 -74 -52 -34 -35 -47 -37 -61 0
28 22 4 49 70 17 31 72 34 26 76 39 38 35 -54 -68 -29 -42 -62 -40 -33 -8 -81 -10 -41 -30 -27 -6 -32 -58 0
39 29 24 70 76 75 62 54 2 8 73 26 21 46 9 28 20 27 35 69 78 57 15 58 31 10 61 63 37 72 30 38 51 60 77 5 -18 -68 -47 -23 -49 -50 -52 -34 -67 -6 -42 -12 -17 -36 -74 -55 -40 -4 -22 -59 -3 -33 -71 -53 -66 -19 -56 -32 -11 -81 -65 -64 -44 -13 -48 -25 -7 -14 -45 -41 -16 -1 -43 0
45 42 2 61 44 32 65 79 7 26 17 16 34 20 68 59 75 -14 -64 -25 -54 -62 -47 -50 -67 -28 -74 -38 -27 -18 -37 -10 -57 -8 -56 -36 -9 -24 -77 -46 -48 -39 -76 -51 -6 0
63 36 78 33 15 21 53 51 22 30 64 50 14 55 38 17 16 5 7 48 76 57 42 26 72 49 75 25 29 66 34 45 79 60 74 9 81 39 61 -23 -13 -20 -69 -37 -62 -6 -24 -43 -54 -40 -68 -8 -2 -77 -41 -71 -46 -31 -4 -52 -47 -28 -58 -65 -59 -35 -44 -11 -18 -73 -56 -80 0
24 37 19 38 6 72 67 51 10 33 5 60 76 43 34 69 21 15 63 13 44 68 12 74 26 3 42 35 8 54 64 23 32 47 11 41 -79 -77 -40 -16 -52 -71 -4 -36 -80 -1 -65 -30 -18 -61 -17 -78 -45 -2 -39 -25 -53 -62 -49 -28 -70 -20 -81 -7 -55 -66 -9 -50 -56 -46 -31 0
-50 0
48 11 38 32 -44 -62 -34 -56 0
25 56 62 8 52 59 67 69 50 9 80 -43 -38 -6 -11 -76 -21 -16 -57 -70 -61 -27 0
28 48 13 33 61 77 51 68 57 7 -8 -6 -60 -71 -17 -2 -41 -49 -26 -58 -52 -30 -54 -31 -40 -1 0
73 16 17 47 67 15 70 -45 -78 -12 -19 -36 -27 -25 -74 0
27 62 14 39 53 28 12 76 48 42 40 66 56 21 44 47 26 3 31 34 79 -30 -36 -64 -13 -35 -2 -63 -8 -57 -74 -19 -59 -24 -77 -41 -75 -69 -23 -15 -51 0
73 55 27 41 4 49 64 5 37 63 56 60 24 52 2 7 3 14 70 10 58 51 31 68 6 36 26 30 21 76 77 46 59 16 50 -80 -9 -78 -20 -75 -28 -79 -43 -17 -22 -32 -42 -65 -61 -72 -44 -48 -29 -62 -35 -39 -18 -54 -13 -71 -66 -40 0
52 57 2 26 9 22 73 11 30 10 3 70 64 59 5 33 20 36 35 50 58 16 68 -34 -60 -45 -27 -17 -74 -80 -47 -41 -28 -44 -53 -62 -72 -24 -23 -46 -8 -12 -38 -81 0
81 15 34 32 22 13 12 55 54 26 8 78 24 4 7 59 5 48 67 35 80 77 6 16 21 53 75 68 10 14 3 38 -47 -79 -73 -39 -42 -66 -30 -52 -36 -31 -61 -70 -25 -29 -44 -37 -62 -23 -17 -71 -45 -40 -63 -69 -51 -46 -50 -64 -76 -18 -56 -1 -41 -20 -49 -72 -60 -43 -27 -2 -74 0
54 33 72 76 52 65 37 79 73 28 38 22 -62 -44 -35 -55 -30 -45 -18 -16 -64 -29 -26 -23 -59 -66 -9 -80 0
14 5 6 12 61 31 27 -22 -13 -36 -73 -51 -15 -55 -68 -63 0
60 35 49 23 3 44 37 41 55 67 10 51 52 73 12 47 45 30 29 38 1 19 53 50 32 71 2 36 75 33 43 54 -25 -65 -80 -4 -81 -11 -74 -16 -17 -78 -26 -58 -6 -64 -34 -42 -66 -57 -76 -7 -24 -63 -69 -8 -77 -13 0
16 42 65 7 61 57 36 76 23 35 29 44 43 17 40 3 62 63 78 37 79 80 52 55 -38 -53 -60 -68 -19 -45 -51 -13 -24 -15 -9 -74 -14 -11 -72 -1 -21 -12 -69 -47 -2 -54 -20 -10 -22 -59 -49 -28 -70 -31 -58 0
58 5 41 59 40 4 72 62 18 56 45 11 80 30 21 19 50 28 -60 -34 -33 -32 -27 -57 -37 -36 -42 -10 -20 -63 -79 -26 -51 -7 -43 -2 -81 0
9 79 7 81 68 48 74 18 78 4 33 47 34 35 60 67 73 12 71 59 52 -23 -37 -38 -69 -75 -41 -56 -6 -21 -54 -31 -2 -40 -22 -28 -20 -32 -63 0
19 15 77 39 4 22 8 25 29 10 75 35 48 41 73 72 54 9 -50 -46 -12 -55 -36 -64 -59 -33 -79 -42 -53 -45 -70 -14 -5 -30 -13 -68 -20 -76 -6 0
81 57 11 31 77 64 74 20 16 24 29 61 40 67 -54 -15 -13 -46 -50 -78 -41 -12 -60 -69 -23 -62 -73 -26 -8 0
28 16 56 1 6 22 59 43 76 2 42 26 24 14 78 40 67 31 66 11 35 80 21 46 30 33 64 60 10 81 45 48 62 7 68 4 54 58 13 49 -69 -47 -65 -25 -15 -57 -51 -32 -23 -61 -8 -63 -18 -19 -36 -34 -55 -77 -17 -3 -75 -39 -44 -71 -27 -29 -52 -73 -38 -79 -20 -72 -74 -50 -41 -70 -9 -5 -37 0
19 74 81 48 46 55 51 20 2 6 73 39 31 9 17 27 45 63 53 10 15 72 4 1 -70 -16 -13 -11 -57 -65 -30 -47 -34 -76 -44 -25 -56 -29 -80 0
45 7 2 49 -68 -42 -10 -38 -50 -57 -66 -41 -4 -71 -60 -75 0
22 72 47 56 76 27 68 6 25 4 78 9 8 33 46 32 35 -70 -57 -63 -11 -80 -7 -3 -49 -81 -50 -20 0
58 28 66 67 54 80 53 81 71 40 64 10 57 48 75 5 27 9 30 31 12 26 35 52 45 36 63 43 32 70 24 69 7 79 50 55 65 38 74 -2 -18 -8 -42 -29 -16 -21 -33 -62 -78 -15 -39 -22 -77 -72 -11 -49 -34 -41 -13 -20 -17 -51 -23 -14 -1 -44 -73 -37 -76 -19 -59 -3 0
43 22 3 75 2 78 61 69 67 76 52 27 68 38 33 64 47 29 60 41 -79 -80 -21 -32 -62 -14 -13 -23 -51 -35 -81 -4 -70 -74 -25 -12 -1 -37 -36 -34 -10 -42 0
8 11 1 36 41 34 3 72 13 46 51 17 32 10 33 69 2 62 68 9 53 56 63 25 39 30 29 77 66 27 60 -22 -59 -35 -24 -43 -26 -75 -58 -28 -19 -61 -57 -55 -44 -6 -64 -14 -70 -74 -76 -80 -23 -37 -65 -7 -5 -54 0
44 76 8 36 2 25 41 49 30 3 35 18 13 62 16 50 9 4 68 -34 -1 -32 -33 -5 -47 -52 -23 -19 -14 -27 -29 -10 -67 -53 -65 -56 -15 -39 -58 -70 -6 -17 -57 -38 -21 -55 -73 -59 -28 -48 -64 -37 -11 -46 -7 0
35 67 64 -13 -73 -3 -21 -62 -44 -56 0
37 17 19 64 9 1 49 27 56 32 -53 -13 -75 -57 -59 -41 -44 -11 -63 -54 -40 -26 -12 -10 -18 -60 -24 -14 -78 -46 -3 0
51 39 9 68 0
64 77 8 18 72 4 60 37 29 14 51 12 48 52 70 57 41 75 30 69 80 33 15 67 25 10 45 6 38 24 2 46 5 1 -71 -78 -66 -31 -16 -76 -17 -43 -28 -9 -65 -58 -13 -62 -3 -50 -61 -74 -73 -40 -42 -36 -35 -68 -49 -81 -54 -34 0
63 32 43 45 48 4 67 49 38 3 2 8 9 11 35 51 30 59 42 12 23 31 14 76 47 28 80 22 10 16 44 18 -77 -41 -64 -36 -21 -34 -75 -26 -53 -56 -65 -29 -60 -69 -81 -7 -68 -50 -20 -39 -66 -24 -72 -15 -78 -62 0
13 36 64 19 43 14 25 47 57 35 65 39 21 10 33 79 58 26 15 50 -41 -40 -73 -12 -2 -11 -48 -37 -4 -75 -77 -16 -74 -8 -70 -22 -56 -60 -5 -32 0
9 79 72 75 58 6 2 25 68 56 27 16 46 38 76 33 35 41 36 34 24 71 37 55 5 3 -1 -13 -54 -39 -31 -50 -42 -61 -66 -12 -64 -47 -63 -19 -52 -4 -73 -30 -51 -17 -62 -81 -8 0
65 62 43 61 45 9 53 70 31 15 21 12 5 35 63 23 55 34 75 10 51 29 -28 -39 -56 -72 -80 -6 -48 -44 -76 -25 -13 -52 -42 -81 -78 0
20 38 37 68 28 71 1 46 6 4 74 65 15 13 3 29 69 54 18 34 59 32 53 40 17 64 60 12 26 77 2 31 76 10 73 42 79 58 8 66 52 23 5 25 -63 -41 -78 -72 -67 -30 -24 -80 -19 -43 -56 -39 -9 -47 -48 -70 -61 -27 -44 -50 -57 -14 -51 -81 -35 -22 0
66 69 15 32 37 58 78 81 2 8 17 62 25 5 12 33 -74 -20 -72 -24 -28 -48 -47 -73 -54 -36 -1 -38 -56 -63 0
2 65 36 46 56 75 3 66 23 6 10 32 76 49 43 73 54 71 57 19 31 81 12 33 60 78 37 8 51 55 58 64 14 26 -70 -53 -18 -62 -50 -4 -48 -11 -35 -15 -34 -25 -63 -61 -24 -13 -45 -16 -9 -80 -40 -30 -20 -21 -17 -29 -27 -42 -47 -5 -38 -44 -79 -41 -59 -22 -7 -72 0
40 79 55 22 33 46 7 56 81 16 67 35 12 25 14 34 11 -31 -45 -20 -17 -64 -42 -26 -65 -30 -74 -68 -37 -63 -62 -18 0
70 -58 -48 0
41 22 38 58 30 43 75 55 79 65 49 5 50 47 16 68 15 26 23 -80 -24 -62 -40 -35 -48 -17 -31 -8 -4 -71 -12 -33 -46 -25 -76 -63 -60 -61 -34 -9 -42 -18 -53 -77 -2 0
-69 0
3 71 24 48 13 57 45 28 6 34 53 23 67 81 60 16 47 74 63 59 -77 -2 -69 -65 -17 -51 -22 -75 -46 -64 -1 -26 -43 -9 -55 -68 -78 -44 -50 -76 -80 -70 -33 -25 -37 -18 0
55 41 47 52 16 77 1 72 10 63 23 73 30 51 34 58 76 40 5 44 36 69 65 45 8 60 22 7 50 49 20 56 66 37 78 68 17 33 81 42 -27 -79 -61 -62 -46 -31 -70 -18 -71 -13 -80 -2 -25 -48 -9 -4 -26 -67 -12 -6 -54 -53 -39 -3 -21 -29 -43 -75 -19 -15 -59 -38 -32 -28 -64 -74 -24 -11 0
73 81 11 17 35 26 76 8 33 72 80 68 10 22 45 12 78 58 52 59 1 61 28 44 46 13 9 18 34 19 70 41 4 71 47 66 32 38 63 42 -56 -14 -27 -7 -24 -54 -65 -40 -43 -23 -36 -21 -51 -2 -48 -16 -50 -69 -67 -49 -20 -31 -37 -55 -29 -62 -30 -6 -39 -74 -53 -3 -57 -60 0
65 78 5 71 1 72 61 36 20 12 76 49 47 66 25 68 52 57 46 3 17 75 4 53 64 -32 -41 -9 -27 -38 -55 -59 -13 -58 -15 -56 -80 -16 -11 -54 -18 -19 -23 -30 -45 -8 -29 -77 -22 -37 -73 0
46 53 45 17 55 29 16 8 47 20 71 32 19 36 57 26 39 62 37 18 22 58 73 5 1 2 60 80 -13 -3 -41 -64 -77 -15 -61 -33 -48 -50 -52 -25 -4 -24 -75 -10 -7 -67 -31 -59 -56 -35 -76 -30 -65 -12 -21 -49 -51 -63 -34 -68 -72 -27 -28 0
56 62 37 22 5 68 79 57 20 61 15 39 10 76 55 49 11 8 1 19 60 25 75 2 35 44 70 50 31 29 77 14 72 9 71 81 13 42 26 -40 -66 -80 -33 -36 -28 -73 -69 -64 -34 -30 -43 -3 -23 -51 -7 -78 -47 -32 -65 -74 -38 -53 -17 -48 -4 -24 -21 -16 -54 -67 -41 -52 0
13 31 72 77 21 47 17 50 -51 -53 -9 -15 -1 -67 -37 -73 -14 -56 -4 -71 -11 0
44 5 75 47 55 49 33 9 -25 -72 -60 -35 -31 -63 -21 -51 -77 -40 -34 -12 -15 -80 -53 -37 -45 -27 0
21 49 43 12 59 30 31 67 5 24 36 38 20 62 17 75 25 68 39 47 10 61 48 13 35 34 27 65 73 3 60 51 22 -64 -70 -44 -57 -11 -71 -16 -4 -69 -26 -1 -7 -58 -45 -50 -37 -78 -46 -66 -32 -2 -23 -63 -56 -29 -72 -42 -8 -52 -14 -33 -81 -41 -74 -19 -79 -76 -80 -77 -54 -15 0
27 67 78 80 1 37 26 51 3 28 18 70 24 16 25 9 47 73 6 66 60 10 54 72 43 53 19 4 -34 -63 -36 -39 -30 -2 -15 -77 -49 -12 -69 -55 -79 -62 -14 -22 -52 -35 -5 -59 -41 -65 -8 -40 -33 -56 -31 -13 -68 -45 0
39 20 50 73 15 7 34 80 3 48 17 19 2 33 9 63 1 59 40 43 77 28 38 29 18 14 74 16 31 49 6 21 81 30 25 4 37 71 -62 -52 -46 -35 -44 -32 -61 -70 -23 -68 -22 -76 -36 -55 -12 -66 -78 -54 -72 -42 -79 -10 -58 -67 -5 -26 -45 -47 -41 -11 -13 0
11 78 36 5 60 35 2 29 24 16 23 66 40 50 12 54 6 44 73 31 55 17 49 43 26 3 -45 -77 -75 -38 -64 -32 -20 -25 -47 -15 -52 -10 -80 -62 -79 -7 -48 -4 -65 -8 -51 0
1 31 80 34 57 81 39 35 3 68 33 42 50 58 10 56 61 64 70 9 22 77 36 15 76 78 67 66 -74 -51 -71 -43 -69 -45 -52 -40 -18 -47 -79 -59 -16 -24 -41 -72 -73 -27 -7 -23 -32 -20 -65 -44 -60 -25 -28 -30 -49 -37 -54 -46 -13 0
15 17 5 33 19 16 18 53 80 29 24 46 25 48 39 7 26 42 -1 -27 -71 -70 -54 -77 -50 -23 -52 -9 -75 -30 -35 -51 -45 -41 -43 -57 -47 -10 0
2 21 10 46 17 65 63 55 8 66 33 23 6 12 59 27 31 16 68 -57 -36 -38 -60 -77 -3 -42 -40 -71 -32 -54 -19 -34 -26 -14 -39 -29 -78 -9 -5 -69 -35 -45 -30 -24 -80 -58 -49 0
20 22 68 29 14 5 71 52 2 60 66 47 73 41 51 57 59 63 78 17 43 48 13 44 35 69 19 81 12 77 79 18 80 45 74 -65 -36 -49 -27 -75 -58 -55 -4 -9 -8 -64 -56 -26 -72 -25 -10 -33 -67 -40 -70 -42 -50 -61 -76 -37 -15 -1 -53 -3 0
45 32 66 1 56 80 52 36 8 5 12 31 57 46 37 54 18 67 -2 -26 -29 -15 -65 -70 -44 -49 -28 -74 -78 -55 0
24 23 59 1 76 61 68 66 39 13 4 11 73 50 40 12 54 20 38 47 53 81 2 25 71 30 10 36 28 77 44 31 -45 -64 -65 -57 -46 -41 -48 -37 -35 -74 -14 -78 -60 -79 -52 -7 -72 -22 -18 -80 -8 -15 -3 -42 -63 -67 0
24 8 10 73 35 27 31 65 59 55 54 66 13 12 81 69 23 3 58 42 61 18 78 70 71 50 40 11 17 29 64 48 15 68 47 38 57 -33 -53 -62 -5 -20 -51 -75 -1 -43 -14 -41 -22 -19 -60 -44 -4 -45 -30 -37 -36 -7 -77 -63 -74 -72 -67 -34 -52 -28 -32 -76 -6 -56 -26 -9 -21 0
80 29 26 40 78 39 19 60 74 16 5 45 24 23 25 50 36 41 63 61 1 13 12 -14 -3 -72 -22 -64 -44 -8 -10 -11 -59 -27 -71 -53 -62 -33 -56 -37 -48 -67 -7 -34 -38 -68 -81 0
55 3 39 49 10 13 30 40 12 38 74 81 44 68 73 51 16 52 42 31 76 19 11 67 48 45 8 34 36 60 15 7 20 4 17 26 71 -72 -9 -33 -18 -41 -46 -65 -77 -50 -59 -21 -63 -58 -47 -24 -79 -56 -32 -66 -57 -5 -27 -6 -78 -22 -35 -69 -70 -14 -62 -64 -80 -61 -2 -37 -43 -75 -28 -1 0
44 42 52 50 27 32 51 -76 -75 -58 -47 -7 -36 -78 -77 -46 -23 0
79 52 27 12 50 43 4 10 80 7 54 68 49 47 63 23 1 38 9 45 16 78 -71 -55 -62 -28 -26 -33 -19 -32 -76 -13 -74 -6 -61 -75 -67 -60 -81 -66 -5 -8 -77 -46 -35 -31 -22 -11 0
27 14 35 11 16 15 20 40 21 34 61 9 80 46 -7 -76 -69 -26 -28 -41 -47 -5 -75 -62 -23 -81 -6 -38 -74 -10 0
41 26 10 70 21 11 37 3 62 12 58 7 67 59 -76 -38 -28 -49 -56 -35 -51 -64 -66 -47 -78 -75 -5 -14 -72 -60 -79 -22 -1 0
54 65 15 56 60 30 50 31 20 80 34 29 27 22 3 41 67 45 -61 -19 -69 -62 -70 -46 -72 -59 -28 -43 -75 -9 -39 -63 -58 -35 -77 -33 -1 -47 -52 -64 0
18 37 15 17 64 -29 -51 -36 -56 -35 -28 -74 -66 -50 -16 -52 -7 -32 0
21 19 6 67 2 10 13 71 70 -76 -12 -17 -59 -23 -61 -60 0
46 26 77 32 18 25 51 76 55 35 48 27 56 1 79 3 24 53 72 8 41 81 71 68 12 33 60 14 75 28 43 -5 -36 -17 -50 -31 -16 -62 -29 -65 -11 -44 -61 -7 -74 -2 -80 -40 -30 -67 -58 -13 -34 -78 -63 -54 -47 -52 -23 -6 -37 -49 -70 0
54 47 46 14 74 48 64 72 40 7 51 76 31 5 56 61 45 6 81 9 26 24 34 3 62 73 52 12 35 -8 -39 -28 -16 -2 -53 -80 -20 -50 -33 -57 -10 -22 -37 -77 -11 -4 -70 -41 -30 -55 -43 -13 -79 -36 -29 -1 -71 -42 -23 -75 -44 -21 -27 -68 0
6 14 3 75 36 37 80 60 1 28 68 12 67 2 46 41 56 66 38 11 81 55 72 24 65 43 77 53 58 51 62 54 59 17 45 61 30 47 35 20 71 -5 -50 -4 -42 -27 -76 -79 -9 -49 -21 -31 -33 -19 -29 -69 -32 -57 -78 -74 -63 -18 -15 -39 -70 -13 -64 -7 -10 -44 -16 -73 -22 -52 0
81 75 79 54 55 33 60 21 64 30 50 12 44 38 3 66 80 37 35 59 73 42 47 68 11 6 72 78 52 2 26 18 32 36 5 70 24 63 22 69 51 -57 -15 -13 -4 -67 -71 -31 -65 -19 -20 -43 -17 -25 -39 -1 -40 -53 -41 -56 -9 -45 -77 -8 -29 -14 -28 -10 -49 -16 -46 -7 -58 -34 -61 -27 -48 -74 0
38 50 35 28 21 13 -62 -18 -68 -47 -29 -32 -77 -36 -75 -51 -3 -33 -19 -67 -26 -11 -22 -5 -59 -71 -76 0
19 1 21 57 81 11 30 51 49 22 73 65 71 60 38 35 37 5 68 28 27 13 2 16 46 59 36 43 55 47 44 -41 -61 -39 -80 -33 -3 -23 -77 -26 -25 -42 -12 -10 -48 -67 -9 -54 -53 -63 -58 -31 -64 -8 -78 -32 -56 0
28 77 81 19 10 48 38 29 58 59 76 74 70 71 33 69 1 63 32 79 57 -68 -20 -53 -17 -60 -37 -45 -36 -55 -78 -26 -40 -35 -31 -47 -12 -54 -43 -62 -8 -25 -5 0
55 79 8 34 47 12 20 51 62 61 32 31 70 6 41 59 77 63 2 21 10 27 52 25 46 81 38 4 72 68 24 14 37 19 16 60 3 78 42 17 45 36 76 -33 -80 -23 -54 -28 -11 -75 -18 -49 -50 -64 -7 -58 -26 -69 -5 -67 -71 -56 -15 -13 -40 -39 -22 -30 -44 -43 -65 -48 -9 -74 0
28 16 60 0
62 46 14 1 56 36 55 24 12 11 42 -27 -40 -35 -48 -8 -68 -25 -5 -19 -66 -73 -47 -37 0
60 24 59 79 51 21 10 2 68 70 54 7 48 57 58 55 39 61 34 1 36 26 43 -11 -62 -5 -80 -30 -52 -45 -29 -65 -78 -47 -6 -16 -74 -49 -37 -44 -18 0
14 52 28 7 70 79 33 42 35 46 66 17 37 60 27 55 69 64 49 59 18 -65 -81 -9 -38 -26 -23 -53 -72 -4 -10 -44 -73 -68 -39 -25 -47 -31 -5 -63 -43 0
10 76 15 30 55 31 53 65 27 43 20 17 51 58 12 34 9 72 68 23 6 39 29 44 48 47 21 42 57 11 70 16 7 -13 -37 -40 -59 -62 -50 -61 -56 -45 -81 -22 -52 -19 -36 -41 -8 -38 -33 -80 -67 -77 -69 -79 -4 -28 -60 -5 -66 0
79 78 63 6 54 20 60 34 2 29 -17 -16 -69 -11 0
18 62 40 27 54 52 67 30 44 53 11 4 58 74 77 7 59 37 24 6 28 70 2 33 61 8 14 60 68 78 38 42 15 19 69 -56 -16 -10 -41 -12 -36 -45 -66 -76 -22 -71 -75 -79 -17 -51 -35 -72 -9 -23 -47 -21 -25 -20 -32 -29 -31 -73 -50 0
9 44 73 71 6 67 36 29 74 16 52 60 3 1 70 15 68 34 69 7 35 59 62 28 2 23 4 78 17 24 25 11 79 43 47 30 22 41 -53 -38 -21 -42 -19 -31 -26 -13 -45 -12 -51 -65 -56 -5 -81 -40 -27 -39 -10 -20 -77 -64 -48 -37 -54 -49 -57 -8 -58 -14 -61 -66 -32 -33 -46 -72 -55 0
44 39 66 75 58 41 80 61 47 60 64 31 32 12 36 50 29 14 74 26 25 46 76 52 54 78 57 65 56 38 72 -9 -71 -49 -19 -24 -63 -51 -6 -42 -13 -48 -8 -35 -2 -15 -3 -40 -43 -81 -37 -79 -10 -17 0
73 41 43 70 74 57 29 58 18 35 44 28 26 17 12 79 32 64 39 8 71 9 2 13 78 19 11 60 80 27 47 3 14 49 81 25 52 4 1 -56 -55 -59 -34 -37 -67 -33 -72 -16 -61 -77 -20 -63 -5 -24 -76 -48 -23 -36 -30 -53 -22 -66 -6 -38 -75 -46 -51 -50 -65 -15 -68 -40 -7 -31 -45 0
62 28 15 40 21 5 36 30 23 48 79 63 61 -49 -50 -72 -64 -12 -34 -10 -60 -38 -25 -16 -6 -9 -3 0
5 71 55 18 57 79 40 60 27 7 69 -39 -34 -8 -28 -12 -45 -61 -65 -3 -30 -54 -2 0
23 54 57 6 5 58 25 77 56 16 26 75 39 47 53 65 63 13 27 36 52 72 38 49 41 -3 -59 -48 -51 -29 -15 -1 -35 -2 -74 -30 -79 -33 -11 -8 -21 -28 -19 -76 -44 -45 -31 0
67 59 22 39 7 29 38 25 62 61 65 75 2 18 14 77 51 56 23 64 28 30 57 13 43 11 -37 -63 -47 -58 -81 -69 -48 -52 -53 -36 -70 -71 -26 -44 -79 -33 -45 -16 -49 -20 -76 -66 -68 -1 -72 -35 -55 -34 -17 -4 -60 -73 -21 -42 0
8 20 71 1 14 73 21 69 6 64 -67 -18 -31 -68 -59 -78 -23 -25 -44 -10 0
28 55 0
26 67 17 2 16 40 74 -66 -55 -57 -45 0
20 6 63 4 60 21 39 40 25 51 31 54 27 2 53 8 43 48 50 70 17 14 -5 -15 -72 -35 -3 -44 -81 -55 -42 -49 -78 -47 -73 -23 -76 -36 -75 -12 -52 -1 -79 -30 -57 -64 -37 -65 -77 -10 -67 -74 0
44 18 66 36 48 59 28 52 21 38 35 37 65 41 62 8 1 14 68 81 -7 -25 -11 -74 -57 -6 -51 -23 -54 -69 0
81 72 4 69 -67 -29 -31 -43 -73 -60 -30 -21 -15 -37 0
4 67 43 13 77 6 78 21 46 -7 -34 -79 -15 0
28 56 18 68 6 31 75 12 44 38 74 36 29 41 -51 -33 -16 -80 -5 -27 -3 -71 -52 -45 -26 -78 -43 0
26 32 80 49 45 31 33 27 78 79 58 44 25 1 18 -42 -20 -8 -2 -17 -52 -12 -59 -53 0
18 35 8 30 42 56 59 47 31 81 76 19 29 34 46 66 80 74 21 28 32 51 57 52 73 44 64 -38 -78 -3 -54 -60 -41 -70 -17 -4 -45 -40 -14 -13 -33 -53 -12 -7 -79 -10 -55 -23 -1 -36 -63 -77 -71 -67 -2 -75 -50 -39 0
81 61 16 63 54 38 53 11 66 47 75 69 48 34 32 67 45 77 68 58 71 18 35 50 46 41 4 14 19 24 59 42 56 10 62 39 76 7 51 -13 -70 -9 -72 -79 -64 -74 -25 -44 -22 -33 -29 -12 -23 -21 -55 -36 -1 -20 -57 -8 -2 -37 -73 -60 -27 -49 -40 -3 -43 -52 -30 -65 -17 -26 -28 -31 -6 -5 -80 -78 0
80 17 23 65 33 68 54 21 20 74 55 46 60 35 61 57 69 5 73 2 47 27 43 25 79 78 -16 -45 -63 -26 -3 -14 -31 -6 -22 -34 -52 -9 -15 -12 -8 -76 -66 -40 0
73 6 71 26 42 34 63 22 57 4 55 67 56 20 10 27 18 50 2 3 59 74 61 41 37 46 11 48 65 5 19 64 25 66 51 70 81 75 -69 -38 -44 -49 -33 -7 -1 -16 -23 -39 -54 -62 -77 -28 -15 -60 -45 -29 -76 -21 -72 -40 -35 -30 -12 -31 -47 -13 -68 -9 -32 -43 -24 -58 -79 -53 -80 0
61 66 19 49 57 75 28 32 68 -50 -10 -59 -18 -33 -51 -65 -81 -31 -79 -25 -73 -62 0
57 39 76 45 2 26 24 8 1 74 28 79 43 25 20 37 49 -66 -27 -50 -55 -61 -73 -29 -3 -42 -68 -58 -7 -72 -14 0
67 15 59 42 38 9 78 53 26 64 65 73 24 49 25 40 10 31 52 45 -39 -51 -41 -29 -30 -60 -32 -35 -11 -2 -63 -21 -44 0
26 43 74 25 69 14 41 17 57 38 66 63 3 -52 -71 -48 -39 -19 -2 -76 -32 0
35 34 -32 -50 -28 -52 0
43 81 33 49 48 8 26 76 10 58 9 23 3 28 37 1 59 47 53 2 27 31 75 4 42 22 36 79 66 77 41 30 52 50 65 -13 -68 -46 -5 -57 -73 -69 -67 -39 -6 -54 -63 -55 -60 -64 -24 -51 -61 -19 -34 -17 -29 -18 -32 -35 -14 -12 -11 -71 -44 -74 -7 0
67 47 16 12 9 1 51 24 58 4 61 49 13 53 -11 -34 -30 -20 -15 -27 -19 -69 -80 -57 -3 -32 -21 -44 0
78 55 -15 -48 -34 -62 -36 0
24 13 16 79 72 67 80 66 27 74 36 69 5 34 39 19 63 33 -51 -54 -37 -28 -11 -15 -42 -3 -10 -14 -18 -55 -56 -73 -68 -58 -60 -7 -47 -8 -65 -25 -45 -50 -64 0
75 26 10 56 59 17 45 48 25 71 23 32 9 37 30 64 67 53 79 43 39 6 66 46 3 70 12 5 34 73 47 11 38 57 19 77 49 44 -16 -21 -65 -8 -14 -78 -2 -15 -50 -58 -68 -80 -24 -63 -40 -20 -18 -76 -54 -27 -72 -7 -52 -33 -61 -36 -13 -62 -42 -1 -81 -74 -51 -22 -55 -35 -29 0
47 5 54 72 4 -75 -6 -18 -78 -35 -40 -13 -34 -74 -65 -17 -71 -26 0
40 47 80 51 21 53 35 20 18 19 76 17 23 58 45 56 59 3 28 10 48 15 52 39 -68 -50 -11 -37 -74 -49 -1 -44 -72 -6 -60 -79 -36 -8 -33 -65 -42 -7 -64 -12 -25 -29 -70 -14 -43 0
36 45 76 53 4 3 30 59 70 46 33 67 68 11 34 -31 -47 -79 -38 -43 -73 -63 -7 -18 -8 -51 -56 -28 -15 -48 0
19 12 21 61 43 17 30 6 1 37 49 66 80 57 67 47 28 9 64 46 65 36 18 44 38 -7 -11 -79 -23 -4 -55 -27 -25 -53 -33 -13 -50 -51 -68 -22 -3 -31 -54 -14 -20 -52 -63 -34 -8 -15 -10 -71 -39 -81 -62 -48 -58 -74 -75 -77 -69 -40 -70 0
31 3 59 13 68 21 42 71 27 8 15 65 58 34 11 46 2 73 50 72 55 19 60 79 40 36 38 49 66 7 33 35 57 4 67 26 10 54 23 -25 -78 -17 -43 -56 -18 -6 -75 -69 -28 -41 -64 -63 -14 -16 -24 -30 -32 -45 -61 -39 -5 -52 -12 -70 -53 -80 -37 -51 -77 -62 -20 -76 -22 -44 -48 -81 -1 -47 -29 -9 0
55 44 30 13 -21 -53 -62 -33 -15 -56 -26 0
56 75 71 41 38 61 60 59 77 35 78 17 54 80 43 16 24 3 45 39 65 9 42 29 44 63 19 12 73 15 37 81 10 36 55 33 13 58 -31 -34 -40 -79 -25 -26 -5 -50 -30 -27 -62 -69 -51 -28 -46 -14 -22 -48 -2 -74 -70 -1 -18 -52 -66 -57 -76 -6 -4 -32 -20 -68 -49 -8 -67 -21 -64 -72 0
76 25 58 66 38 57 44 35 10 50 15 41 27 30 4 79 9 42 78 56 73 3 77 71 63 61 17 31 54 39 20 59 70 75 -37 -13 -5 -69 -53 -36 -22 -28 -23 -40 -12 -68 -74 -72 -43 -24 -46 -62 -16 -33 -7 -29 -11 -51 -18 -64 -26 -52 -21 -67 -48 -81 -55 -19 -8 -80 -65 0
55 52 7 48 51 30 49 77 9 46 43 17 76 6 79 69 10 73 35 58 8 20 67 -38 -18 -36 -1 -62 -75 -60 -45 -74 -2 -65 -37 -26 -23 -78 -47 -15 -66 -32 -21 -16 -53 -24 -81 -4 -72 -40 -25 -3 -33 -13 -14 -50 -56 -57 -59 -80 -11 -54 -27 0
55 64 60 13 81 32 41 48 56 23 80 26 49 44 42 25 24 3 6 30 57 8 73 70 33 45 63 66 62 9 69 50 12 16 5 4 43 59 71 14 67 77 -61 -78 -38 -39 -29 -2 -40 -31 -52 -51 -79 -68 -65 -75 -15 -46 -76 -54 -53 -37 -20 -22 -18 -74 -34 -10 -1 -19 -47 -7 -21 -35 -11 -28 -27 -72 0
16 12 40 56 81 36 72 79 30 77 71 69 57 33 54 20 67 60 48 29 5 9 11 22 75 6 -64 -47 -42 -44 -70 -21 -2 -80 -18 -52 -76 -25 -34 -51 -45 -38 -58 -1 -32 -7 -66 -43 0
59 20 81 14 36 23 34 58 38 1 51 31 3 2 16 32 64 19 76 78 56 25 55 48 22 -68 -43 -37 -72 -73 -13 -7 -52 -33 -5 -77 -50 -49 -74 -60 -71 -79 -26 -75 -70 -30 -61 -47 -54 -65 -29 -18 -63 0
63 13 12 73 7 38 37 52 78 33 64 34 18 2 9 60 14 50 36 28 59 23 54 40 44 15 45 29 -42 -26 -30 -55 -43 -27 -68 -48 -3 -69 -53 -19 -70 -61 -35 -39 -47 -74 -21 -51 -71 -79 -1 -62 -11 -56 -41 -24 -16 -65 -17 -76 -75 -58 -66 -67 -72 -20 -49 0
33 60 13 69 16 68 55 8 23 58 74 18 63 80 43 57 61 -12 -19 -20 -71 -15 -64 -72 -21 -3 -56 -81 -29 -41 -75 -14 -59 -70 -6 0
8 52 62 71 13 30 1 43 37 34 31 48 64 76 61 81 6 79 26 75 80 25 40 16 35 70 74 12 58 10 9 4 22 72 -14 -33 -38 -47 -21 -73 -78 -39 -11 -60 -66 -63 -5 -46 -17 -57 -28 -49 -65 -55 -59 -7 -41 -45 -3 -18 -29 -44 -36 -42 -2 -67 -53 -27 -56 -77 -51 -54 -68 -32 -50 0
51 62 24 21 59 65 2 49 26 78 45 8 25 31 13 20 69 54 67 75 17 33 4 29 70 -64 -58 -44 -76 -61 -7 -55 -56 -71 -63 -74 -12 -14 -23 -27 -50 -15 -72 -9 -53 -10 -77 -39 -18 -42 -19 -80 0
62 29 7 46 42 52 48 31 26 36 2 81 43 15 4 73 13 70 10 45 44 22 24 5 56 53 55 28 66 64 37 58 19 67 -6 -17 -65 -77 -78 -14 -47 -69 -41 -71 -79 -76 -54 -72 -60 -75 -34 -59 -74 -1 -50 -20 -68 -49 -33 -63 -11 -51 -38 -80 -3 -39 -18 -8 -16 -32 -21 -23 -40 -57 -12 -25 0
45 72 -78 0
52 28 54 58 36 5 41 33 19 17 46 9 -53 -37 -57 -24 -44 -45 -65 -26 -6 -72 -30 -71 -50 0
68 45 12 71 79 35 56 4 58 18 17 37 46 5 66 75 67 3 28 25 42 55 8 61 49 19 30 44 62 9 47 14 65 59 36 63 26 57 74 53 60 81 23 50 77 54 21 -22 -51 -20 -10 -64 -72 -34 -73 -43 -32 -40 -13 -80 -41 -29 -52 -76 -39 -70 -15 -27 -78 -7 0
61 62 45 31 -34 -47 0
13 7 51 46 4 23 58 29 30 65 50 75 12 78 19 66 3 55 56 24 16 25 21 8 73 61 54 41 35 45 79 9 28 -22 -20 -18 -42 -71 -40 -47 -59 -69 -6 -5 -68 -43 -72 -37 -48 -77 -2 -27 -26 -36 -67 -31 -17 -70 0
67 75 57 18 68 40 25 3 13 59 43 27 60 21 38 66 -63 -69 -36 -50 -76 -45 -78 -26 0
81 69 55 56 62 74 2 21 66 70 60 79 3 31 52 11 40 72 42 58 50 25 -64 -39 -76 -7 -9 -35 -20 -48 -28 -65 -27 -71 -12 -51 -54 -47 -80 -37 -18 -57 -33 -77 -8 -36 -26 -61 -10 0
27 67 52 18 76 22 38 1 34 63 51 81 19 29 14 44 41 78 16 21 55 54 13 75 49 60 17 74 36 70 8 3 9 48 -50 -46 -62 -5 -37 -23 -73 -12 -80 -11 -59 -53 -66 -45 -39 -32 -56 -26 -40 -15 -25 -24 -72 -4 -61 -69 -42 -30 -77 -58 -68 0
48 43 24 30 32 68 42 29 44 23 12 71 53 49 10 79 -9 -31 -11 -40 -74 -18 -39 -52 -47 -34 -22 -28 -19 -67 0
11 4 57 40 -46 -30 -31 -35 -52 -47 -64 -41 0
22 34 38 41 26 72 48 71 3 79 17 50 75 13 15 29 -67 -31 -46 -4 -55 -27 -77 -78 -53 -66 -18 -45 -70 -6 -80 -7 -12 -37 -74 0
45 43 68 8 44 80 79 38 21 73 66 12 27 81 4 74 18 49 55 77 70 20 15 17 29 33 11 69 51 53 72 56 59 40 52 42 36 13 30 24 71 -14 -34 -62 -31 -16 -28 -32 -67 -23 -35 -22 -37 -78 -58 -6 -60 -3 -25 -50 -9 -76 -19 -39 -75 -2 -61 -64 -46 -41 -1 -7 -48 -63 0
37 41 47 1 54 58 2 46 56 49 67 3 33 53 45 51 8 31 73 77 65 70 26 10 21 13 62 14 29 50 69 32 44 39 5 19 25 38 42 17 -24 -28 -74 -40 -34 -36 -61 -9 -64 -11 -66 -20 -43 -22 -79 -57 -30 -55 -78 -18 -60 -6 -59 -63 -7 -35 -15 -71 -12 -80 -48 -75 -23 -4 -76 -27 -72 0
76 14 67 52 24 44 64 29 11 49 54 46 19 22 43 47 58 28 73 56 2 35 33 69 17 1 9 40 71 78 45 20 23 6 79 75 -63 -8 -42 -25 -77 -68 -57 -38 -18 -10 -81 -30 -51 -65 -59 -3 -27 -72 -26 -7 -48 -74 -36 -34 -13 -66 -39 -55 -31 -32 -62 -16 -70 -12 -37 -60 -21 -61 -15 -80 0
16 39 11 18 67 12 80 44 36 53 68 13 3 81 27 71 61 76 26 41 70 55 60 23 47 54 6 66 1 31 48 14 -77 -33 -5 -72 -10 -64 -79 -49 -58 -29 -74 -28 -9 -69 -7 -21 -43 -15 -62 -2 -56 -51 -24 -42 -25 -46 -35 -63 -32 -52 -78 -73 -38 -50 -65 -22 -19 -37 -17 -8 -75 0
70 80 31 9 26 53 65 24 64 3 42 56 51 50 18 41 7 74 43 68 47 21 5 48 10 20 52 78 58 69 77 1 36 72 6 62 57 67 -35 -54 -12 -23 -49 -15 -71 -33 -22 -30 -73 -27 -61 -76 -32 -4 -75 -17 -45 -63 -46 -11 -13 -34 -60 -66 -19 -55 -38 -16 -40 -2 -25 -14 -28 -8 -44 -79 -59 0
73 56 19 46 59 34 16 58 32 14 50 72 53 -18 -79 -30 -1 -37 -22 -17 -76 -9 -13 -55 -15 -27 -39 -51 -40 -33 -75 -24 -45 -2 -63 -28 -60 -49 -43 -7 -8 0
43 28 70 8 33 24 44 27 79 53 35 22 6 59 66 17 55 58 23 -2 -16 -12 -78 -34 -47 -11 -56 -18 -14 -5 -74 -80 -67 -38 0
31 8 3 44 25 38 47 80 18 7 68 54 36 65 66 63 48 12 77 2 11 30 61 57 39 13 26 50 43 35 23 -73 -69 -59 -55 -5 -16 -76 -75 -33 -24 -51 -10 -21 -41 -46 -62 -32 -4 -79 -74 -45 -40 -58 -17 -49 -67 -9 -60 -64 -53 -22 -81 0
14 31 58 64 12 28 34 21 -10 -26 -35 -57 -67 -72 -11 -69 0
17 31 -10 -67 -46 0
36 72 28 48 31 22 13 18 21 23 -9 -80 -34 -40 -7 -79 -20 -47 -56 -24 -15 -29 -50 -62 -25 0
73 72 75 9 77 66 -51 -10 -38 -40 -71 -68 -6 -13 0
61 9 6 28 58 75 41 34 53 -20 -65 -76 -35 -79 -51 -68 -52 -15 -17 -23 -44 0
30 70 3 62 37 38 1 36 76 59 47 33 77 43 75 17 69 2 42 13 8 29 49 52 72 34 22 41 63 10 46 67 44 32 11 55 39 7 18 19 28 74 65 12 68 -31 -73 -79 -45 -80 -4 -35 -6 -9 -57 -16 -21 -61 -15 -40 -5 -23 -71 -20 -78 -54 -14 -64 -53 -27 -25 -26 -50 -81 -60 -58 0
18 1 70 25 4 11 50 37 -30 -28 -31 -38 -61 -72 -32 -24 0
8 80 0
38 71 76 80 69 14 17 29 48 51 3 39 52 7 57 19 2 64 43 53 5 60 72 -18 -4 -31 -9 -67 -78 -65 -46 -12 -24 -30 -62 -13 -22 -63 -33 -6 0
70 35 50 21 46 -59 -67 0
57 59 42 20 7 5 78 69 25 60 45 17 37 15 23 44 74 11 1 73 24 29 77 79 51 19 56 70 -81 -41 -65 -16 -10 -71 -3 -76 -53 -26 -4 -27 -40 -22 -12 -43 -61 -31 -54 -72 -21 -64 -49 -68 -32 -75 -14 -63 -35 -6 -80 -28 -33 -58 -50 0
40 31 34 47 24 46 63 58 15 56 52 2 35 39 37 62 65 50 38 59 60 -19 -10 -3 -70 -81 -5 -53 -64 -55 -78 -26 -20 -57 -11 -7 -32 -71 -36 -27 -17 -28 -6 -48 -73 -43 0
43 69 -73 -75 0
80 63 17 41 30 11 69 50 75 23 74 27 31 20 10 39 67 65 4 21 28 25 72 57 54 45 22 78 -7 -35 -2 -38 -40 -81 -53 -1 -58 -13 -33 -48 -34 -5 -62 -37 -73 -64 -8 -19 -32 -18 -61 -66 -52 -76 -15 -6 -71 -16 -79 -9 -3 -56 -47 0
33 46 47 49 65 61 77 68 69 48 11 38 25 79 63 6 -19 -15 -41 -3 -32 -10 -58 -20 -53 -78 -34 -59 -66 -55 0
45 35 74 20 33 8 23 50 73 61 30 4 -44 -54 -46 -5 -13 -42 -19 -14 -9 0
57 70 48 44 74 19 37 43 36 66 73 60 13 59 62 79 28 4 6 46 47 29 53 12 81 34 42 2 69 61 45 25 55 17 78 64 31 30 39 15 32 -14 -7 -10 -75 -71 -65 -27 -67 -63 -16 -11 -23 -35 -52 -38 -20 -54 -33 -68 -21 -24 -26 -51 -50 -40 -56 -49 -72 -22 -9 -77 -58 -5 -8 0
79 45 66 60 64 56 76 44 35 75 41 13 -26 -22 -67 -34 -59 -31 -1 -52 -42 -78 -58 -68 -54 -10 -53 0
21 52 18 76 66 78 61 44 74 8 57 12 22 5 38 30 24 39 33 62 4 16 11 23 17 -34 -9 -55 -3 -42 -56 -68 -45 -72 -63 -20 -73 -35 -31 -49 -36 -53 -41 -51 -25 -59 -80 -7 -32 -29 -27 0
15 58 75 6 69 18 22 46 33 60 12 53 5 57 35 9 38 77 26 41 61 67 11 17 16 70 74 8 62 19 2 29 -50 -64 -79 -42 -1 -55 -21 -48 -27 -47 -81 -10 -49 -20 -51 -72 -25 -28 -71 -54 -3 -76 -80 -14 -37 -73 -59 -23 -52 -56 -45 -34 -36 -43 -32 -13 -40 -7 -24 -68 0
49 -11 -9 -64 -75 0
51 8 80 42 29 45 60 -36 -17 -61 -38 -69 -28 -53 -65 -57 -16 -37 -68 -63 -52 0
68 14 54 37 63 53 21 55 58 49 7 44 16 60 56 57 65 -33 -1 -36 -18 -79 -10 -76 -47 -71 -80 -35 -77 -11 -43 -52 -39 -8 0
74 73 32 17 21 78 43 -60 -51 -20 -26 -25 -4 -48 0
7 59 38 68 57 64 73 4 41 1 18 34 16 5 -17 -71 -21 -63 -43 -8 -52 -80 -12 -65 -76 -49 -3 -6 -55 -70 -32 -69 -78 -72 -37 -33 0
58 10 57 27 40 73 42 25 5 65 17 53 18 54 22 70 16 75 48 55 62 71 15 47 2 52 8 81 59 35 30 3 -41 -29 -60 -66 -76 -28 -50 -19 -37 -45 -7 -12 -77 -9 -67 -49 -63 -34 -74 -68 -6 -4 -36 -64 -38 -44 -79 -32 -23 0
37 22 39 25 46 61 20 48 10 2 68 32 56 71 11 26 49 75 35 24 54 67 74 64 4 -7 -5 -9 -65 -76 -59 -81 -66 -14 -31 -58 -55 -47 -29 -40 0
77 19 7 50 21 58 -52 -30 -23 -76 -43 0
54 79 37 50 55 16 20 78 36 14 41 65 80 22 31 59 77 68 34 56 66 69 27 35 57 64 6 13 51 -49 -17 -9 -40 -2 -3 -44 -48 -4 -39 -8 -38 -7 -15 -81 -63 -33 -26 -28 -24 -12 -23 -75 -29 -73 -76 -58 -18 -45 -52 -21 -60 -72 -53 -74 -62 -46 -5 -71 -42 -19 -61 -11 -1 -25 0
77 42 11 74 51 39 26 64 33 37 7 73 53 46 13 52 30 9 17 16 45 -47 -8 -35 -57 -72 -49 -2 -5 -14 -79 -18 -27 -62 -22 -56 -71 -32 -20 -4 -41 -65 -78 -50 -59 -3 -6 -81 -48 -61 -12 -34 -15 0
44 64 81 9 39 80 48 73 77 51 42 -16 -10 -67 -47 0
37 17 49 34 26 23 30 8 79 -72 -27 -6 -81 -71 -56 0
55 74 81 27 36 16 34 9 1 37 67 47 64 20 3 73 57 65 24 45 31 70 71 62 50 68 13 22 35 42 63 14 52 60 59 77 2 -6 -69 -23 -41 -21 -28 -12 -49 -80 -33 -75 -46 -29 -11 -72 -25 -4 -43 -66 -78 0
61 73 -18 -59 -54 -5 -23 -64 0
23 2 28 60 79 38 68 -77 -18 0
80 37 59 13 16 19 44 81 41 29 14 65 47 61 27 79 7 77 38 42 21 -22 -2 -40 -52 -45 -36 -66 -11 -72 -39 -69 -55 -49 -12 -35 -33 -28 -24 0
64 26 51 34 45 35 55 75 27 37 21 14 6 54 62 66 61 65 29 24 16 15 40 71 52 2 3 7 53 79 17 48 59 39 -70 -13 -81 -43 -67 -76 -4 -19 -72 -78 -68 -23 -44 -32 -46 -63 -20 -30 -22 -60 -57 -73 -11 -50 -31 -74 -10 -41 -49 -9 -1 -69 -58 -33 -80 -36 -47 -12 -77 -56 0
64 28 16 72 58 50 35 77 21 33 75 11 59 78 31 68 70 19 26 36 1 37 48 46 65 38 51 79 42 34 7 60 71 9 -24 -61 -15 -67 -25 -18 -53 -23 -30 -43 -22 -20 -49 -76 -2 -69 -41 -73 -6 -17 -29 -3 -12 -47 -54 -81 -62 0
29 16 40 80 33 79 35 24 47 20 67 59 6 34 42 45 63 31 49 -71 -11 -37 -17 -74 -22 -64 -77 -62 -10 -18 -76 -36 -14 -52 -60 -9 -1 -19 -70 -81 -51 -57 -73 -26 -12 -5 0
44 52 76 58 77 7 22 55 19 79 62 10 6 70 60 13 47 73 43 34 68 18 65 17 50 29 11 15 27 39 4 5 59 33 80 26 28 41 -61 -64 -38 -8 -40 -37 -74 -53 -48 -67 -72 -12 -21 -78 -1 -57 -71 -30 -51 -66 -3 -25 -69 -24 -46 -14 -54 -75 0
61 51 66 50 79 29 6 56 12 3 55 72 32 60 40 18 2 31 7 -57 -45 -74 -11 -21 -26 -43 -27 -24 -37 -39 -76 -35 -65 0
1 12 3 16 71 63 6 38 45 22 66 4 50 27 25 56 53 34 62 40 74 -46 -72 -5 -80 -36 -30 -48 -7 -58 -42 -13 -67 -65 -14 -57 -49 -79 -21 -10 -35 -77 -19 -37 -11 -43 0
47 52 8 1 5 16 80 74 69 33 2 29 36 14 60 46 38 13 40 30 79 35 17 78 15 65 41 22 54 21 55 12 31 49 20 81 -57 -28 -53 -26 -73 -68 -58 -32 -9 -19 -7 -51 -70 -44 -66 -56 -64 -4 -63 -3 -72 -62 -25 -34 -75 -77 -10 -11 -24 -59 -48 -27 -23 -6 -39 -18 -71 -67 -61 0
16 62 65 30 33 54 48 44 21 59 27 64 49 50 12 77 47 10 7 19 3 23 5 14 13 26 17 79 22 69 37 15 61 52 40 41 56 29 25 34 31 -60 -53 -6 -46 -72 -9 -74 -4 -1 -20 -35 -32 -39 -42 -80 -66 -78 -38 -45 -73 -75 -43 -57 -2 -58 -67 -55 -70 -18 -8 -28 -76 0
66 19 49 7 3 11 31 23 24 68 74 71 32 22 -53 -37 -36 -2 -28 -27 -48 -20 -63 -62 -78 -47 -57 -5 -56 0
66 67 42 22 15 79 30 11 65 20 44 16 8 52 26 13 -76 -41 -77 -29 -28 -51 -7 -37 -1 -23 -75 -36 -49 -63 -18 -5 -47 -24 -12 -25 -59 -14 -10 -4 -61 -81 -17 -32 -35 -48 -69 0
13 48 33 52 51 24 63 -76 -36 -49 0
8 19 77 34 29 67 18 11 81 63 41 22 53 72 20 17 30 65 33 49 -2 -45 -27 -16 -47 -31 -35 -21 -80 -48 -42 -73 -7 -54 -76 -59 -60 -78 -58 -43 -23 -6 -24 -37 -69 0
59 34 13 76 25 67 81 22 60 77 17 26 64 18 55 29 12 78 39 57 46 27 38 48 47 15 72 35 7 -16 -31 -10 -51 -61 -66 -74 -73 -5 -8 -11 -69 -70 -45 -1 -24 -42 -33 -37 -4 -36 -68 -50 -56 -2 -3 -65 -52 -21 0
11 79 41 -58 -53 0
80 19 33 55 65 45 61 4 21 73 38 49 60 35 76 46 2 79 -23 -58 -10 -43 -36 -20 -3 -68 -70 -30 -17 -69 -57 -56 -15 -40 -1 0
29 -28 -51 -26 0
33 75 4 46 37 17 41 44 62 72 59 15 78 3 22 70 74 24 23 16 12 57 79 30 43 10 55 -27 -34 -60 -11 -28 -26 -50 -48 -1 -7 -53 -68 -47 -45 -25 -66 -52 -40 -14 -6 -77 -19 -31 -63 -39 -56 -58 -61 -42 -80 -49 -67 -36 0
47 68 13 65 20 24 49 60 48 27 77 32 15 61 26 73 35 36 25 78 69 17 66 71 -62 -7 -34 -42 -12 -22 -19 -1 -76 -29 -31 -40 -33 -8 -51 -16 -30 -74 -18 -28 -6 -53 -4 -57 0
23 57 61 14 32 25 11 3 58 17 51 52 27 70 24 44 77 15 37 43 72 6 41 26 22 66 5 78 69 30 59 42 65 64 10 67 62 75 53 -81 -74 -50 -38 -55 -28 -8 -12 -73 -20 -35 -60 -49 -46 -1 -47 -63 -29 -16 -45 -18 -79 -9 -54 -40 -56 -36 -33 -34 -13 0
60 80 31 -19 -6 -39 -58 -76 -5 0
59 44 16 43 34 68 19 58 63 20 36 12 78 -42 -69 -25 -50 -40 -22 -62 -74 -52 -64 -26 -17 -48 -51 -61 -1 -10 -11 -32 -60 -81 -18 0
4 51 5 54 36 46 27 28 17 26 32 19 76 64 59 73 56 53 23 8 63 52 16 37 3 42 67 49 7 72 18 14 41 69 -39 -44 -74 -38 -58 -62 -57 -68 -33 -9 -75 -71 -20 -15 -31 -45 -24 -1 -12 -78 -65 -2 -21 -10 -55 0
15 1 10 61 44 34 60 14 45 65 39 4 72 35 73 2 25 67 36 56 40 24 33 8 30 68 -76 -49 -54 -63 -18 -12 -23 -48 -37 -28 -74 -9 -69 -5 -3 -78 -52 -46 -77 0
25 19 61 55 20 38 76 13 -80 -37 -53 -24 -81 -17 0
51 77 19 32 34 35 58 30 45 7 18 20 5 11 8 -41 -55 -15 -53 -26 -6 -78 -73 -62 -65 -10 -74 -79 -42 -3 -66 -44 0
31 45 26 10 24 16 13 30 46 80 57 52 53 75 27 3 58 7 11 51 20 40 41 5 -37 -50 -67 -23 -1 -48 -61 -28 -79 -34 -77 -62 -56 -4 -18 -22 -35 -8 -72 -32 -71 0
43 71 56 29 63 30 9 7 25 32 22 54 60 44 45 23 78 17 3 35 33 13 74 53 75 11 46 27 12 73 26 51 79 68 2 70 19 8 52 18 80 81 40 76 -28 -31 -38 -34 -57 -41 -36 -66 -15 -39 -24 -67 -4 -62 -20 -50 -5 -21 -16 -55 -65 -69 -6 -1 -49 -77 -42 -61 -48 -47 -72 0
20 36 23 80 26 30 73 10 40 45 76 -3 -66 -78 -46 0
79 49 65 27 59 23 55 64 51 54 14 76 45 18 32 15 70 52 -5 -40 -71 -58 -46 -68 -41 -44 -2 -31 -69 -47 -77 -24 -57 -37 -28 -67 -8 -1 -30 -48 -81 0
21 41 35 18 8 7 37 68 80 54 56 5 10 73 43 27 31 45 58 40 50 38 32 67 13 3 24 78 69 28 46 75 52 -22 -59 -42 -20 -44 -49 -23 -77 -34 -48 -12 -16 -33 -71 -39 -60 -17 -4 -14 -9 -2 -15 -74 -51 -55 -70 -29 -63 -79 -57 -72 -25 -47 0
13 48 30 7 47 36 56 72 6 74 68 44 2 70 37 23 51 27 81 63 28 71 1 15 -17 -58 -20 -24 -54 -8 -19 -18 -64 -21 -53 -62 -12 -46 -80 -49 -66 -26 -55 -75 -11 -77 -9 -25 -31 -22 0
36 5 6 64 7 30 9 15 50 78 69 4 13 26 17 77 24 67 42 41 66 46 3 29 28 47 75 45 38 34 18 57 32 51 10 80 -63 -73 -16 -68 -52 -31 -65 -74 -55 -60 -40 -48 -21 -39 -35 -71 -8 -62 -81 -58 -54 -53 -11 -12 -79 -56 -49 -22 -1 -25 -70 -23 -20 0
52 41 64 12 18 38 35 50 23 66 69 72 24 53 54 19 73 -36 -34 -31 -10 -76 -48 -1 -56 -22 -77 -79 -5 -45 -75 0
45 2 76 15 67 35 63 68 24 74 7 69 81 16 5 77 25 20 57 54 11 47 48 75 19 36 50 23 49 52 27 65 -26 -73 -32 -53 -18 -80 -40 -79 -56 -64 -71 -38 -34 -9 -58 -51 -66 -10 -62 -3 -21 -31 -13 -22 -29 -6 -37 -60 -59 -33 -44 -4 -70 -14 -39 0
41 16 34 12 38 74 14 79 55 32 69 15 6 5 47 39 50 36 68 18 46 51 71 44 13 31 37 7 63 59 -2 -35 -22 -56 -28 -81 -57 -4 -40 -30 -8 -42 -48 -53 -73 -45 -29 -17 -43 -25 -80 -70 -49 -64 -9 -10 -26 -62 0
55 22 72 20 16 43 6 63 32 31 40 8 11 53 70 47 74 15 45 2 30 64 65 36 54 58 44 -29 -71 -42 -23 -3 -77 -33 -61 -19 -4 -41 -13 -59 -52 -51 -26 -27 -57 0
54 76 73 -36 -66 0
77 81 58 47 72 39 32 23 80 15 51 24 29 7 52 38 25 -13 -40 -28 -60 -45 -11 -8 -17 -1 -55 -36 -6 -57 -53 -22 -74 -35 -50 0
49 18 53 32 24 10 1 34 50 72 77 47 66 28 69 59 61 78 79 42 26 -41 -43 -70 -19 -38 -27 -58 -16 -74 -71 -11 -5 -15 -44 -67 -57 -31 -14 -56 -55 -40 -51 -39 -60 -22 -64 -81 -54 -25 -76 -4 -3 -35 0
68 60 73 13 33 64 37 5 40 34 32 77 52 4 9 23 18 35 31 22 59 58 48 74 67 44 69 21 29 7 38 46 41 51 81 17 79 43 42 -62 -50 -30 -8 -70 -26 -78 -39 -80 -75 -10 -2 -56 -45 -11 -55 -24 -72 -57 -12 -20 -36 -27 -25 -15 -16 -3 -71 -49 -19 -63 -28 -14 -66 -1 0
20 36 71 39 1 76 59 24 70 72 58 54 2 8 74 42 -28 -40 -66 -64 -73 -55 -53 -10 -51 -65 -48 -31 -18 0
52 35 21 80 64 48 24 36 66 73 6 51 34 81 -31 -15 -11 -1 -10 -28 -8 -42 -79 -45 0
3 11 43 44 81 47 51 63 -46 -38 -53 -26 -24 -41 0
20 52 68 13 43 31 41 38 5 42 57 28 7 9 73 49 78 44 71 22 30 47 37 19 46 12 51 27 61 60 -81 -59 -14 -63 -24 -79 -15 -50 -58 -23 -69 -10 -48 -35 -54 -62 -26 -16 -45 -77 -2 -32 -80 -17 -67 -53 -11 -56 -29 -55 -25 -34 -64 -36 -21 -40 -6 0
56 39 65 18 47 61 67 35 51 21 12 29 53 59 42 13 14 52 71 69 73 74 6 58 16 15 32 76 43 27 45 31 81 54 -4 -46 -57 -17 -44 -78 -48 -5 -37 -2 -80 -64 -23 -77 -10 -34 -20 -7 -79 -25 -50 -70 -24 -68 -66 -40 -19 -8 -22 -1 -60 -75 -55 -49 -72 -41 -33 0
35 49 74 37 18 27 75 12 31 29 11 16 15 24 -14 -80 -63 -61 -69 -57 -22 -21 0
30 10 38 3 74 25 42 64 53 76 35 12 61 68 16 55 43 33 52 54 17 15 4 29 28 37 23 32 6 26 59 63 79 22 2 80 40 9 45 56 57 34 14 -65 -13 -78 -20 -75 -69 -77 -51 -18 -41 -49 -72 -71 -36 -27 -66 -44 -58 -70 -47 -11 -24 -48 -21 -19 -39 -50 -1 -62 -5 -60 -81 -67 -31 -7 -46 0
14 5 80 66 8 45 -24 -78 -16 -48 -20 -26 -44 -41 -46 -56 -33 -58 0
21 79 46 29 -52 -14 -5 -70 -53 -47 -40 -74 -25 0
42 17 61 80 38 13 56 33 78 36 35 43 59 16 19 48 11 21 34 8 5 24 40 4 65 71 23 57 1 53 60 30 9 66 79 3 31 10 70 -41 -26 -18 -67 -47 -25 -37 -45 -32 -73 -77 -58 -27 -63 -51 -54 -29 -6 -49 -50 -76 -46 -52 -64 -62 -55 -44 -81 -2 -75 -39 -69 -15 0
43 45 7 8 78 80 23 49 14 16 79 19 57 2 39 3 17 38 54 36 50 21 74 41 30 33 22 1 48 52 61 53 60 40 18 37 70 20 -67 -28 -56 -10 -15 -26 -68 -62 -44 -47 -5 -73 -65 -63 -42 -32 -29 -11 -9 -58 -6 -35 -34 -66 -27 -46 -77 -25 -76 -81 -59 -31 -71 -55 0
68 13 23 75 4 28 62 42 19 8 7 81 22 44 31 12 65 9 30 6 -79 -47 -37 -17 -51 -58 -1 -24 -61 -53 -16 -18 -77 -25 -67 0
25 33 59 35 63 16 23 26 4 3 44 40 36 -56 -15 -76 -49 -73 -52 -39 -55 -65 -66 -53 -17 -34 0
1 35 19 75 23 71 64 60 44 63 -81 -38 -20 -30 -51 -40 0
63 50 76 19 17 23 45 61 18 3 44 64 31 14 22 10 56 36 20 80 40 4 13 54 70 46 47 57 32 39 65 48 78 -81 -72 -71 -58 -66 -53 -24 -38 -77 -74 -27 -37 -49 -68 -26 -69 -42 -33 -11 -60 -2 -28 -12 -67 -75 -43 -55 -73 -6 -15 -30 -7 -59 -62 -25 -9 -79 -51 0
69 66 67 4 56 39 6 11 7 57 33 43 -19 -44 -21 -75 -74 -9 -27 0
63 43 77 3 74 76 52 41 51 37 66 19 69 9 30 34 73 64 71 8 14 53 4 49 32 1 40 50 57 15 7 38 27 -12 -20 -65 -18 -45 -44 -39 -54 -24 -16 -46 -33 -75 -29 -10 -68 -81 -70 -42 -28 -79 -58 -36 -35 -22 -78 -60 -2 -67 0
60 72 58 39 63 10 73 51 5 20 43 57 55 32 21 22 76 2 16 30 8 34 37 53 29 75 23 4 7 77 28 71 31 64 6 49 14 48 52 24 45 19 26 38 -41 -65 -61 -54 -11 -40 -27 -17 -15 -46 -78 -56 -62 -9 -59 -67 -74 -68 -18 -35 -12 -81 -80 -3 -13 -36 -33 -44 -70 -79 0
43 60 55 39 38 64 48 12 31 19 47 74 52 72 35 51 7 6 21 45 61 36 65 15 68 80 14 73 79 78 29 69 13 8 25 27 -67 -42 -32 -37 -33 -41 -58 -30 -75 -23 -2 -40 -17 -1 -81 -54 -71 -4 -49 -20 -24 -3 -9 -46 -53 -76 -11 -57 -22 -62 -59 -5 -18 -77 -44 -50 -63 -70 0
66 56 14 61 29 39 76 4 32 64 70 17 21 71 60 27 28 42 24 6 33 59 37 13 26 23 -34 -16 -55 -11 -58 -81 -75 -19 -77 -78 -12 -7 -73 -22 0
2 81 12 21 60 72 39 58 17 76 8 15 74 54 19 80 61 65 30 29 38 11 37 75 56 1 22 52 46 69 62 78 34 40 -50 -47 -25 -14 -6 -36 -71 -73 -24 -59 -42 -66 -26 -31 -18 -45 -57 -20 -35 -13 -53 -9 -28 -68 -27 -79 -5 -70 -51 -32 -7 -23 -67 -43 -10 0
53 43 11 52 50 22 4 7 16 -39 -72 -59 -32 -34 -78 -67 -44 0
68 0
65 57 19 70 27 53 37 8 74 69 3 9 77 30 61 48 40 24 23 25 15 14 55 41 4 -46 -17 -33 -51 -64 -5 -60 -67 -63 -52 -62 -20 -66 -50 -56 -32 -80 0
41 35 -4 -31 -28 -32 -12 -34 0
16 79 74 14 67 38 36 10 15 45 78 23 58 19 77 3 39 61 81 17 37 24 68 -18 -11 -1 -27 -71 -76 -32 -6 -22 -25 -34 -46 -44 -63 -30 -47 -66 -56 -20 0
50 16 32 61 -40 -73 -39 -36 -35 -71 -14 -22 -28 -69 -80 -18 -1 -60 0
9 42 34 16 67 14 68 56 11 31 23 19 73 40 20 22 3 55 79 29 66 -35 -1 -13 -45 -59 -57 -37 -39 -7 -80 -21 -60 -2 -76 -53 -54 -4 -81 -15 -78 -27 -36 -44 -38 -30 -77 -48 0
12 35 30 25 -13 -9 -50 -79 -54 0
34 11 15 40 81 21 37 77 78 2 26 32 43 74 36 54 20 46 52 29 24 64 69 4 5 63 -79 -9 -73 -47 -58 -71 -72 -39 -38 -60 -22 -62 -67 -27 -57 -3 -30 -53 -1 -48 -76 -68 -10 -16 0
42 67 44 45 2 16 58 75 81 56 65 27 62 22 17 74 28 49 33 20 39 9 11 31 43 60 7 -57 -80 -70 -40 -1 -26 -30 -35 -36 -5 -15 -77 -54 -48 -76 -21 -68 -19 -79 -46 -4 -34 -51 -23 -73 -25 -24 -72 -66 -78 -47 -61 -12 0
9 4 3 26 34 46 54 64 36 58 40 80 6 44 19 62 45 17 68 12 65 23 -71 -14 -52 -59 -2 -35 -5 -77 -47 -29 -49 -10 -75 -24 -7 -21 -32 -27 -28 -56 0
49 70 21 17 67 72 7 53 45 12 63 76 -79 -15 -10 -69 -39 -71 -62 0
