c NeuroCodeBench 2.0 CNF formula with verdict Sat
p cnf 65 466
26 53 12 38 5 62 50 54 11 35 59 37 48 7 41 34 2 17 58 -9 -4 -8 -10 -65 -25 -45 -20 -22 -28 -27 -42 -51 -39 -36 -40 -15 -33 -23 -30 -19 -60 -43 -13 -21 -1 -52 0
8 54 56 24 18 22 65 16 35 47 5 61 7 30 17 60 10 45 2 44 -40 -34 -49 -14 -57 -55 -58 -46 -51 -50 -53 -48 -21 -12 -19 -63 -64 -39 0
37 15 63 48 9 56 34 25 65 16 20 14 3 52 40 11 57 7 46 10 33 26 60 19 31 -41 -28 -1 -29 -8 -64 -38 -59 -53 -39 -22 -62 -5 -51 -2 -55 0
4 5 34 26 10 17 41 21 18 22 9 59 23 55 37 19 48 7 33 40 24 47 63 54 46 35 -53 -38 -3 -28 -62 -2 -8 -52 -49 -58 -20 -1 -57 -60 -11 -16 0
61 41 8 -13 0
18 10 60 4 19 50 26 41 59 44 34 6 47 5 -21 -1 -28 -32 -7 -65 -39 -2 -8 -37 -42 -16 -24 -61 0
25 40 39 4 32 34 54 18 52 6 -9 -1 -65 -58 -8 -61 -3 -29 -42 -63 -10 -11 0
45 12 41 43 4 20 59 6 55 60 36 14 65 24 54 40 -37 -19 -61 -28 -63 -39 -49 -5 -23 -27 -33 -34 -17 -1 -52 -64 -56 -9 -30 0
7 44 23 42 -15 0
46 16 38 18 13 5 36 20 53 7 39 59 6 -30 -1 -21 -25 -17 -31 -8 -43 -24 -45 -19 0
63 30 17 35 51 40 41 5 37 3 58 4 62 21 20 18 19 43 38 7 -6 -60 -54 -10 -29 -16 -61 -48 -46 -49 -34 -53 -24 -44 -1 -36 -64 -57 -33 -25 -42 -26 -2 -28 -59 -52 -11 -55 -8 -39 -12 -65 -32 -50 -56 -14 0
38 47 19 36 5 40 49 57 23 8 45 56 15 33 61 2 42 20 9 55 -37 -24 -7 -3 -4 -54 -58 -60 -11 -6 -63 -51 -10 -52 -13 -28 -50 -34 -44 -31 -12 -62 -43 -41 -64 -32 -30 -25 -59 -27 0
18 1 42 57 12 31 7 58 14 41 46 38 -4 -64 -54 -47 -20 -26 -22 0
36 2 29 17 40 32 48 57 9 19 60 56 -14 -25 -34 -43 -51 -49 -18 -15 -12 -38 -3 -54 -1 0
58 32 63 9 1 41 23 30 39 42 55 8 65 37 28 34 43 64 27 5 16 29 4 38 -15 -17 -24 -44 -62 -59 -10 -49 -35 -60 -12 -7 -61 -33 -40 -22 -26 -21 -54 -53 -25 -20 -18 -31 -46 -2 -50 -14 0
38 59 47 14 49 13 29 45 37 43 35 30 17 36 26 18 6 -48 -27 -53 -21 -65 -5 -33 -12 -52 -19 -64 -11 -23 -31 -58 -50 -57 -51 -28 -24 -46 -39 -44 -20 -42 -2 -22 -60 -3 -4 -41 0
19 4 0
2 15 55 26 3 45 18 54 34 58 42 37 47 1 19 61 33 60 27 40 56 16 63 46 52 44 -64 -22 -4 -11 -51 -41 -30 -39 -12 -57 -8 -29 -14 -25 -35 -9 -65 -28 -36 0
56 16 54 59 37 24 64 10 34 65 44 -38 -27 -46 -21 -55 -60 -30 -53 -26 -4 0
21 37 23 -46 -20 -36 -38 -25 -56 -44 -34 -31 0
37 46 41 52 39 50 23 25 53 9 18 15 12 21 34 49 51 65 43 11 -5 -6 -59 -26 -58 -61 -36 -19 0
51 38 25 11 57 53 60 61 27 59 55 46 54 65 7 64 20 43 -45 -58 -37 -44 -6 -48 -29 -13 -41 -40 -35 -15 -19 -42 -49 -16 -62 -63 -52 0
2 42 1 13 16 26 28 37 4 48 32 47 12 18 50 22 58 25 7 21 24 15 63 3 56 20 11 14 59 45 8 -43 -39 -52 -19 -64 -29 -23 -30 -10 -51 -36 -35 -49 -57 -60 -46 -9 -65 -17 -33 -38 -27 -61 -62 -5 -41 -44 -34 -40 -55 -31 -53 -54 0
45 61 28 18 31 65 29 60 62 64 52 46 -16 -34 -12 -9 -27 0
32 14 60 34 16 18 3 22 27 36 13 7 40 65 57 44 6 12 41 64 31 -38 -8 -25 -50 -62 -45 -19 -63 -48 -24 -39 -20 -54 -43 -28 -47 -17 -56 -58 -61 -29 -10 -5 -9 -15 -2 0
40 12 14 11 39 24 15 61 62 10 5 43 63 53 50 60 59 18 -35 -9 -4 -22 -57 -49 -13 -54 -28 -23 -55 -25 -1 -48 -56 -32 -8 -20 -33 0
7 8 43 5 38 45 33 46 57 25 20 11 55 47 52 12 41 16 53 58 60 -64 -9 -56 -22 -35 -49 -29 -6 -59 -42 -24 0
21 29 1 43 56 52 18 10 34 41 6 9 2 54 22 51 33 37 5 46 15 58 36 31 20 27 -55 -25 -13 -50 -7 -59 -45 -40 -17 -4 -3 -60 -24 -42 -35 -14 -38 -12 -57 -16 -47 -44 -19 -62 -8 -65 -11 -63 -64 -28 -49 -39 -48 -61 -26 -32 -30 0
53 15 21 35 9 -58 -11 -63 -52 0
2 30 61 64 63 40 46 8 44 51 62 24 49 12 32 48 29 60 34 35 19 14 53 45 -28 -55 -16 -47 -52 -31 -41 -36 -38 -23 -59 -33 -7 -6 -25 -4 -56 -15 -1 -20 -18 -37 -26 -27 -54 -57 -13 -10 -65 -21 -42 0
57 19 47 50 58 21 49 30 11 13 6 25 7 8 32 39 14 2 64 3 27 61 54 4 24 40 65 43 41 45 42 44 18 -62 -1 -17 -33 -63 -23 -20 -22 -16 -15 -48 -51 -28 -9 -59 -31 -5 -26 -53 -46 -38 -10 -34 -29 -60 -56 -52 -36 -12 0
47 38 21 18 25 7 2 60 43 59 5 15 54 -33 -32 -65 -45 -36 -24 -64 -3 -44 0
6 24 53 36 44 4 27 38 8 10 48 39 1 47 42 51 65 21 41 12 43 58 32 34 30 31 11 22 14 33 -19 -35 -2 -60 -63 -50 -49 -13 -54 -45 -46 -57 -59 -26 -52 -16 -25 -23 -64 -61 -18 -28 -40 -15 -9 -37 -7 -3 -5 0
25 13 1 39 14 59 3 24 55 18 30 52 32 10 51 4 64 12 53 56 15 34 49 8 40 41 46 -21 -16 -65 -31 -7 -48 -54 -44 -5 -26 -27 -61 -36 -6 -42 -33 -50 -57 0
42 24 23 5 51 46 40 18 6 50 -7 -62 -48 -12 -21 -44 -20 -59 -47 -32 -57 -1 -30 -36 -60 0
22 53 49 51 24 58 44 25 43 35 6 17 32 16 18 15 45 61 65 2 -36 -48 -62 -37 -64 -1 -4 -60 -46 -33 -28 -31 -26 -55 -59 -52 -5 0
45 15 56 18 23 20 24 34 50 49 11 51 44 58 61 25 47 52 14 1 10 27 65 38 28 57 3 59 -55 -30 -53 -22 -17 -12 -13 -21 -31 -5 -36 -46 -62 -41 -54 -39 -40 -60 -37 -33 -26 -32 0
62 19 37 60 63 50 33 44 51 36 27 34 11 30 39 45 55 20 29 21 42 58 23 16 -25 -18 -28 -12 -53 -17 -32 -57 -22 -46 -52 -14 -64 -56 -4 -5 -6 -10 -38 -7 -54 -43 -13 -26 -31 -3 -15 -41 0
13 3 10 54 22 61 64 26 4 48 23 38 55 14 35 52 65 33 21 42 60 29 9 -18 -16 -17 -12 -34 -46 -1 -49 -30 -43 -24 -50 -47 -57 -37 -5 -6 -58 -59 0
23 -25 -38 0
38 18 26 32 42 52 47 4 1 48 24 15 11 64 13 45 9 25 27 12 2 49 10 23 7 44 61 -19 -20 -63 -22 -60 -5 -14 -16 -36 -56 -6 -35 -33 -46 -29 -28 -39 -37 -31 -53 -41 -3 -40 -51 -59 0
46 42 43 20 23 60 50 29 63 54 44 58 2 -13 -26 -47 -24 -6 -52 -11 -59 -17 -21 -4 -22 0
44 18 50 58 60 32 22 63 28 45 39 29 47 8 23 -3 -21 -16 -42 -10 -40 -25 -35 -26 -24 -57 -7 -56 0
36 40 61 33 20 27 1 52 32 41 55 9 15 57 16 26 22 48 18 29 3 -58 -38 -5 -46 -47 -21 -64 -43 -60 -8 -42 -51 -6 -44 -37 -31 -17 -24 -62 -10 -45 -63 -23 -28 -11 -54 0
43 17 5 37 2 6 41 63 27 -20 -54 -26 -44 -59 -53 -38 -56 -62 -46 -40 -11 -4 -13 -30 0
60 6 25 10 51 22 36 50 20 14 58 41 53 57 43 19 39 27 23 37 -5 -31 -17 -34 -59 -44 -9 -52 -26 -29 -56 -11 -35 -54 -28 -55 -1 -7 -24 -64 0
29 35 24 3 47 52 9 51 64 32 37 27 15 50 33 40 59 -60 -41 -22 -53 -57 -39 -23 -25 -55 -13 -14 -48 -5 -8 0
59 32 53 47 58 19 -45 -63 -31 -8 -26 -52 0
47 59 9 26 24 48 54 42 1 17 36 18 51 16 25 45 -62 -11 -8 -43 -49 -41 -21 -12 -44 -39 -22 -50 -33 0
59 13 63 36 4 43 31 35 41 26 24 37 54 57 22 23 45 55 62 60 42 19 20 -27 -12 -53 -34 -15 -38 -6 -58 -29 -21 -25 -61 -28 -7 -1 -49 -17 -52 -65 -10 -30 -11 -16 -2 -48 0
47 48 26 49 25 44 2 28 7 8 9 5 52 29 15 3 6 55 20 35 46 12 61 18 10 42 4 33 58 17 -43 -41 -50 -19 -16 -60 -14 -23 -34 -39 -31 -22 -1 -30 -21 -36 -24 0
42 59 23 22 32 58 33 28 39 48 -61 -3 -11 -56 -1 -63 -4 -2 -27 -5 -50 -14 0
46 8 2 39 43 34 10 18 28 52 12 42 6 62 45 3 60 41 54 29 59 63 -38 -32 -51 -49 -27 -23 -4 -16 -37 -5 -24 -14 -57 -47 -33 -50 -31 -64 -7 -26 -56 -35 -53 -19 0
35 20 28 18 36 7 48 57 17 53 59 1 15 24 4 -27 -10 -19 -37 -62 -51 -3 -25 -11 -54 -46 -52 -40 -43 -16 -45 -14 -23 -41 -39 -5 0
39 18 28 62 12 43 16 53 35 47 26 54 13 10 23 45 55 1 51 57 27 14 -15 -37 -65 -21 -34 -22 -48 -30 -8 -49 -38 -63 -6 -32 -64 -44 -20 -2 -25 -3 -40 -50 -9 -41 -56 0
29 24 16 52 17 28 39 47 6 32 40 41 -36 -56 -25 -46 -7 -12 -33 -1 -57 -10 -44 -15 -55 -35 0
44 57 35 56 47 55 15 53 38 28 52 18 36 20 3 63 11 19 -39 -54 -34 -41 -12 -58 -1 -32 -50 -45 -8 -25 -7 -51 -27 -14 -46 -59 -62 -48 -4 -29 -13 -16 -9 -60 -40 -65 -61 -17 -43 0
6 45 17 24 49 25 56 64 58 34 12 5 -4 -8 -27 -30 -28 -54 -38 -16 0
23 49 63 29 11 62 19 20 34 4 36 46 53 38 22 27 13 50 -65 -18 -33 -26 -25 -64 -21 -52 -40 -54 -6 -2 -1 -42 -59 -58 -56 -12 -48 -7 0
39 57 22 24 16 37 52 25 31 28 26 17 47 -14 -9 -53 -40 -44 -48 0
23 20 44 61 9 25 11 47 24 5 63 52 54 2 19 65 53 3 57 62 31 -12 -36 -51 -42 -37 -30 -33 -16 -49 -22 -10 -46 -14 -64 -35 -8 -40 -26 -32 -6 -55 -50 -18 0
63 21 43 13 51 39 59 30 18 -64 -48 -33 -53 -35 -54 -26 -2 -37 -40 0
49 46 54 33 61 30 39 53 60 36 59 50 -28 -3 -42 -27 -34 -17 -9 -13 -2 -55 -24 -51 -45 -6 -63 -22 0
19 2 31 40 63 -60 -22 -32 -41 -9 -1 -14 -61 -30 -27 0
20 15 5 12 9 34 41 57 56 54 3 21 45 62 6 51 50 24 1 4 36 2 55 39 7 63 60 26 40 46 64 -10 -59 -49 -35 -13 -47 -44 -33 -53 -25 -27 -32 -23 -16 -30 -28 -29 -48 -58 -19 -31 -43 -11 -65 -14 -61 -8 -42 -52 -38 -37 0
59 16 22 3 65 33 6 63 43 15 21 54 1 4 19 30 46 34 11 26 44 24 40 55 53 9 37 35 12 18 17 23 32 -28 -13 -60 -45 -2 -61 -8 -39 -31 -42 -29 -14 -62 -20 -58 -5 -38 -10 -25 0
48 59 50 43 27 11 38 61 30 1 39 23 19 14 2 12 25 55 51 63 58 56 18 17 31 -34 -37 -3 -28 -33 -65 -20 -29 -36 -21 -46 -64 -6 -22 -60 -5 -35 -13 -44 -8 -52 -10 -49 -40 0
18 -3 0
46 32 36 57 51 33 13 2 8 17 54 47 35 6 63 65 39 37 25 16 10 9 22 49 15 45 14 20 18 5 23 29 -27 -7 -26 -61 -30 -55 -24 -64 -19 -50 -21 -12 -38 -1 -4 -43 -11 -42 -28 -3 -52 -59 -53 -62 0
51 40 56 58 3 55 18 27 26 50 16 24 1 20 5 4 32 38 59 34 46 -61 -10 -44 -28 -14 -65 -6 -36 -2 -53 -19 -23 -15 -25 -57 -30 -49 -8 -37 -52 -9 0
18 33 39 27 44 8 42 6 25 4 36 29 56 57 17 55 22 50 41 61 51 59 9 34 3 60 -7 -58 -49 -65 -30 -28 -16 -5 -11 -38 -13 -20 -62 -23 -1 -43 -35 -52 -48 -12 -63 -15 -10 -45 -21 -19 -37 -2 -24 -32 -47 0
61 21 50 58 46 65 54 62 30 15 63 7 33 41 37 13 57 -29 -47 -17 -64 -34 -22 -5 -18 -9 -2 -44 -16 -4 -24 -11 -19 -43 -52 -20 -6 -45 -48 -3 -60 -31 -27 -28 -25 -35 -12 -32 -14 -10 0
51 30 31 55 58 23 4 52 -64 -43 -7 -21 -17 0
39 14 58 35 28 9 20 -65 -33 -52 -7 -8 -4 -38 0
3 11 8 15 36 34 24 19 31 61 52 56 10 37 64 13 38 63 57 -23 -55 -65 -12 -33 -18 -9 -60 -47 -17 -25 -20 -39 -46 -28 -29 -7 0
58 25 43 39 26 17 34 62 20 59 -7 -30 -60 -54 -53 -47 -32 -4 -63 -41 -65 -3 -48 -61 -15 -24 -5 -44 0
52 19 35 56 16 43 11 18 40 27 3 63 38 31 25 17 60 -55 -36 -21 -28 0
55 50 46 23 37 8 42 29 57 35 27 13 39 65 -9 -36 -26 -17 -20 -19 -28 -31 -53 -48 -33 -59 -25 -18 -60 -16 -56 -43 -41 0
16 37 -63 -1 -17 0
41 57 39 1 45 21 8 47 63 11 16 14 -29 -32 -22 -50 -36 -54 -10 -4 -2 -5 -59 -20 -26 -49 -55 -58 -19 -51 -9 -15 -38 -23 -48 -33 0
56 34 18 51 50 -49 -19 -26 -39 -63 -53 -25 -9 0
54 36 12 32 44 9 5 26 13 65 59 47 63 20 38 62 14 7 49 42 30 48 58 -35 -8 -41 -28 -3 -45 -64 -43 -37 -57 -18 -53 -56 -52 -11 -50 -55 -31 -34 -33 0
33 27 8 13 34 55 37 5 10 3 6 44 54 30 25 65 40 18 60 31 50 2 23 43 -63 -22 -17 -29 -35 -58 -4 -32 -45 -56 -52 -36 -9 -24 -46 -11 -64 -12 -62 -41 -49 -16 -59 -51 -14 -48 -42 -61 0
35 7 18 62 48 23 28 16 6 59 8 22 15 3 45 57 -61 -10 -49 -55 -26 -64 -32 -58 -27 -53 -9 -21 -47 -63 -25 0
12 28 29 20 65 60 17 27 51 2 59 63 3 44 16 45 38 56 46 21 25 64 39 57 55 -9 -54 -8 -5 -1 -15 -42 -22 -35 -43 -52 -53 -41 -61 -31 -19 -24 -10 -47 -34 -26 -62 -49 -7 -37 -13 -30 -33 -58 0
53 1 7 63 39 29 20 30 33 32 31 45 36 65 25 6 28 5 13 3 59 49 10 52 9 48 41 26 2 -38 -18 -61 -34 -46 -19 -8 -44 -56 -40 -57 -16 -64 -24 -35 -58 -54 -43 -55 -42 -50 -21 -27 -62 -15 0
19 52 26 21 35 39 44 13 38 12 17 5 -55 -1 -60 -50 -15 -2 -54 -59 -49 -33 -42 0
31 35 24 7 34 57 28 15 6 26 30 -23 -51 -17 -44 -65 -19 -50 -60 0
45 65 49 63 56 55 9 41 30 -43 -48 -19 -62 -57 -51 -37 -60 -28 -29 -64 0
6 4 59 19 58 45 28 13 15 33 17 40 14 46 25 60 18 43 48 1 55 22 36 27 38 11 24 16 -21 -65 -30 -51 -57 -53 -42 -56 -8 -29 -9 -23 -31 -49 -37 -44 -20 -52 -54 -50 -39 -64 0
59 58 14 33 17 34 64 56 65 39 1 36 27 62 51 10 23 37 26 35 43 6 44 50 30 52 40 47 5 20 46 29 42 24 61 -12 -16 -38 -3 -2 -57 -31 -18 -28 -45 -22 -11 -25 -55 -4 -41 -48 -60 -63 0
61 28 33 4 63 60 19 42 59 36 11 31 13 57 25 -50 -1 -44 -45 0
65 58 37 16 12 41 8 61 22 52 59 7 48 54 27 4 51 64 32 -20 -24 -53 -33 -44 -25 -35 -18 -55 -43 -57 -46 -10 -11 -40 -19 -38 -29 -56 -17 -15 -1 -30 -63 -45 -39 -21 -26 -14 -60 -13 -2 -5 -47 -34 -49 -6 -50 -62 -28 -36 0
49 1 62 4 29 3 9 28 56 32 45 24 36 27 53 57 51 21 -61 -7 -17 -48 -47 -16 -50 -37 0
40 15 18 55 59 45 43 20 63 61 14 24 -26 -25 -6 -62 -60 -31 -58 -41 0
18 47 50 64 35 24 20 13 10 26 37 53 41 23 8 21 39 5 -31 -56 -49 -27 -33 -16 -55 -62 -1 -12 -19 -42 -11 -29 -44 -15 -7 -34 -45 -2 -6 -46 -54 -38 -36 -48 0
22 60 16 20 24 12 37 4 1 25 62 23 -33 -65 -8 -19 -42 -6 -44 -46 -36 -31 -55 -47 -14 -45 0
36 7 5 60 13 32 11 30 34 40 -26 -12 -23 -37 -24 -64 -59 0
52 11 61 21 7 41 30 6 55 33 19 42 -35 -15 -63 -2 -1 -50 -23 -40 -47 -20 -57 -39 0
34 42 20 17 62 2 46 10 7 32 5 35 64 24 19 30 56 36 48 58 49 44 54 9 38 13 26 12 52 28 63 39 -3 -40 -8 -33 -55 -37 -60 -43 -31 -15 -53 -51 -22 -18 -14 -45 -47 -16 -6 -4 -59 -27 -57 -61 -23 -29 0
22 65 12 23 19 60 32 -25 -3 -61 -15 -10 -4 -58 -56 -42 -47 -24 0
6 46 41 9 10 45 59 22 53 48 38 47 40 2 25 56 34 64 12 36 11 19 60 -7 -44 -29 -32 -5 -65 -20 -23 -26 -18 -54 -13 -50 -21 -42 -57 -16 -4 -61 -24 -31 -27 -55 0
61 29 2 34 28 50 11 54 40 52 57 42 4 62 48 64 38 55 45 -17 -47 -16 -60 -7 -1 -46 -5 -15 -27 -22 -49 -23 -31 -33 -19 -43 0
44 40 60 -4 -32 -23 -57 -28 -21 -56 -9 -55 0
44 49 50 60 53 20 16 6 54 -40 -24 -32 -52 -26 -36 -31 0
42 43 35 44 2 11 62 28 6 13 48 -36 -25 -59 -3 -30 -29 -17 -50 -41 -14 -53 -58 -12 -32 -4 -64 -51 -9 0
13 36 37 2 22 25 54 4 10 58 48 26 23 7 33 49 42 31 50 -3 -17 -20 -1 -46 -29 0
37 4 51 52 41 3 22 46 1 20 15 30 34 28 14 8 7 57 23 40 48 60 47 33 59 -18 -13 -21 -6 -62 -65 -38 -24 -26 -11 -50 -27 -54 -44 -49 -10 -29 -42 -56 -63 -55 -19 -32 -9 0
1 3 -65 -56 -55 0
13 4 32 51 19 61 11 25 53 29 37 15 9 30 33 27 17 57 60 65 49 50 56 6 3 31 46 -36 -35 -10 -45 -1 -63 -41 -12 -14 -26 -8 -52 -58 -38 -21 -22 -59 -7 -54 -23 -40 -43 -44 -34 -20 -64 -47 -28 -42 -62 -24 0
28 1 51 45 58 14 22 16 6 53 23 4 10 27 8 60 56 25 9 29 54 47 12 59 -46 -18 -32 -33 -61 -40 -63 -24 -26 -52 -37 -31 -50 -15 -2 -44 -17 -36 -30 -5 -42 -20 -65 -57 -34 -62 -38 -35 -48 0
28 8 48 6 45 25 32 14 54 1 39 63 17 27 7 35 42 51 44 -38 -21 -2 -57 -60 -49 -3 -13 -43 -11 -12 -31 -15 -9 -16 -53 -30 -34 -5 -46 -24 -37 -65 -40 -62 -41 -19 -59 0
49 43 30 27 48 58 23 25 42 64 2 56 63 9 41 20 -7 -33 -55 -37 -10 -35 -6 -18 -13 -22 0
32 7 20 27 31 9 24 4 3 55 36 14 44 16 28 45 56 41 60 -15 -25 -52 -43 -23 -58 -40 -6 -2 -50 -1 -63 -62 -49 -10 -11 -46 -42 -64 -37 -39 -12 -33 -65 -51 -48 0
58 44 9 6 43 34 48 45 -42 -29 -21 -33 -8 -10 -47 -55 0
19 55 63 49 -32 -39 0
58 7 14 9 26 37 46 21 10 24 49 19 -53 -8 -30 -27 -41 -31 -42 -38 -62 -1 -50 -43 -28 -12 -60 -29 0
62 32 37 -18 -30 -46 -25 0
41 49 6 10 44 20 38 23 26 52 33 51 32 29 1 39 47 12 14 45 30 27 35 22 -63 -3 -9 -18 -42 -2 -31 -58 -21 -36 -24 -55 -15 -60 -4 -48 0
22 40 48 27 63 34 44 18 33 62 46 7 15 49 -29 -64 -21 -35 -19 -25 -12 -13 -28 -36 -60 -43 -50 -4 -51 -37 -16 -39 -57 -14 0
17 36 5 43 52 54 45 16 26 40 56 3 49 -30 -62 -46 -8 -12 -29 -4 -51 -42 0
28 16 18 6 26 13 31 39 60 10 55 57 2 25 45 36 42 29 5 30 44 11 62 59 -65 -3 -48 -21 -9 -14 -22 -24 -38 -46 -52 -40 -12 -43 -37 0
9 42 17 56 64 38 53 41 46 24 16 6 49 60 65 61 44 57 33 22 34 59 13 35 8 30 -63 -23 -14 -19 -18 -39 -3 -29 -21 -10 -7 -12 -32 -15 -25 -52 -48 -2 -27 -50 -28 -36 -37 -1 -11 -54 -26 -55 -47 -4 -62 -43 0
6 16 -20 -34 -13 -5 0
25 14 2 46 20 -57 -49 0
3 -18 -2 -15 -56 0
32 54 35 56 6 10 14 13 1 38 21 20 7 49 28 51 2 39 40 25 64 44 15 50 60 47 53 -55 -4 -65 -27 -58 -42 -5 -8 -52 -33 -12 -62 -29 -23 -22 -16 -57 -11 -34 -19 -36 -24 -37 -17 -30 -45 -43 -46 -31 -63 0
30 31 29 40 10 12 53 59 50 52 56 54 39 26 47 51 4 25 27 64 18 28 42 7 38 -62 -46 -37 -60 -43 -61 -58 -33 -57 -35 -32 -11 -22 -21 -2 -13 -20 -1 -34 -44 -16 -24 -48 0
28 34 32 -35 -16 -25 -44 -21 -15 -26 -58 -14 -9 0
58 49 51 1 47 59 11 35 45 23 9 46 32 21 12 31 28 52 50 16 37 25 2 43 60 24 63 -53 -34 -13 -29 -62 -64 -22 -41 -8 -14 -54 -44 -15 -30 -19 -27 -55 -6 -56 -5 -18 -10 -33 -57 -20 -17 -42 -38 -48 0
23 55 29 58 64 18 12 11 15 22 60 38 47 36 51 31 10 30 40 -35 -61 -4 -26 -39 -6 -32 -53 -48 -8 -42 -33 -63 -45 -21 -19 -16 -1 -52 -50 -25 0
52 43 16 47 21 18 40 28 24 51 36 32 25 44 63 -57 -64 -48 -4 -58 -65 -34 -17 -31 -30 -62 -46 -60 -56 -20 -22 0
55 16 34 65 21 64 63 62 52 26 56 10 12 50 19 18 1 3 25 4 61 51 31 5 32 11 33 38 9 7 44 -13 -15 -46 -30 -27 -36 -57 -29 -59 -48 -17 -58 -37 -22 -14 -45 -20 -54 -28 -42 -53 -60 -47 0
27 49 19 43 58 11 55 8 28 9 14 64 34 60 10 22 62 47 25 36 32 59 61 21 40 53 45 50 35 12 57 5 -24 -16 -31 -56 -63 -48 -42 -6 -33 -29 -39 -2 -30 -54 -26 -18 -38 -3 -7 -52 -23 -1 -65 -37 -15 -46 -41 -4 -51 -17 -13 0
51 35 37 42 8 12 53 5 17 7 34 29 16 1 -52 -60 -44 -65 -57 -3 -19 -45 -4 -20 -26 0
-40 0
6 41 51 59 49 50 3 16 12 40 26 15 53 9 19 65 58 55 48 64 23 5 24 25 39 8 18 10 29 -30 -33 -56 -20 -22 -52 -36 -21 -38 -61 -37 -57 -47 -45 -46 -44 -63 -28 -60 -31 -4 -34 -14 -13 -11 -43 -62 0
64 8 3 31 5 20 11 2 46 38 50 37 48 1 40 55 12 47 9 25 23 53 6 42 62 17 4 32 51 15 21 61 -14 -43 -52 -30 -27 -18 -63 -56 -26 -7 -36 -65 -45 -34 -54 -19 -10 -28 -22 -60 -59 -29 -57 -24 -39 -35 -41 0
3 14 4 39 33 24 52 64 50 60 6 -29 -32 -2 -11 -17 -18 -42 -47 0
58 65 -28 -8 0
47 21 41 44 63 50 14 37 23 55 9 25 39 2 12 61 10 58 43 17 36 -20 -33 -15 -65 -16 -64 -56 -35 -53 -1 -57 -19 -62 -40 -28 -3 -6 -31 -7 -13 -32 -48 -30 -45 -5 -27 -26 -24 -42 0
31 9 60 61 6 63 36 42 4 50 8 59 -51 -53 -2 -1 -46 -43 -62 -26 -37 -33 -32 -23 -65 -29 -22 -17 -27 -24 -28 -25 -64 -39 -48 -11 -44 -56 -40 -12 0
45 26 60 -58 -5 -41 -64 -10 -43 0
13 16 18 4 42 25 1 55 6 36 7 60 56 64 48 37 52 30 34 28 22 46 29 8 15 -58 -40 -45 -27 -23 -65 -51 -57 -32 -59 -9 -63 -31 -21 -38 -12 -10 -54 -19 -14 -49 -62 0
33 7 59 41 15 46 58 10 45 27 48 36 42 11 31 14 16 55 61 3 5 2 23 57 6 40 24 1 52 26 60 64 -18 -8 -29 -38 -17 -49 -9 -63 -53 -12 -50 -54 -34 -65 -35 -13 -22 -39 -32 -4 -62 -21 -20 -25 -47 -30 -28 0
8 34 50 17 2 55 7 3 41 -38 -57 -61 -9 -22 -56 -25 0
64 26 57 5 60 11 41 30 62 35 40 50 14 23 20 12 31 6 43 2 53 3 34 45 48 32 16 28 15 49 -63 -37 -47 -13 -21 -17 -42 -51 -52 -33 -7 -4 -61 -10 -25 -58 -19 -56 -24 -22 -46 -54 -18 -36 -55 -44 0
50 4 10 54 3 24 52 61 19 42 30 43 34 26 56 36 16 7 41 12 48 -18 -33 -60 -37 -15 -8 -22 -27 -46 -62 -20 -59 -47 -25 -32 -53 -17 -44 -65 -31 0
20 11 43 42 5 7 34 8 59 65 17 56 36 14 44 9 16 40 55 13 1 53 2 3 -4 -37 -46 -60 -32 -21 -6 -27 -19 -57 -54 -33 -28 -23 -41 -51 -58 -62 -45 -35 0
46 49 14 8 56 12 34 43 51 37 11 60 18 21 1 50 64 4 27 22 47 7 -20 -24 -26 -3 -65 -54 -23 -9 -42 -58 -41 -33 -35 -45 -5 -44 -38 -32 -59 -40 -62 -52 -2 -6 -13 0
30 55 35 6 25 43 18 65 10 2 48 60 51 1 37 44 4 23 26 28 53 22 46 58 -52 -64 -56 -45 -5 -57 -9 -13 -36 -34 -38 -12 -62 -47 -32 -17 -42 0
38 -20 -9 -55 0
15 64 55 44 -14 -32 -38 0
22 7 50 45 62 3 25 56 51 8 11 59 21 46 35 37 47 9 44 63 40 43 60 41 1 23 38 4 13 2 52 -55 -12 -28 -27 -19 -26 -16 -48 -57 -42 -33 -30 -34 -39 -18 -15 -58 -14 -36 -29 -65 -61 -10 -54 -20 -24 -6 -5 0
50 63 3 22 48 13 14 9 24 27 30 43 -33 -2 -59 -57 -40 -55 -17 -28 -35 -39 -34 -42 -26 -46 -25 -45 -23 -64 -58 -53 -62 0
57 7 28 58 48 45 21 5 -11 -22 -4 -23 -52 -60 -6 -62 -2 -13 -1 -37 -16 -9 0
16 39 31 11 53 60 21 64 40 50 37 35 32 -36 -48 -20 -25 -56 -38 -19 -1 -12 -34 -45 -63 -7 -52 -14 -46 -6 0
55 8 16 3 24 45 1 7 56 59 35 26 48 32 18 57 37 49 29 65 50 61 4 13 12 39 21 23 60 -9 -19 -14 -54 -53 -43 -2 -11 -33 -25 -17 -6 -52 -46 -42 -41 -63 -51 -44 -36 -15 -30 -58 -31 -62 -34 -28 0
32 2 44 57 5 40 46 54 8 26 58 17 -55 -42 -28 -30 -22 -63 -10 -16 -50 0
41 54 60 16 38 2 32 33 15 46 8 51 62 52 24 14 44 36 30 47 43 48 61 65 63 -55 -59 -1 -53 -22 -5 -18 -20 -50 -12 -26 -6 -27 -31 -10 -39 -3 -49 -45 -4 -19 -21 -42 -23 -17 -25 0
57 18 62 1 25 16 58 33 14 19 24 38 22 64 56 28 51 65 39 9 27 2 48 -35 -3 -21 -32 -37 -26 -31 -59 -5 -50 -63 -42 -17 -55 -44 -49 -40 -41 -8 -54 -60 0
59 48 20 63 45 18 6 19 8 43 31 46 54 41 14 34 44 33 11 62 55 4 65 12 3 -56 -35 -39 -61 -17 -50 -10 -15 -51 -36 -42 -49 -13 -23 -9 -37 -22 -27 -21 -7 -47 -5 -2 -53 -28 -30 0
6 30 62 61 65 27 19 18 58 9 8 45 -34 -48 -4 -17 -38 -49 -29 -12 -41 -26 -44 -1 -52 -11 0
7 24 11 33 39 6 63 34 52 43 18 36 1 27 65 21 23 26 14 57 4 46 50 25 54 -19 -30 -35 -3 -56 -13 -17 -58 -9 -16 -15 -42 -55 -48 -45 -41 -5 -29 -44 -37 -53 -40 -60 -28 -20 -31 -38 -12 0
8 11 54 53 -34 -63 -1 0
65 8 34 16 59 46 18 9 32 7 -3 -27 -4 -21 -62 0
26 56 1 43 32 27 40 13 15 -18 -63 -19 -2 -48 -31 -4 -16 -46 -53 0
46 18 48 56 4 27 47 57 52 11 5 37 22 -16 -19 -33 -23 -10 -31 -40 -44 -21 -30 0
63 62 45 10 53 26 5 55 54 44 33 2 64 42 35 3 13 39 41 61 36 59 57 32 4 50 18 40 23 34 25 17 -1 -38 -37 -52 -16 -31 -46 -28 -21 -11 -24 -15 -65 -51 -14 -9 -43 -48 -7 -20 -30 -58 -47 -27 -60 -12 -22 -56 0
46 65 6 37 50 36 39 11 51 -35 -21 -49 -58 -20 -14 -34 -45 -1 -9 -47 -52 -59 -32 0
59 51 65 18 27 20 25 3 54 52 33 17 1 31 35 64 32 9 10 -8 -46 -45 -55 -38 -19 -21 -5 -42 -4 -30 -23 -40 -58 -24 -50 -57 -36 0
35 42 17 39 60 37 20 4 -47 -53 -52 -59 -55 -38 -33 -57 0
64 46 12 8 35 10 36 1 38 30 53 20 23 4 49 19 26 28 34 59 21 6 43 -51 -16 -57 -61 -42 -50 -13 0
31 62 6 50 19 26 28 44 37 41 22 64 56 17 59 3 4 25 48 57 7 23 51 53 1 52 39 16 21 33 8 61 -29 -24 -49 -58 -54 -47 -30 -20 -46 -18 -35 -32 -43 -40 -5 -65 -38 -36 -15 -42 -9 -60 -12 -63 -14 -11 -45 -27 -34 0
42 63 52 28 24 43 53 4 17 37 27 15 57 3 56 64 -1 -39 -6 -16 -8 -7 -62 -31 -35 -32 -22 -10 -33 -2 0
56 8 62 20 53 41 64 14 50 44 25 22 46 27 -18 -4 -58 -31 -40 -5 -48 -16 -29 -61 -63 -42 0
21 25 32 18 50 15 19 40 5 65 22 52 58 -26 -63 -59 -4 -61 -57 -13 -64 -24 -56 -51 -36 -39 -49 0
9 60 5 62 14 39 53 34 36 33 12 43 52 63 35 45 7 21 4 28 37 54 3 6 56 44 15 23 27 61 13 20 -57 -18 -32 -64 -19 -25 -30 -24 -31 -51 -11 -26 -8 -50 -48 -10 -58 -29 -65 -47 -16 0
15 12 51 32 -10 -5 -56 -6 0
31 41 16 58 29 2 20 -11 -59 -38 -53 0
64 59 32 15 47 6 24 41 42 55 48 23 46 45 1 12 2 16 33 52 56 5 3 50 62 43 40 -61 -19 -34 -30 -14 -29 -22 -11 -39 -13 -60 -4 -20 -53 -44 -25 -63 -18 -31 -38 -8 -9 -36 -28 -21 0
33 46 16 54 65 2 11 24 6 62 -19 -32 -49 -5 -14 -55 -15 -39 -35 -18 0
49 34 65 17 37 32 15 57 -62 -3 -61 -28 -40 -14 -58 -41 -7 0
18 38 33 22 29 6 32 27 31 17 21 55 65 62 25 41 23 13 20 45 -9 -50 -39 -30 -58 -7 -43 -2 -59 -8 -46 -12 -42 -53 -57 -56 -19 -14 0
5 46 59 61 22 39 26 8 47 55 -20 -30 -1 -63 -6 -24 -49 -7 -60 -17 -50 -9 -43 -48 -34 -2 -35 -13 -41 -40 -23 -45 -19 -29 -58 0
63 59 50 5 60 22 14 37 48 31 42 30 34 29 58 49 64 28 39 12 38 47 10 46 45 -61 -7 -57 -9 -13 -15 -16 -54 -44 -55 -62 -23 -21 -3 -1 -19 -56 -20 -2 -36 -35 -8 -18 -41 -26 -65 -33 -32 -11 -17 0
55 23 24 4 28 63 5 33 7 62 54 59 3 36 26 31 46 42 9 11 53 50 15 22 41 10 52 34 19 -38 -39 -49 -27 -13 -65 -18 -40 -51 -32 -45 0
55 53 16 54 46 6 32 12 -14 -19 -24 -43 -60 -7 0
64 8 62 44 34 25 30 26 23 16 11 14 29 57 63 18 15 40 61 -3 -28 -33 -55 -31 -24 -19 -4 -50 -1 -9 -51 -45 -32 -53 0
19 18 53 47 1 15 43 54 14 61 38 13 24 8 31 48 41 36 17 60 50 37 40 11 23 58 -63 -57 -22 -12 -2 -20 -10 -56 -59 -34 -7 -21 -45 -28 -5 -4 -27 -35 -49 -29 -51 -42 -46 -6 0
63 44 28 6 46 35 16 57 50 15 43 30 12 -3 -51 -37 -61 -36 -42 -17 -60 -62 -4 -7 -10 -40 0
29 24 11 37 23 41 35 27 62 49 65 58 56 25 51 26 28 39 36 43 40 55 17 6 1 12 44 16 13 64 52 61 -19 -33 -42 -63 -20 -18 -14 -7 -9 -53 -50 -54 -22 -15 -2 -57 -21 -47 -48 -30 -10 -46 -34 -5 -60 -8 -45 0
18 5 61 56 42 65 7 6 55 60 11 64 -59 -26 -32 -63 -31 -15 -30 -19 -2 -57 -49 -23 -29 -54 -13 -50 -40 -37 -12 -1 -45 -38 0
42 58 62 28 6 10 11 41 16 55 61 1 44 26 53 49 20 4 25 43 56 3 27 13 7 39 38 33 63 29 17 51 52 54 57 34 2 -47 -21 -36 -18 -45 -19 -32 -46 -15 -37 -8 -23 -12 -40 -22 -65 -50 -14 -31 -59 -48 -35 -9 -30 -64 0
45 52 41 27 7 36 54 4 44 55 51 14 63 43 10 64 33 61 35 24 37 65 30 -46 -13 -5 -9 -62 -22 -8 -39 -1 -56 -49 -53 -11 -18 -15 -50 -21 -17 -26 -48 -16 -58 -34 -47 -29 0
41 59 57 23 11 33 21 24 53 -31 -4 -27 -28 0
60 51 9 41 30 2 23 1 52 15 3 61 -36 -33 -48 -14 0
44 39 20 10 37 11 40 16 8 58 45 47 26 30 46 63 9 65 41 -36 -35 -3 -4 -42 -29 -17 -28 -50 -1 -25 -12 -24 -52 -19 -57 -13 -33 -22 -23 -21 -51 -56 -5 0
32 29 22 37 31 59 15 64 38 14 65 8 34 4 43 61 48 55 10 3 56 2 12 58 54 47 46 30 41 -50 -21 -35 -25 -60 -45 -28 -42 -23 -49 -33 -9 -6 -53 -1 -13 -17 -27 -63 -26 -44 -16 -57 -19 -51 -24 -36 -62 -7 0
43 30 21 50 48 28 39 5 10 2 -55 -46 -58 -63 -62 -27 -23 -29 -12 -14 -24 -52 -54 -36 -9 0
25 32 43 31 17 61 15 53 14 42 1 50 34 18 60 63 8 40 6 35 -23 -36 -22 -64 -52 -58 -29 -55 -16 -9 -13 -41 -51 -37 -5 -11 -3 -46 0
19 60 20 15 63 14 25 59 36 7 45 31 27 51 26 42 9 46 -3 -24 -8 -47 -34 -44 -5 -6 -53 -16 -37 -52 -29 -40 -56 -41 -33 -35 -61 -18 -28 -30 0
11 56 10 -16 -58 -14 -23 -2 -12 -25 -3 0
30 63 52 1 36 54 46 65 57 53 43 28 20 18 64 47 58 33 -8 -31 -44 -34 -49 -37 -29 -45 -21 -38 -23 -27 -4 0
46 1 10 22 9 53 -4 -37 -42 -21 -59 -40 -64 -31 -7 -19 0
14 24 60 48 49 38 -17 -15 -54 -40 -58 -37 0
62 57 1 56 34 58 33 50 39 45 22 24 19 40 60 30 46 5 21 47 35 12 65 -31 -2 -26 -29 -11 -38 -55 -28 -37 -25 -42 -59 -16 -44 -64 -63 -52 -10 -3 -61 -7 0
18 64 6 65 8 51 35 58 31 30 3 39 61 33 63 12 26 52 23 25 17 49 14 24 56 13 29 7 19 2 -36 -47 -9 -4 -50 -15 -28 -20 -27 -37 -48 -5 -11 -16 -44 -46 -22 -21 -62 -40 -32 -59 -45 -34 -1 -43 -42 -57 -41 -38 -60 0
65 1 6 51 45 3 2 -8 -11 -46 -48 -27 -39 -21 -18 -22 -41 -20 -37 0
17 35 30 31 6 36 41 13 58 51 28 14 1 27 38 26 20 46 63 37 59 64 62 21 7 65 52 16 -57 -40 -61 -44 -56 -5 -11 -54 -25 -8 -18 -43 -48 -53 -47 -9 -49 -29 -3 -2 -55 -33 -45 -24 -22 -12 -10 -42 -50 -4 -23 0
45 19 2 14 29 32 30 24 13 52 8 34 31 62 20 22 51 28 11 57 -33 -43 -39 -3 -12 -54 -9 -41 -21 -64 -15 -65 -1 -40 -60 -26 -17 -23 -56 0
61 49 1 26 42 56 35 13 7 29 55 52 27 59 25 12 -11 -45 -4 -22 -64 -37 -15 -36 -28 -65 -51 -16 -60 -41 -43 -32 0
23 25 59 32 57 1 22 55 13 51 62 53 49 15 24 43 45 58 2 44 42 36 34 21 40 33 54 16 61 -52 -46 -56 -10 -5 -47 -4 -7 -19 -63 -28 -48 -11 -30 -20 -60 -65 -29 -39 -6 -26 -27 -14 -17 -9 -12 -38 -50 -31 0
19 -1 -40 0
36 4 35 60 9 13 45 19 25 53 26 6 24 34 49 64 51 56 37 48 12 -5 -2 -55 -21 -3 -16 -61 -58 -39 -50 -33 -40 -14 -22 -59 -43 -32 -7 -62 -20 -41 -30 -52 -27 -44 0
5 43 50 31 35 63 19 48 46 11 12 29 61 60 30 16 38 39 15 47 13 59 27 -51 -56 -10 -4 -24 -37 -25 -40 -9 -1 -32 -42 -41 -64 -34 -8 -55 -20 -36 -6 -44 -3 -14 -33 -45 -26 -18 -21 -52 0
27 2 45 18 28 41 24 46 39 33 7 6 -3 -47 -1 -25 -57 -22 -37 -55 -5 -54 -15 -26 -21 -35 -16 -23 -29 -20 0
29 56 59 24 42 62 54 45 1 49 60 6 22 23 11 25 36 65 31 35 13 38 63 51 15 43 -40 -46 -28 -34 -2 -44 -27 -10 -8 -18 -21 -7 -20 -53 -39 -47 -16 0
5 53 -13 -15 -59 0
64 1 4 17 26 16 9 2 36 41 11 48 55 37 12 45 59 52 19 49 8 20 14 46 29 42 50 34 62 60 61 28 -23 -39 -7 -30 -57 -65 -22 -58 -24 -44 -31 -38 -5 -6 -21 -25 -43 -54 -18 0
61 33 7 6 48 50 41 40 34 11 37 53 26 57 52 5 54 4 31 24 19 8 30 9 3 43 60 -32 -44 -39 -47 -17 -25 -49 -23 -59 -38 -20 -63 -29 -36 -35 -16 -28 -62 -64 -46 -55 -18 -56 -51 0
33 -57 -14 0
42 56 24 61 51 34 10 43 2 9 40 27 36 47 3 16 49 44 26 30 21 28 35 -64 -25 -60 -39 -13 -53 -45 -29 -12 -38 -54 -1 -48 -31 -5 -8 -7 -22 -11 -58 -33 -65 -17 -18 -20 -63 -32 -57 -6 0
15 16 4 50 36 61 55 57 22 54 9 25 47 27 56 3 44 18 13 31 45 38 64 26 2 17 8 -59 -52 -40 -21 -10 -7 -12 -35 -46 -5 -37 -24 -42 -14 -11 -62 -48 -60 -43 -30 -65 -58 -34 -29 -49 -28 0
29 21 42 47 25 44 48 64 11 20 24 32 14 19 34 37 12 10 49 62 6 51 2 16 40 43 58 33 22 60 30 31 36 61 9 -35 -39 -13 -23 -52 -18 -46 -57 -63 -54 -1 -28 -27 -56 -15 -50 -45 -8 -55 -65 -26 -41 -4 -3 -5 -7 -17 0
63 18 51 26 17 1 57 15 43 56 65 38 62 8 19 33 9 37 13 55 3 52 54 39 49 22 45 35 23 61 7 21 16 -50 -28 -31 -32 -25 -64 -36 -42 -27 -20 -58 -44 -41 -48 -40 -47 -11 -24 -5 -10 -59 -12 -2 -34 -30 -53 -46 -4 -14 -29 -6 0
26 59 14 31 64 9 32 45 30 22 20 51 63 4 5 6 44 12 21 37 61 25 33 60 24 38 58 54 49 15 29 40 27 11 -3 -7 -62 -48 -56 -47 -57 -13 -55 -52 -53 -2 -18 -42 -50 -19 -35 -16 -43 -23 -39 -34 -36 -46 -1 -28 -41 -17 -8 0
11 64 12 54 17 59 53 22 5 57 25 7 65 2 16 1 56 60 23 63 62 41 21 42 45 52 51 39 38 10 58 50 4 44 32 -19 -48 -55 -47 -49 -33 -31 -28 -27 -46 -30 -36 -43 -18 -13 -29 -20 -34 -15 -9 -26 -40 -24 -61 -3 -37 -8 -14 0
57 37 39 56 14 19 6 23 43 62 55 21 20 12 44 8 24 34 47 3 25 65 1 36 33 38 64 7 18 29 -9 -49 -42 -59 -4 -28 -61 -45 -51 -27 -30 -13 -63 -17 -48 -52 -35 -41 -32 -46 -11 0
8 54 41 -13 -35 -19 -50 -43 0
25 56 42 63 53 49 48 47 11 35 34 33 36 27 28 14 43 1 61 -3 -55 -60 -6 -4 -15 -52 -2 -54 -32 -21 -59 -62 -22 -46 -23 -24 -19 -41 -9 -45 -65 -64 -39 -13 -44 -51 -12 -58 -18 0
22 44 2 14 8 59 39 56 53 51 12 18 36 28 41 45 65 42 3 49 33 54 61 16 -64 -34 -40 -57 -23 -5 -4 -21 -11 -7 -19 -30 -13 -50 -6 -63 -35 -38 -10 -29 -20 0
30 3 13 43 32 40 64 27 7 28 4 45 58 20 21 11 39 -42 -52 -9 -53 -63 -56 -10 -46 -37 -38 -8 -54 -16 -22 -17 -51 -60 -59 -6 -36 -23 -14 -2 -5 0
64 7 11 3 52 60 16 -10 -49 -39 -61 -1 0
14 59 49 36 13 65 27 22 25 20 3 53 34 29 40 6 58 35 10 38 -12 -9 -64 -41 -17 -63 -44 -8 -32 -46 -39 -2 -52 -15 -23 -24 -56 -37 -18 -30 -28 -4 -54 -43 -57 -26 -5 -7 -31 -55 -60 -62 -47 -50 -42 -11 -1 -19 0
59 47 58 51 4 60 3 36 33 25 22 45 64 43 32 49 27 23 44 35 37 5 52 1 31 16 55 50 -40 -34 -26 -62 -38 -63 -24 -8 -6 -42 -28 -56 -41 -29 -30 -2 -61 -48 -17 -14 -19 -39 -65 -57 -15 -13 -11 -20 -21 -12 -10 -53 -9 -7 -54 -18 0
9 21 12 19 22 47 38 56 60 42 2 1 65 39 55 63 14 57 15 35 -46 -28 -36 -11 -10 -23 -5 -16 -4 -25 -24 -17 -26 -18 -61 -51 -34 -7 -31 -8 -52 -41 -30 -6 -20 0
34 14 29 16 13 31 32 2 27 53 18 62 5 64 55 49 54 15 56 38 28 58 12 17 35 6 37 59 8 46 20 51 21 47 60 41 50 -39 -52 -23 -10 -22 -30 -43 -24 -63 -44 -26 -25 -45 -3 -4 -42 -48 -57 0
4 41 19 29 63 60 30 48 38 44 56 9 10 54 27 5 33 25 36 46 -58 -16 -64 -1 -20 -8 -53 -24 -55 -50 -57 -42 -12 -52 0
15 46 49 33 25 9 1 62 26 57 13 4 41 40 20 5 22 61 37 18 16 54 45 59 -24 -52 -36 -44 -11 -30 -21 -34 -51 -35 -32 -64 -50 -27 -38 -48 -19 -10 -63 -47 -58 -8 -43 -55 -6 -14 0
32 42 44 27 12 36 1 10 40 -18 -43 -63 -23 -55 -57 0
30 1 24 46 3 56 54 21 40 52 39 60 57 2 18 20 32 64 11 62 10 36 25 23 17 27 -45 -4 -33 -34 -14 -35 -48 -59 -15 -5 -6 -53 -9 -61 -28 -13 -12 -31 -51 -63 -58 -43 -16 -42 0
36 5 16 34 -50 -6 -57 -15 -22 -25 0
8 3 7 35 23 32 39 51 54 46 20 40 45 11 -15 -65 -56 -43 -4 -17 -50 -2 -16 -36 0
61 20 4 -62 -14 -52 -45 -47 -18 0
11 17 15 44 41 50 35 21 1 31 25 59 55 9 28 54 -6 -30 -64 -52 -61 -51 -2 -56 -39 -58 -47 -13 -22 -65 -42 -18 -46 -29 -48 -10 -36 -16 -32 0
2 11 63 23 25 17 42 59 41 34 39 -40 -55 -8 -60 -18 -20 -31 -45 -52 -10 -58 -27 -7 -65 -26 -48 -33 0
7 59 51 2 24 21 50 13 56 43 54 22 49 52 17 61 14 10 39 28 23 18 44 20 60 31 62 48 57 -19 -4 -12 -16 -64 -29 -5 -55 -25 -34 -35 -38 -40 -45 -65 -3 -37 -32 -46 -15 -30 -27 -63 -36 -41 0
3 52 15 20 13 1 33 21 10 14 23 64 29 58 34 28 47 2 42 45 46 9 43 6 63 22 30 18 41 7 36 26 44 5 65 27 -39 -59 -38 -57 -24 -12 -31 -50 -17 -54 -40 -62 -11 -51 -4 -8 -19 -61 -37 -53 -16 -49 -60 -35 -32 -48 -55 -56 0
9 51 63 50 25 53 33 40 28 61 16 29 2 57 17 41 3 7 5 18 21 27 14 48 8 19 20 -54 -35 -26 -42 -10 -11 -62 -43 -34 -12 -15 -24 -32 -58 -59 -23 -31 -4 -38 -6 -13 -36 -39 -60 -46 -65 0
19 28 57 21 54 18 39 8 30 9 20 17 6 55 37 63 29 45 40 24 56 -32 -5 -65 -23 -49 -60 -2 -33 -62 -7 -47 -52 -58 -43 -35 -25 -53 -61 -51 -26 -16 -34 -22 -12 -3 -38 -46 -4 0
58 53 26 65 37 6 19 13 39 36 24 30 27 42 43 12 20 -17 -14 -51 -62 -1 -45 -55 -34 -54 0
13 36 21 31 50 29 14 25 10 65 9 24 4 22 33 26 16 42 46 54 12 -35 -57 -11 -52 -17 -59 -47 -39 -30 -18 -8 -6 -48 -51 -28 -3 0
56 22 21 36 39 52 57 55 54 41 37 16 62 7 5 4 48 49 20 43 27 58 12 31 65 -24 -25 -17 -19 -60 -35 -11 -15 -46 -26 -30 -47 -45 -51 -10 -9 -18 -63 -13 -44 -40 -1 -29 -32 -33 -23 -6 -64 -59 0
9 59 36 5 29 54 45 34 18 8 20 4 53 33 49 56 32 2 16 39 60 22 48 50 64 61 57 37 3 17 19 23 12 65 25 47 -35 -38 -30 -27 -15 -13 -55 -44 -1 -21 -63 -42 -11 -43 -41 -24 -52 -7 -62 -51 -31 -46 -6 -40 -58 -26 -28 0
51 46 28 21 65 6 56 12 55 58 38 34 29 -59 -54 -22 -24 -41 -31 -47 -36 -25 -43 -20 -10 -61 -16 -9 -8 -57 -39 -2 0
57 17 5 59 50 44 15 8 58 -28 -52 -36 -22 -48 -3 -56 -43 -31 0
29 11 57 15 -52 -64 -12 -21 0
35 46 18 52 61 62 26 31 32 50 48 47 63 38 13 58 17 16 53 34 45 57 29 -39 -6 -24 -30 -11 -33 -23 -51 -5 -42 -28 -12 -55 -1 -49 -60 -25 -54 -43 -2 -21 -8 -14 -40 -7 -4 -41 -37 -3 -19 -15 -56 -44 -9 -22 -59 -64 -20 -27 0
57 44 7 10 48 43 37 41 42 19 26 24 23 29 56 -47 -2 -63 -59 -12 -60 -11 0
64 2 20 53 11 62 42 23 28 35 45 31 57 52 49 36 5 61 59 22 33 40 38 7 17 58 14 43 12 60 -19 -46 -51 -54 -8 -10 -13 -47 -34 -26 -44 -1 -27 -56 -4 -29 -50 -65 -48 -3 -16 -25 -55 -9 -15 -37 -39 -30 -41 -24 -63 -21 -6 0
6 47 27 18 65 26 17 62 28 12 52 54 9 16 -22 -45 -59 -20 -21 -19 -49 -61 -24 -37 -60 -3 -63 0
17 33 56 62 9 40 59 49 6 -39 -52 -31 -11 -4 -43 -14 -46 -27 -3 -24 -36 -64 -29 0
64 35 54 30 42 43 58 5 9 38 39 27 3 -52 -51 -16 -63 -37 -47 -57 0
34 50 2 11 28 45 30 1 46 3 49 37 44 65 -35 -17 -42 -47 -58 -59 -8 -22 -7 -26 -14 -39 -61 -48 -51 0
60 13 64 45 8 59 12 35 50 37 -49 -20 -28 -58 -43 -10 -6 -17 -27 -36 -9 -41 -46 0
12 3 24 54 51 20 39 18 9 33 27 59 6 26 10 21 47 42 19 2 1 30 63 36 52 17 28 60 29 -61 -55 -56 -64 -57 -43 -49 -23 -5 -50 -34 -41 -45 -22 -14 -8 -65 -25 -37 -32 -44 -48 -35 -40 -46 -11 -62 -4 -31 0
14 40 36 55 23 7 24 30 25 19 11 28 12 3 57 5 64 34 39 53 65 49 43 62 61 50 13 -35 -41 -48 -38 -20 -6 -8 -31 -4 -27 -26 -16 -32 -59 -45 -44 -10 -51 -21 -56 -47 0
59 58 52 2 62 49 45 40 17 10 14 41 19 -3 -35 -9 -61 -28 -24 -65 -48 -33 -38 -39 -36 -5 -21 -13 -11 -56 0
23 29 11 4 55 62 49 5 59 58 1 32 57 6 10 21 51 54 2 31 48 40 37 26 44 18 22 28 36 52 20 43 50 16 56 9 14 42 -47 -38 -53 -45 -15 -65 -41 -61 -35 -34 -3 -39 -64 -46 -7 -19 -17 -27 -33 -30 -8 -12 -25 -13 -24 -60 0
26 55 2 23 50 31 19 6 35 46 41 47 24 -51 -4 -63 -61 -43 -14 -21 -22 -38 -20 -25 -16 -27 -56 -53 0
40 18 13 36 47 38 9 60 5 7 34 43 10 31 4 28 59 42 54 12 58 57 41 29 48 -11 -62 -6 -27 -16 -21 -55 -35 -49 -50 -44 -26 -8 -45 -22 -46 -56 -17 -14 -23 -30 -64 -19 -61 0
3 63 29 43 58 25 19 18 34 33 1 -35 -44 -45 -22 -4 0
20 -14 -43 -15 0
60 -59 -6 0
16 27 65 36 40 41 12 17 23 48 45 59 63 44 42 11 2 21 38 5 24 56 35 26 14 64 39 53 -22 -51 -37 -52 -28 -32 -19 -18 -25 -61 -58 -34 -55 -15 -10 -4 -62 -9 -57 -3 0
13 41 31 27 3 37 44 58 32 38 11 46 43 51 26 63 6 -21 -2 -65 -45 -24 -34 -30 -15 -53 -55 -64 -50 -54 -14 -47 -19 -56 0
46 8 49 39 14 24 38 58 29 65 18 10 64 30 59 5 20 27 32 12 45 48 53 61 41 40 11 -42 -35 -23 -47 -44 -51 -16 -28 -63 -6 -19 -60 -15 -52 -37 -62 -57 -33 -17 -25 -22 -1 -54 -13 -50 -31 -34 -7 -56 0
12 33 58 20 5 39 25 14 64 21 8 40 63 45 1 48 31 32 10 36 23 27 -65 -51 -24 -54 -38 -15 -19 -53 -41 -43 -62 -49 -9 -35 -2 -60 -28 -50 -3 -34 -6 -30 -56 -55 -44 -22 -18 -4 -11 0
62 18 4 12 53 7 11 39 20 59 51 54 31 19 26 14 57 46 32 45 17 34 64 22 42 60 10 35 38 16 63 5 1 -55 -6 -29 -47 -28 -8 -56 -50 -61 -36 -9 -30 -49 -23 -44 -25 -37 -65 -58 -40 -41 -13 -15 -27 -3 -24 0
46 12 2 32 41 20 15 23 21 39 16 60 25 35 48 6 47 42 11 58 9 34 -8 -38 -29 -54 -14 -43 -3 -13 -61 -7 -4 -24 -50 -36 -31 -28 -30 -1 -10 -63 -37 -59 -51 -17 -65 -44 -53 -45 -22 -62 0
15 -63 -1 0
12 59 26 16 15 60 14 51 7 55 48 -34 -30 -62 -9 -39 -58 -31 -49 -28 -29 -63 -50 -41 -20 -35 -47 -61 -40 -65 -53 -10 -21 -17 -4 -27 -52 -44 -5 -32 0
15 7 59 33 24 11 21 37 65 28 2 31 5 42 8 56 32 18 30 14 62 25 27 40 19 46 34 54 13 12 -64 -35 -6 -23 -61 -43 -36 -39 -63 -51 -9 -50 -4 -47 -29 -20 -41 -55 -49 -48 -16 -53 -52 -58 -26 -60 -3 -44 -45 -17 -10 -38 0
11 21 22 51 3 41 30 59 36 63 62 58 23 29 16 12 26 6 40 20 7 37 54 53 34 61 -14 -46 -49 -43 -27 -39 -44 -28 -8 -38 -60 -56 -50 -35 -19 -55 -31 -42 -17 -25 -32 -24 -33 -2 -48 -47 -4 -13 -10 -64 0
11 -12 0
42 33 5 31 20 -46 -19 -37 -52 -32 -13 0
8 55 6 10 28 61 23 9 62 -36 -25 -47 -11 -52 -7 0
46 59 18 35 32 37 60 24 14 9 6 20 33 49 19 1 42 25 13 39 38 -28 -50 -34 -12 -41 -27 -8 -29 -40 -61 -44 -53 -57 -16 -23 -51 -10 -26 -55 -22 -58 -65 -11 -52 -43 -7 -54 -4 -3 -5 -48 0
60 20 0
17 38 60 61 58 13 -27 -59 -49 -11 -65 -48 -2 -3 -41 0
6 32 -35 -7 -9 -22 0
15 25 42 45 63 4 43 3 65 62 54 61 37 53 40 24 20 49 1 18 58 19 38 -26 -46 -57 -30 -27 -10 -11 -35 -55 -28 -5 -48 -32 -56 -6 -51 -13 -39 -21 0
23 34 62 28 42 3 1 47 27 45 6 11 56 39 -44 -25 -60 -4 -8 -21 -46 -35 -36 -37 -10 -59 -5 -61 -50 0
44 19 5 18 33 25 39 36 56 11 42 57 7 13 62 24 20 3 -12 -64 -23 -22 -1 -51 -14 -59 -65 -32 -37 -46 -29 -50 -27 -8 -21 -63 -31 0
52 8 42 31 13 60 18 47 50 9 5 24 45 43 38 48 28 51 54 16 46 25 33 14 40 26 32 2 41 6 53 -65 -37 -44 -59 -30 -58 -57 -63 -27 -21 -7 -39 -10 -1 -29 -56 -49 -36 -61 -3 -34 -23 -22 -55 -17 -4 -62 -11 0
44 64 4 50 56 29 10 65 14 28 42 22 18 25 35 62 30 41 53 19 26 9 7 6 39 8 38 34 2 33 48 -31 -58 -55 -15 -57 -51 -16 -47 -52 -63 -32 -20 -24 -36 -1 -27 -23 -60 -3 -17 -49 -61 -46 -45 -54 -59 -40 -12 0
23 59 63 32 46 65 12 54 25 37 -61 -47 -62 -24 -11 -15 -7 -31 -2 -8 -57 -58 -42 -13 -40 -44 0
40 58 23 11 55 14 46 52 25 27 42 62 22 17 56 31 33 21 9 44 36 41 8 6 20 54 65 12 29 64 -13 -34 -15 -32 -39 -30 -35 -26 -24 -61 -2 -43 -7 -28 -16 -51 -53 -59 -47 -4 -60 -3 -19 0
40 25 5 27 58 43 39 30 35 36 15 20 17 48 14 8 53 28 45 31 22 -55 -41 -3 -64 -52 -34 -9 -50 -7 -6 -2 -10 -56 -46 -61 -23 -54 -29 -11 -12 -42 -18 -1 -63 0
48 57 23 7 59 33 47 37 53 60 54 18 20 27 16 56 41 44 5 52 19 40 10 1 63 -2 -3 -28 -11 -15 -39 -62 -9 -45 -25 -61 -49 -12 -42 -58 -36 -51 -55 -31 -6 -50 -14 -38 -64 -4 -17 -29 -30 -24 -43 -26 -34 0
47 49 8 41 28 43 26 32 11 52 63 64 29 14 57 24 31 44 35 59 54 10 37 13 42 60 38 53 -30 -19 -2 -65 -15 -18 -22 -61 -56 -9 -58 -62 -51 -16 -23 -40 -21 -27 -12 -36 -25 -34 -48 -39 -33 -45 -17 0
35 59 52 31 63 32 16 7 22 29 33 9 36 56 25 39 1 38 26 2 5 61 8 4 30 54 27 -48 -11 -13 -51 -62 -34 -45 -23 -37 -18 -50 -10 -65 -43 -6 -41 -28 -60 -47 -64 -3 -24 -57 -58 -49 -19 0
65 37 21 60 14 5 6 43 7 64 49 10 18 -27 -15 -11 -44 -58 -39 -55 -56 -32 -4 -17 -53 -30 -61 -28 -13 -24 -36 -47 -52 -54 -46 -31 -2 0
21 43 62 55 12 29 59 61 7 4 30 32 19 9 24 31 8 -11 -44 -15 -14 -34 -37 -27 -51 -47 -26 -60 -56 -65 -52 -20 -42 -33 -10 -45 -63 -17 -3 -25 -16 -39 -28 -38 -53 0
63 35 46 47 15 34 65 54 4 17 -49 -22 -44 -3 -26 -50 -18 -19 -51 -13 -31 -43 -36 -56 -53 0
56 20 38 34 25 63 23 33 2 -65 -61 -55 -32 -24 -9 -51 -64 -6 -62 -19 -13 -5 -50 -8 -3 -31 -7 0
26 48 33 39 58 51 3 19 2 25 10 18 11 42 64 65 17 23 24 63 4 54 50 8 9 32 56 14 13 43 15 37 53 21 -27 -38 -61 -28 -62 -59 -34 -49 -12 -52 -20 -47 -29 -45 -44 -30 -1 -22 -35 -6 -46 -7 -16 -5 -55 -40 -57 -31 -60 -41 0
9 7 32 58 39 -14 0
49 50 58 34 38 57 52 41 28 44 65 22 -29 -36 -32 -17 0
1 41 32 21 50 52 60 3 54 23 64 25 4 16 34 35 63 59 37 65 40 42 39 48 51 19 12 17 18 49 15 -62 -27 -30 -5 -45 -7 -55 -10 -22 -20 -31 -28 -47 -57 -44 -11 -26 -56 -2 -9 -13 -38 -43 -8 -33 -36 -24 -46 -6 -58 -29 -53 0
50 7 9 10 20 39 43 32 45 47 28 5 59 63 27 -16 -36 -65 -46 -13 -44 -55 -4 -12 -31 -34 -11 -17 -3 -23 -53 -2 -56 -24 0
3 9 12 7 45 4 14 11 39 49 41 55 53 50 64 57 44 22 61 -20 -47 -38 -24 -27 -48 -8 -25 -15 -31 -58 -6 -17 -65 -18 -63 -34 -42 -29 -2 -60 -32 -28 -19 0
33 1 29 32 11 27 39 57 53 13 28 45 63 47 -8 -31 -51 -38 -65 -52 -55 -56 -59 -26 -21 -3 -58 -35 0
33 59 52 56 65 16 31 34 25 51 38 18 62 19 12 21 8 30 -28 -42 -4 -32 -23 -44 -50 -17 -7 -22 -41 -39 -24 -57 -36 -55 -64 -20 0
5 32 23 27 9 40 57 38 37 3 13 28 34 4 10 52 6 63 60 59 15 29 33 1 24 21 35 14 55 62 7 -58 -45 -49 -56 -11 -50 -36 -64 -8 -47 -19 -26 -43 -51 -44 -54 -25 -48 -17 -12 -53 -16 0
25 7 31 16 51 21 10 6 41 17 39 22 24 4 23 33 47 54 18 29 45 46 12 -60 -19 -44 -49 -42 -58 -61 -20 -62 -1 -9 -40 -63 -38 -57 -53 -11 -26 -35 -32 -28 -55 -5 -43 0
56 21 55 10 45 40 1 30 61 44 14 50 57 42 36 4 2 59 11 9 35 39 37 60 -43 -51 -41 -33 -58 -6 -31 -49 -32 -23 -53 -5 -12 -34 -29 -18 -16 -62 -27 -13 0
42 9 7 -60 -46 -20 0
40 27 11 39 60 46 42 2 21 17 61 -37 -10 -16 -56 -24 -3 -19 0
36 39 30 29 46 20 54 9 38 4 2 26 25 34 17 10 28 6 21 3 43 44 65 8 -7 -23 -33 -18 -32 -50 -5 -1 -60 -47 -19 -14 -51 -61 -13 -24 -59 -15 -42 -45 -53 -52 -27 -31 -57 -64 -22 -62 0
49 17 20 36 33 -26 -62 -31 -39 -1 -34 -11 -24 -41 0
18 35 62 50 23 -27 -3 -42 -47 -43 -60 0
34 14 61 19 9 -38 -16 -27 -29 -30 -52 -10 0
27 61 16 1 35 62 39 28 9 38 53 2 25 24 14 37 19 10 60 59 21 -26 -17 -57 -20 -8 -4 -63 -43 -29 -45 -64 -23 -56 -36 -48 -49 -55 -15 -31 -34 -3 -52 -6 -46 -42 -22 -13 -44 -51 0
10 16 45 62 59 4 44 35 54 22 32 2 31 60 1 15 21 25 18 -39 -13 -34 -42 -12 -56 -5 -61 -52 -49 -24 -43 -30 -27 -6 -11 -19 -33 -46 -14 -7 -58 -26 -3 -8 -17 -64 -40 -36 -57 -9 -37 -38 -28 -50 -23 -55 0
36 50 26 49 41 57 38 37 32 44 27 14 22 23 8 61 56 33 7 6 53 63 16 42 13 9 4 43 3 20 28 1 31 2 40 51 15 24 -46 -5 -48 -10 -21 -65 -45 -11 -18 -29 -12 -34 -58 -35 -30 -55 -54 -47 -64 -62 -39 -17 -60 -52 -19 -59 0
57 12 40 13 49 51 21 -47 -59 -64 -60 -20 -3 -16 -17 -28 0
42 48 22 1 6 44 51 37 56 25 31 29 58 17 12 15 63 21 16 28 50 20 49 61 57 46 45 34 38 18 35 27 -39 -62 -30 -36 -10 -26 -40 -52 -41 -32 -9 -14 -13 -24 -4 -2 -7 0
50 26 49 38 12 31 47 46 21 3 9 7 55 51 17 34 30 58 37 11 62 56 14 -48 -36 -41 -6 -52 -60 -13 -59 -25 -57 -20 -8 -45 -4 -29 -40 -33 -44 -64 -16 -32 -24 -18 0
46 41 45 40 15 47 27 61 4 57 17 52 58 -3 -59 -51 -28 -6 -8 -50 -49 -26 -7 -65 -54 -30 -33 -44 -10 -2 -11 -9 0
55 24 5 58 20 42 28 15 27 65 53 2 26 62 33 36 30 8 3 50 17 4 43 -51 -1 -54 -19 -34 -64 -13 -7 -35 -14 -59 -57 -63 -9 -49 -46 -12 0
62 41 57 61 58 37 24 65 46 38 9 18 19 28 25 47 39 14 15 -35 -6 -59 -44 -30 -21 -43 -31 -56 -29 -54 -45 -16 -8 -10 -17 -64 -48 -50 -49 -2 0
12 19 22 6 23 13 39 9 37 43 38 34 50 32 11 35 53 3 29 8 14 21 1 -30 -27 -15 -45 -31 -41 -46 -59 -18 -51 -36 -42 -56 -47 -57 -28 -40 -65 -25 -4 -63 -52 0
13 46 28 45 59 64 24 56 19 30 51 62 -52 -65 -41 -38 -5 -47 0
4 17 23 37 43 29 11 56 52 58 48 49 39 55 31 42 57 53 36 45 40 44 28 35 -32 -21 -10 -54 -60 -63 -59 -26 -65 -15 -13 -30 -9 -2 -14 -18 0
4 40 51 22 6 18 -35 0
17 24 30 -45 -62 -44 0
30 46 51 52 8 43 28 -40 -14 -7 -3 -10 -42 0
9 16 30 39 45 49 42 29 35 57 50 19 26 11 64 6 20 8 34 23 -22 -7 -3 -18 -58 -1 -47 -33 -24 -37 -62 -53 -48 -41 -61 -17 -43 -63 -36 -52 -32 -59 -5 -40 -31 -44 -25 -46 -27 -2 0
35 6 46 29 48 15 31 11 44 8 26 57 20 17 2 32 43 36 1 61 59 42 51 -41 -64 -54 -7 -65 -18 -4 -5 -47 -12 -13 -9 -22 -56 -38 -14 -62 -40 -49 -45 -39 -27 -33 -60 -25 -53 -10 -58 -50 -28 -52 -3 -55 0
6 37 14 57 54 61 52 13 25 44 58 27 36 23 64 12 2 62 5 39 30 10 4 18 45 34 50 48 55 11 16 1 -65 -15 -22 -59 -53 -3 -20 -49 -9 -24 -19 -42 -7 -32 -41 -38 -56 -21 -60 -43 -8 -51 -29 -17 -31 -47 -46 -26 -28 -35 -40 0
58 59 12 14 13 65 47 29 7 36 46 18 54 8 42 1 5 44 2 45 28 25 62 52 16 41 50 -11 -53 -40 -33 -34 -9 -32 -57 -15 -27 -4 -20 -56 -37 -10 -38 -61 -35 -26 -3 -19 -55 -39 0
52 37 51 63 55 27 62 58 20 18 29 -44 -54 -46 -38 -49 -56 -26 -19 -25 -12 -3 -48 -50 -7 -8 -23 -31 -28 -47 -53 -42 -36 -57 -45 -9 -22 -13 -2 -33 -11 -14 -21 0
32 43 20 58 3 47 -26 -56 -45 -7 -54 -19 -60 -30 -15 -10 -63 0
60 10 25 29 35 36 53 59 17 46 44 20 45 34 30 19 23 -7 -64 -47 -15 -28 -48 -12 -32 -42 -39 -55 -16 -33 -8 -61 -18 0
23 41 26 60 18 53 40 -43 -39 -59 -50 -10 0
22 15 -3 0
41 65 14 39 27 28 2 60 36 8 34 63 11 25 29 18 55 21 51 -52 -56 -43 -31 -1 -50 -16 -30 -3 -20 -6 -48 -53 -12 -42 -61 -22 -59 -7 -4 -44 -24 -23 -9 -5 -35 -26 -45 -58 0
22 5 58 20 38 6 29 62 63 30 2 8 9 1 11 57 -16 -37 -21 -51 -44 -61 -18 -24 -27 -47 0
20 51 58 53 18 17 49 3 33 46 50 -4 -52 -19 -10 -29 -44 -11 -37 -24 0
64 7 12 52 24 36 1 55 54 5 57 23 35 20 8 30 -62 -37 -53 -41 -4 -27 -31 -21 -3 -58 -65 -2 -63 -19 -46 -45 -6 -60 0
61 47 27 17 11 33 6 60 35 37 -14 -59 -18 -64 -34 -36 -8 -41 0
7 57 32 64 39 33 51 38 16 3 36 65 58 37 41 13 31 1 17 45 19 -56 -14 -24 -42 -9 -48 -12 -23 -18 -55 -53 -52 -62 -15 -8 -49 -44 -5 -10 -35 -47 -27 -60 -20 -26 -25 -29 -59 -54 -4 -21 -22 -63 0
19 27 7 5 9 35 16 17 30 38 52 57 48 47 8 45 29 41 34 37 4 28 -33 -22 -53 -1 -43 -56 -23 -61 -2 -40 -26 -31 -13 -3 -25 -46 -59 -18 -20 -42 -62 -36 -54 -58 -55 -6 -39 -32 -51 -10 -11 0
17 16 3 64 25 -20 -56 -42 -13 0
15 24 35 36 26 13 34 42 9 43 8 65 5 39 29 28 -3 -20 -16 -54 -57 -33 -32 -38 -18 -46 -25 -19 -12 -40 -1 -62 0
15 9 61 53 27 50 47 -45 -40 -30 0
43 53 5 -58 0
60 15 58 43 30 31 25 -45 -62 -29 -28 -63 -64 -17 -65 -14 -33 -6 0
23 52 22 13 37 6 43 48 47 31 50 36 59 53 4 19 54 -41 -21 -24 -14 -5 -44 -25 -42 -8 -17 -27 -45 -3 -34 -64 -46 -30 -60 0
2 4 39 16 17 28 53 15 34 12 30 42 58 62 49 38 64 55 20 23 52 54 13 60 47 7 65 -41 -11 -29 -46 -50 -35 -43 -40 -63 -6 -24 -56 -22 -37 -27 -18 -5 -25 -21 -32 -51 -19 0
47 6 38 35 25 2 39 26 15 56 8 44 43 49 21 46 23 10 64 16 42 61 53 11 28 19 4 22 17 -13 -41 -18 -30 -24 -52 -37 -54 -7 -9 -40 -55 -34 -59 -36 -20 -63 -33 -5 -29 -27 -60 -48 -62 -3 -65 -12 -58 -1 0
49 51 60 52 24 20 34 58 3 8 -17 -48 -4 -59 0
-24 0
12 38 30 51 2 5 19 57 37 55 21 32 27 13 15 36 52 65 8 4 14 9 7 18 62 42 1 23 31 26 45 58 35 53 -50 -44 -64 -34 -39 -17 -48 -11 -60 -61 -43 -56 -46 -6 -24 -25 -63 0
7 58 41 55 48 3 56 19 38 16 32 59 30 1 11 44 -64 -37 -34 -54 -63 -29 0
40 44 9 10 55 6 14 56 20 42 48 19 54 27 37 23 39 2 28 38 15 43 64 32 49 3 8 11 25 18 57 58 30 51 21 -45 -47 -5 -65 -63 -17 -13 -24 -36 -62 -52 -34 -46 -33 -53 -26 -59 -31 -22 -60 -7 -16 -29 -50 -12 -4 0
22 31 52 60 38 20 55 39 -11 -62 -64 -4 -54 -10 -33 0
54 46 39 8 35 17 25 60 20 2 59 47 -41 -56 -3 -51 -38 -29 -14 -52 -37 0
38 29 57 3 -9 -1 -31 -58 0
24 12 14 65 36 28 52 44 42 62 -64 -22 -10 -35 -55 -34 -46 -60 -21 -5 -25 -45 0
35 24 48 61 41 34 -62 -29 -5 -38 -9 -22 -16 0
40 11 29 7 23 45 2 43 38 39 64 -31 -8 -52 -36 -37 -26 -6 -41 0
54 64 22 40 3 45 61 41 43 53 42 9 13 49 27 44 10 6 65 16 5 29 -35 -24 -28 -63 -56 -23 -26 -20 -58 -19 -8 -34 -21 -31 -11 -18 -52 0
3 4 49 54 8 50 28 11 47 31 34 29 24 55 36 57 14 17 53 5 52 -46 -41 -13 -9 -44 -7 -25 -35 -30 -39 -38 -59 -43 -16 -22 -51 -64 -58 -48 -6 -61 -42 -60 -12 -37 -20 -23 -19 -63 -62 0
5 38 40 39 6 11 17 19 49 47 37 12 33 3 46 14 1 65 -24 -16 -7 -63 -23 -10 -25 -8 -4 -51 -2 -31 -44 -20 -21 -28 -29 -50 -53 -58 -64 -48 -57 0
23 47 61 3 25 21 45 49 7 16 27 9 18 42 50 26 33 46 53 19 59 44 54 63 39 32 58 34 13 -57 -35 -14 -64 -55 -6 -41 -52 -28 -62 -17 -65 -15 -22 -2 -12 -29 -8 -37 -31 -10 -51 -24 -11 -1 0
64 20 14 53 36 57 31 7 26 4 28 27 46 35 18 63 61 5 59 40 34 3 48 -25 -2 -37 -33 -11 -12 -42 -52 -56 -17 -38 -22 -29 -50 -44 -23 -39 -43 -10 -58 0
34 17 40 29 43 60 15 23 6 50 65 18 11 54 4 9 -45 -59 -55 -26 -63 -64 -7 -53 -24 -38 -28 -13 0
32 6 39 52 14 47 56 49 54 44 61 -36 -35 -58 -38 -23 -9 -10 -65 -30 -45 -28 -41 -55 0
27 34 28 35 36 42 24 33 43 62 55 29 39 41 16 60 -20 -53 -46 -1 -30 -5 -14 -47 -19 -37 -50 -2 -9 -18 -49 -48 0
7 52 63 30 48 35 40 60 55 16 5 45 19 36 51 33 22 54 41 50 46 -26 -18 -38 -31 -23 -37 -12 -9 -17 -6 -20 -28 -57 -39 -61 -58 -65 -14 -42 -34 -4 0
58 56 26 40 17 30 28 9 44 27 -61 -45 -25 -51 -35 -12 -46 -34 -55 -62 -43 -52 -38 0
33 36 7 34 39 26 20 41 10 -5 -18 -23 -31 -6 -13 -62 -59 -45 0
62 34 7 31 8 3 48 49 35 60 52 37 53 2 46 56 17 20 57 55 5 9 64 45 24 18 32 26 54 63 19 38 13 -28 -43 -6 -1 -12 -36 -27 -21 -30 -50 -65 -40 -41 -39 -58 -10 -61 -44 -23 -11 -14 -25 0
58 38 9 -11 -56 -23 -18 -19 0
59 39 19 12 18 21 35 41 28 50 8 52 13 29 42 15 11 25 36 27 -16 -64 -4 -54 -62 -61 -63 -33 -23 -31 -1 -53 -48 -10 -2 -32 -30 -43 -9 0
42 48 22 39 41 6 33 47 52 61 5 37 4 64 65 34 26 56 59 55 58 57 7 25 51 27 20 36 54 3 10 31 21 -18 -50 -40 -15 -53 -13 -43 -11 -24 -38 -45 -2 -19 -35 -46 -30 -28 -17 -8 -32 -12 -9 -1 -49 0
43 36 59 47 24 17 13 4 12 58 7 -23 -30 -10 -60 -21 -49 -53 -38 -64 -45 -32 -65 -28 0
28 48 33 7 34 41 21 54 53 57 11 13 32 36 31 14 58 1 18 44 2 56 35 15 8 20 12 63 23 3 59 29 27 65 43 4 19 -51 -38 -40 -61 -25 -9 -50 -37 -47 -10 -42 -24 -5 -49 -55 -30 -46 -16 -62 -52 -45 -22 0
63 25 19 3 51 13 48 4 56 18 31 16 49 12 9 34 15 21 7 61 30 64 39 32 35 54 53 10 46 28 22 43 6 26 -20 -50 -2 -8 -65 -40 -57 -41 -23 -38 -14 -24 -5 -37 -52 -60 -1 -44 -55 -29 -27 -45 -62 -11 -17 -36 -59 -47 -42 0
24 55 21 22 38 61 30 33 7 8 41 28 12 10 43 3 20 37 14 9 53 47 52 51 4 40 -6 -65 -64 -26 -34 -62 -50 -13 -29 -16 -32 -31 -35 -44 -36 -11 -45 -48 -56 -17 -1 -5 -46 -63 -57 -27 -60 -49 -23 -19 -42 -54 -58 -39 -2 -15 0
7 22 39 16 13 2 12 4 49 30 64 31 61 11 27 41 -15 -55 -40 -37 -46 -59 -23 -44 -47 -38 -21 -8 -50 -51 -65 -14 0
8 17 57 22 62 41 5 48 1 15 47 46 39 31 50 49 -65 -32 -12 -24 -37 -30 -21 -58 -4 -51 -59 -60 -13 -9 -29 -16 -52 -19 -64 -33 -27 -45 -6 -34 -55 -35 -63 -23 -36 -44 -38 -3 0
-43 0
44 30 7 12 18 26 19 9 5 10 37 1 8 61 31 40 48 32 23 50 13 4 2 22 59 36 -16 -34 -56 -29 -6 -33 -20 -51 -63 -15 -11 -54 -24 -58 -62 -28 -53 -47 -65 -64 -3 -39 -57 -21 -17 -60 -14 -25 -35 -41 -38 -42 -55 -52 -27 0
29 10 62 58 31 23 42 52 44 -13 -54 -25 -7 -65 -27 -30 -40 0
35 60 11 42 7 26 32 50 30 57 -45 -36 -13 -52 -31 -20 -62 -37 -54 -10 0
63 58 20 53 40 50 25 49 28 13 39 22 27 47 23 46 32 11 45 4 -37 -3 -9 -16 -36 -54 -51 -65 -43 -55 -64 -17 -34 -56 -61 -41 0
27 22 44 6 54 28 11 16 41 33 20 2 56 7 57 1 5 26 -17 -4 -34 -52 -50 -36 -49 -24 -60 -46 -38 -39 -37 -47 -64 -18 -29 -21 -35 -3 -61 -45 -58 -63 -25 0
7 33 24 10 15 63 47 59 21 27 8 56 1 9 64 34 61 31 41 51 4 39 44 48 6 12 -30 -29 -32 -65 -57 -13 -2 -45 -19 -46 -60 -38 -37 -23 -28 -42 -20 -3 -52 -62 -53 0
47 32 36 50 43 7 27 9 15 64 23 62 39 30 33 48 20 35 3 17 40 18 58 54 14 -42 -60 -38 -49 -52 -16 -63 -6 -45 -37 -65 -11 -1 -13 -2 -21 -10 -31 -57 -24 -19 -22 -55 -41 -8 -12 0
21 8 58 32 44 30 10 3 52 37 45 23 25 36 18 22 64 34 33 6 -55 -17 -46 -47 -56 -29 -53 -42 -49 -51 -16 -50 -48 -65 -40 -13 -35 -24 -19 -57 -20 -43 -63 -5 -60 -15 -27 -4 -39 0
50 21 37 14 2 11 36 18 19 -47 -23 -22 -7 -42 -45 -35 -43 -60 -58 -53 -41 0
26 18 14 53 25 -10 -44 -48 0
27 14 42 1 51 59 49 53 21 58 30 13 9 40 64 3 19 52 23 43 41 25 15 31 37 33 50 34 7 4 -16 -26 -65 -12 -29 -5 -46 -24 -60 -18 -61 -8 -38 -57 -48 -44 -47 -62 -10 -35 -56 -22 0
13 11 32 4 61 29 37 28 44 25 5 18 58 35 7 -64 -38 -9 -6 -26 -34 -41 -21 -3 -62 -15 -57 -30 -42 -33 -8 -56 -12 -48 0
4 36 1 62 60 -45 -56 -23 0
24 54 59 61 25 21 45 3 44 63 16 27 1 11 -49 -51 -60 -43 -9 -7 -31 -29 -2 -6 -50 -38 -53 -42 -56 -57 -14 -28 -19 -47 -55 -15 0
17 32 33 20 1 26 43 11 7 42 16 21 -31 -50 -9 -4 -47 -65 -39 -28 -38 -23 -10 -52 -25 -37 -61 -6 -13 -30 0
35 3 43 64 -49 -58 -47 -36 -16 -62 0
48 62 54 14 21 10 6 8 5 11 12 16 65 36 9 34 29 25 43 -13 -47 -51 -41 -49 -17 -50 -61 -26 -31 -1 -27 -46 -22 -40 -32 -28 0
41 45 42 3 47 61 33 50 5 25 27 54 59 2 8 22 13 57 29 21 16 65 60 48 6 46 56 53 1 10 39 49 26 32 19 20 58 30 -44 -31 -4 -15 -17 -40 -38 -51 -24 -64 -35 -36 -11 -28 0
10 37 49 36 29 50 52 25 27 65 6 46 60 22 14 48 39 3 16 40 23 18 41 11 4 -47 -35 -53 -34 -43 -54 -58 -24 -63 -5 -56 -8 -9 -42 -30 -17 -20 -38 -26 -33 -64 0
36 21 37 22 56 33 65 26 54 52 61 64 4 14 16 19 8 -43 -31 -47 -40 -28 -49 -11 -6 -32 -12 -15 -51 -62 -18 -29 -58 -57 -45 0
7 48 3 57 42 25 34 22 6 30 12 33 37 47 15 8 41 60 23 46 44 13 45 64 -27 -31 -16 -14 -4 -5 -49 -10 -55 -63 -43 -28 -56 -39 -62 -32 -35 -58 -24 -59 -29 -50 -40 0
10 3 7 40 11 31 48 18 41 60 6 -15 -52 -53 -24 -51 -21 -50 -57 -64 -9 -54 -25 -39 -59 -61 0
14 26 33 36 23 59 38 51 2 48 10 53 46 41 30 19 9 29 18 54 42 45 15 47 40 -4 -27 -58 -16 -56 -62 -17 -1 -31 -12 -61 -57 -37 -11 -3 -13 -32 -35 -50 -63 -28 -6 -43 -49 -25 0
24 50 60 54 46 61 48 2 49 57 33 58 62 7 27 36 55 44 30 52 51 40 9 16 43 47 18 12 1 31 3 65 -22 -19 -59 -21 -25 -34 -42 -11 -38 -13 -63 -5 -8 -14 -29 -32 -17 -56 -15 -64 -10 -4 -28 -6 -20 -53 0
58 56 52 12 15 2 64 7 45 3 16 43 31 40 6 33 57 36 10 9 35 -1 -5 -53 -8 -11 -65 -21 -48 -61 -62 -27 -4 -60 -39 -54 -29 -41 -47 -50 -19 -49 -55 -37 -59 -20 -24 -18 -42 -63 -51 -17 -28 0
14 38 15 24 21 37 6 12 36 60 18 -2 -19 -52 -1 -41 -4 -7 -42 -59 -51 -56 0
24 34 17 65 7 18 48 52 64 39 23 20 58 54 36 32 6 29 12 31 40 3 47 2 28 50 9 42 -14 -45 -60 -16 -59 -4 -56 -1 -10 -55 -53 -62 -19 -61 -57 -11 -43 0
51 18 35 53 4 13 30 1 34 21 55 19 28 16 41 46 56 59 57 7 -12 -2 -32 -47 -11 -14 -8 -62 -26 -63 -24 -64 -15 -40 -52 -23 -25 -36 -39 -33 -65 -3 -44 -10 0
8 50 39 57 7 41 64 48 34 40 4 26 56 1 24 18 5 2 38 31 11 35 15 19 13 45 14 61 62 32 65 29 10 27 -3 -17 -16 -54 -55 -37 -58 -23 -60 -49 -28 -12 -53 -43 -42 -30 -22 -25 -59 -52 -47 -63 -33 -44 -20 -9 -36 -21 -46 0
50 12 33 15 40 11 19 21 10 13 46 55 8 42 2 65 37 5 44 58 16 56 61 53 32 26 25 14 43 -30 -24 -62 -51 -9 -7 -63 -31 -52 -38 -64 -4 -22 -35 -39 -49 -18 -28 -48 -20 -36 -6 -29 -57 -45 -1 -47 -17 -3 0
25 15 26 43 52 24 59 42 62 34 61 31 11 45 41 4 18 40 60 30 35 33 57 19 48 27 46 -1 -54 -2 -7 -3 -20 -13 -63 -21 -39 -16 -47 -32 -38 -64 -37 -22 -36 -8 -28 -56 -50 -58 0
19 13 37 62 59 22 4 2 1 34 44 12 38 41 20 15 49 -65 -8 -23 -64 -28 -56 -57 -32 -43 -47 -3 -14 -6 -63 -45 -9 -55 -31 -40 -52 -18 -54 -5 -51 -30 0
29 19 25 15 40 3 -50 -10 -32 -42 -27 0
40 41 36 29 52 44 5 31 14 34 28 35 16 56 49 10 25 38 26 22 65 23 1 57 50 13 39 6 54 60 7 8 55 18 33 63 -58 -48 -64 -61 -9 -53 -59 -15 -21 -42 -19 -37 -51 -62 -4 -20 -47 -17 -11 -46 -27 -2 -3 -24 -12 0
46 65 34 17 59 11 43 5 13 36 50 20 23 26 14 49 2 62 33 16 58 32 22 39 51 57 37 56 52 30 24 1 55 28 53 29 35 -40 -44 -10 -21 -7 -42 -64 -3 -12 -4 -15 -25 -45 -54 -38 -47 -31 -60 -19 -9 -48 -27 0
44 8 1 36 54 14 16 26 30 9 49 65 48 59 24 40 19 31 39 32 23 62 42 -27 -25 -20 -45 -11 -51 -38 -28 -18 -60 -50 -21 -7 -29 -10 -46 -58 -5 -64 -57 0
8 24 50 28 60 4 14 58 63 11 32 47 27 34 19 5 33 -55 -16 -20 -7 -65 -10 -52 -29 -43 -2 -53 -31 -40 -17 -39 -13 -44 -15 -62 -46 0
2 17 7 56 18 12 44 30 13 20 6 42 37 5 49 21 48 55 39 29 8 38 62 16 34 26 45 28 -40 -63 -65 -23 -10 -35 -1 -19 -14 -41 -11 -50 -51 -60 -15 -64 -53 -32 -24 -43 -52 -22 -58 -54 -36 -25 -4 -57 -59 -46 -27 -61 -9 -31 -47 -3 0
11 15 0
24 25 7 39 1 44 18 22 28 17 11 42 40 27 60 38 4 55 12 34 61 10 29 20 19 56 21 52 -3 -8 -5 -26 -32 -49 -53 -50 -57 -48 -2 -41 -30 -51 -33 -14 -36 -23 -46 -54 -35 -64 -9 -59 -45 -47 -37 0
51 45 32 15 40 62 46 37 6 48 26 50 35 53 24 22 33 43 14 49 3 1 29 38 13 9 55 36 16 12 28 64 2 41 58 -19 -61 -52 -27 -8 -65 -25 -10 -59 -18 -39 -17 -47 -5 -21 -54 -23 -60 -4 -34 -7 -30 -63 -57 -56 -31 -20 -44 0
18 26 51 8 3 25 24 9 6 43 52 42 58 1 35 10 44 16 61 20 29 2 41 31 7 49 34 27 59 57 64 63 12 -62 -36 -37 -5 -65 -14 -46 -53 -22 -33 -11 -56 -28 -38 -21 -17 -50 -54 -60 -32 -13 -15 0
30 23 20 14 4 56 11 12 28 51 38 21 41 1 52 59 47 65 48 3 37 39 -49 -15 -62 -32 -61 -6 -58 -22 -35 -53 -5 0
24 59 65 6 49 26 53 35 8 23 10 14 4 37 38 -45 -64 -27 -47 -56 -21 -39 -22 -9 -12 -7 -29 -62 -19 -48 -34 0
61 27 5 26 25 34 59 21 49 22 50 39 10 63 -14 -15 -48 -40 -4 -31 -47 -44 -33 -29 -38 -62 0
24 49 41 3 4 1 6 -43 -22 -50 -37 -14 -55 -59 -62 -16 -33 -47 0
7 58 11 22 45 18 41 56 44 10 55 59 50 42 49 65 1 16 36 43 33 3 9 8 47 -28 -29 -24 -61 -20 -60 -35 -5 -51 -15 -12 -32 -21 -2 -40 -6 -38 0
9 61 34 48 44 62 23 -16 -56 -35 -47 -40 -36 -39 -49 0
53 7 61 51 -52 -48 -20 -16 -17 -39 -58 0
52 61 26 0
41 50 30 13 8 31 34 53 20 16 43 47 59 35 40 56 64 46 55 60 36 12 25 23 -61 -10 -6 -57 -29 -24 -21 -38 -15 -19 -1 -39 -33 -32 -54 -26 -28 -17 -42 0
62 12 38 21 8 29 2 20 58 56 23 4 43 14 64 32 6 26 15 63 28 16 41 44 65 47 22 61 -10 -49 -52 -19 -34 -45 -13 -60 -51 -40 -24 -50 -5 -11 -37 -59 -54 -30 -18 -33 0
9 43 46 38 63 4 1 32 25 19 34 3 20 14 22 57 49 40 27 61 41 36 -45 -6 -13 -44 -56 -51 -11 -42 -37 -62 -47 -15 -10 -31 -50 -55 -33 -18 -26 -48 -39 -53 -28 -58 -59 -8 -29 -54 -2 -60 -52 -35 -5 -30 0
33 58 36 4 31 15 52 38 -53 -9 -26 -14 -48 -25 -44 -30 -17 0
57 25 52 35 53 -8 -10 -22 -64 -41 0
32 59 19 22 2 46 18 62 54 1 25 57 39 60 51 41 -43 -44 -24 -56 -52 -16 -64 -28 -58 -65 -35 -12 -37 0
5 22 63 37 36 6 24 8 4 -53 -40 -3 -34 -28 -52 -59 -57 -13 -7 -29 -38 -60 -61 -49 -64 -25 0
53 51 33 12 4 -47 -30 -23 -44 -58 -10 0
53 27 63 9 34 41 61 40 21 57 38 58 12 19 11 64 15 44 33 22 13 37 35 51 -36 -47 -43 -29 -20 -7 -8 -10 -24 -6 -23 -46 -1 -2 -56 -65 -28 -39 -55 -14 -42 0
15 28 18 31 44 7 1 5 64 49 60 33 10 29 37 51 42 30 27 63 6 59 23 62 4 32 -3 -53 -55 -38 -58 -47 -9 -65 -61 -54 -14 -40 -11 -19 -20 0
20 49 21 4 15 60 3 -37 -22 -7 -45 -38 -26 0
63 6 37 25 1 56 60 47 4 51 55 16 27 59 46 38 64 49 13 62 50 19 26 30 57 10 17 8 18 14 53 31 28 32 7 65 29 -45 -9 -3 -11 -22 -36 -41 -20 -34 -44 -5 -33 -61 -42 -40 -35 -12 -48 -43 -52 -23 -24 -58 -54 -15 0
54 53 64 26 11 16 37 22 12 35 -28 -27 -1 -5 -29 0
48 11 24 1 41 47 62 25 45 12 44 53 27 38 56 7 9 14 49 65 26 34 10 -60 -36 -4 -37 -59 -28 -5 -29 -30 -16 -54 -35 -46 -42 -43 -58 -3 -8 -17 -19 -15 -22 -33 -23 -51 -2 -21 -55 0
33 -37 -18 -50 -45 -28 0
27 0
35 64 22 38 63 45 49 44 7 23 3 47 12 -43 -65 -21 -41 -50 -26 -53 -54 -11 0
34 8 20 55 1 56 37 58 50 3 57 47 60 63 41 39 16 10 33 32 -59 -52 -29 -19 -62 -40 -38 -25 -12 -18 -36 -28 -13 -61 -9 -7 -26 -49 -42 -43 -24 -35 -23 -2 -53 -17 -30 -5 -31 0
7 37 43 23 65 16 58 24 5 40 33 18 61 64 30 32 50 6 4 34 10 -38 -53 -59 -14 -55 -8 -2 -48 -1 -62 -31 -44 -17 -56 -49 -29 -19 0
40 56 32 58 62 60 15 8 3 9 39 46 22 -53 -21 -33 -4 -14 -1 -13 -25 -57 -38 -18 -61 -37 -19 -54 -48 0
