c NeuroCodeBench 2.0 CNF formula with verdict Sat
p cnf 29 213
15 16 1 17 21 27 18 24 7 9 23 26 11 22 8 -10 -29 -20 -4 -28 -6 -25 -3 0
21 14 20 -12 -2 -29 -18 0
9 23 13 -18 -27 0
12 26 -5 -28 -29 -8 0
18 15 8 10 3 19 17 -2 -11 -22 -1 0
8 20 3 5 24 4 15 -13 -12 -27 -29 -14 -21 -17 -10 -7 0
26 7 24 21 9 5 17 6 1 20 3 27 -4 -28 -2 -8 -12 -23 -11 -19 -22 -15 -16 -29 0
14 9 19 1 15 28 7 11 -25 -5 -21 -16 -29 0
23 3 6 -26 -29 -13 0
27 -19 -25 0
10 27 12 20 24 22 4 -14 -18 -23 -21 -15 -7 -3 -17 -19 -16 -8 -1 -6 -28 -29 -13 -25 -5 -26 0
20 0
29 10 6 2 7 -17 -1 -21 -18 -25 -24 -16 0
4 25 3 16 26 1 23 14 5 7 6 8 17 11 -10 -9 -13 -12 -27 -19 -21 -28 -20 -24 0
25 19 17 -29 -11 -7 0
22 25 1 23 6 29 -17 -15 -28 -8 -18 -27 -19 -21 -24 -2 -26 0
29 10 -4 -14 0
5 10 23 2 24 29 6 20 14 4 -8 -21 -12 -28 -22 -26 -3 -25 -9 -27 0
9 7 10 24 23 20 6 19 13 4 12 3 1 21 17 16 -15 -8 -11 -29 -27 -22 -14 -2 -26 -28 -18 -25 0
5 12 28 3 -8 -15 -20 -26 -22 -2 -16 0
6 28 17 11 29 27 16 1 24 9 8 15 21 -3 -13 -2 -7 -19 -20 -23 -22 -12 -26 0
11 29 3 -4 -10 -26 -6 -1 -27 -5 0
8 27 1 28 5 22 17 24 14 25 10 2 9 -3 -18 -29 -4 -26 -15 -20 -13 -7 -19 -21 -16 -11 -12 0
19 27 7 12 3 -25 -1 -5 0
25 8 15 27 20 10 9 -13 -14 -7 -26 -19 -17 0
14 28 27 -17 0
9 24 5 12 13 11 15 27 6 25 3 14 -20 -1 -22 -4 0
19 26 2 1 4 22 9 20 21 5 25 -7 -8 -23 -12 -3 -15 -27 -6 -11 -14 -17 0
8 5 11 18 10 25 6 17 9 29 12 24 1 22 14 7 -23 -4 -20 -2 -27 -26 -13 -15 -21 -28 0
-4 -19 -22 0
28 23 15 26 29 5 2 9 11 19 24 4 27 22 18 -12 -10 -17 -14 -7 -6 -13 -20 -1 -3 -25 0
27 12 1 6 19 2 5 4 15 29 23 -3 -18 -25 -26 0
8 6 25 23 5 2 12 19 11 21 9 15 16 26 28 -4 -29 -17 -18 -1 -22 -20 -24 -3 -7 0
21 1 10 -25 -2 -15 -28 -7 -27 -16 -11 0
23 24 2 27 18 14 11 28 -5 -4 -25 -9 -15 -13 -8 -26 0
22 29 26 10 19 12 6 25 13 24 28 3 7 -2 -16 -18 -17 -20 -14 -11 -1 -5 -27 0
9 21 19 22 1 8 7 16 13 20 -15 -17 -29 -27 -18 -5 -4 -28 -26 -3 -25 0
21 17 20 12 7 4 19 11 1 13 -9 -22 -25 -10 -5 -24 0
16 7 9 4 27 2 6 11 28 -15 -23 -29 -1 -18 -26 -22 -10 -19 -20 -21 0
7 19 16 18 22 28 12 -24 -27 -4 -11 -17 -14 -21 -29 -15 0
24 15 2 28 25 10 29 1 11 -4 -8 -13 -20 -14 -16 -19 -7 -23 -6 -27 -5 0
12 6 18 9 7 10 13 24 -2 -28 -3 -21 -19 -25 -27 -26 0
25 13 8 20 2 3 -27 -6 -16 -29 -10 0
22 -16 -12 -11 -14 0
23 27 1 22 6 20 15 -26 -13 -7 -18 -5 -17 -29 -14 -12 -28 -10 -2 0
25 7 23 19 29 8 2 26 20 -14 -18 -1 -3 -28 -11 -13 0
23 7 3 20 15 12 27 13 29 5 19 26 -6 -21 -28 -4 -18 -17 -10 -11 -24 -25 -2 -8 -1 -14 -22 -16 0
13 18 10 29 -25 -11 0
16 25 -12 -28 -6 -10 0
22 -6 -10 0
26 15 24 18 8 27 3 17 19 16 21 13 28 -14 -20 -25 -10 -2 -22 -23 -29 0
5 6 9 7 1 17 25 24 -23 -15 -11 -3 -21 -16 -10 -20 -26 0
10 19 22 26 11 21 2 14 24 9 16 13 23 17 7 4 29 8 -12 -18 -1 -15 -25 -27 -20 -3 -6 -5 0
20 17 24 -9 -22 0
22 14 6 23 -28 0
25 12 13 8 15 10 1 18 21 19 17 4 2 24 29 -22 -7 -3 -27 -26 -14 -9 -28 -5 0
4 18 19 13 1 20 12 24 27 -16 -15 -28 -8 -10 -25 -22 -9 -3 0
28 17 8 26 7 23 20 29 21 -2 -27 -3 -22 -10 -16 -15 -4 0
4 7 23 18 22 29 2 28 -20 -3 -24 -6 -27 -17 -9 -1 -13 -5 0
16 27 17 2 5 14 24 19 23 29 3 7 21 -8 -4 -13 -9 -15 -11 -12 -26 -18 -28 -25 0
13 22 21 4 17 18 28 7 2 10 -8 -27 -11 -12 -14 -19 -1 -24 -9 -26 -3 -16 -23 -25 -29 0
21 23 15 -6 0
17 29 19 14 21 28 3 11 2 -13 -1 -15 -7 -12 -9 -18 -22 -23 -26 -27 -10 -6 -4 -16 -8 -25 -5 0
24 15 -23 -14 -20 -22 -18 0
19 4 29 25 20 23 15 -1 -17 -9 -5 0
12 14 23 -9 -8 -2 -20 -18 -26 -15 -4 0
9 28 20 19 10 -12 -11 -21 -7 -2 -5 0
9 17 21 -4 -27 -15 -28 -25 -24 -19 -11 0
12 22 21 14 11 -29 -15 -24 -1 -13 -17 -9 -19 -27 0
21 24 -4 0
26 20 22 27 14 17 24 2 5 29 21 13 10 -9 -6 -18 -1 -12 -23 -25 -15 -19 -16 -8 -3 -7 0
4 29 10 26 1 3 19 18 15 22 13 24 -14 -25 -23 -21 -28 -27 -20 -7 -9 -16 -11 0
17 4 22 28 19 7 11 10 26 16 23 13 29 -6 -9 -1 -12 -20 -27 -2 -18 -8 -24 -14 -15 -25 -3 -21 0
5 15 6 22 18 11 25 20 19 -7 -4 -21 -27 -13 -3 -12 -9 0
5 8 2 19 29 -25 -6 -17 -27 -14 -23 -1 -12 0
16 17 -25 -2 -10 0
8 9 10 17 26 7 4 -15 -20 -25 -24 0
25 21 11 27 -26 -18 -13 -12 -20 -10 -9 -23 0
28 9 25 8 2 20 24 17 5 23 -3 -4 -11 -7 -10 -21 -27 -13 -19 -14 -18 0
6 7 5 8 29 28 12 23 19 4 17 -18 -21 -11 -15 -2 -22 -10 -27 0
14 7 17 26 18 19 8 27 11 20 29 1 25 13 16 23 12 3 9 -5 -6 -2 -4 -15 -10 -24 0
21 19 4 -9 -6 -23 -27 -7 0
3 19 11 10 7 1 2 16 8 20 23 -27 -9 -12 -18 -29 -6 -5 -22 -26 -14 -17 -4 -24 -13 0
14 16 26 24 1 17 -3 -18 -20 -25 -23 -15 -9 -7 -22 0
25 27 1 3 -7 -18 -28 -20 0
13 5 29 18 19 -1 -24 0
3 22 4 12 -26 -6 0
15 28 25 4 19 22 13 27 5 26 29 9 2 16 -6 -10 -24 -21 -18 0
5 9 17 26 -27 -12 -20 -23 -8 -10 -11 -1 0
2 3 9 12 7 10 21 27 6 -16 -19 -15 -29 -18 -25 -14 -23 -4 0
27 4 10 21 15 -22 -6 -20 -23 -12 -14 -29 0
22 18 17 28 1 9 -19 -4 -11 -21 -23 -12 -7 -8 0
22 16 18 5 28 6 -26 -4 -2 -15 -19 -8 -14 -7 -12 -25 0
21 12 4 8 7 9 27 28 -15 -16 -22 -20 -25 -10 -29 -2 -18 -3 -1 -24 0
11 1 3 10 27 7 22 12 15 25 20 -26 -4 -28 -13 -23 -24 -18 -2 -14 0
5 9 20 3 27 22 -10 -7 -15 -14 -1 -21 -25 -26 -13 0
22 23 10 21 -12 -8 0
24 21 12 1 18 6 26 -15 -28 -11 -7 -8 -3 -25 -29 -10 -20 -16 -17 -4 -14 0
14 12 24 1 2 -29 -6 -25 -21 -20 -16 0
4 1 14 13 25 28 20 11 26 24 5 -18 -22 -15 -27 -10 -29 -2 -23 -3 -19 -21 -16 0
22 28 9 19 3 16 18 6 2 27 10 8 -14 -17 -11 -26 -15 -25 -1 -21 -23 -5 0
16 5 18 23 3 6 21 10 13 20 14 7 -17 -27 -28 -2 -19 -9 -8 -4 0
8 25 -20 0
6 28 21 22 18 8 19 17 2 24 1 15 -9 -13 -25 -3 -12 -26 -14 -7 -16 -29 -4 0
20 2 19 14 22 6 28 18 11 27 25 13 24 5 -9 -17 -29 -21 -8 -1 -26 -15 -4 0
4 13 15 17 23 -25 -10 -11 -9 0
12 4 9 7 13 20 21 17 15 23 5 2 14 -25 -1 -18 -29 -19 -10 -27 -26 -11 -8 -22 -3 0
9 1 19 25 29 5 24 26 13 6 16 -21 -18 -28 -20 -17 -7 -4 -14 -3 -23 -27 0
27 17 7 19 21 23 6 4 1 3 18 -25 -9 -2 -13 -8 -14 -28 -5 -12 -20 -10 0
11 27 29 2 1 19 6 10 3 -18 -14 -21 -20 -25 -12 -23 -7 0
29 4 -22 -8 -2 0
5 18 6 3 28 26 13 23 11 4 7 20 9 21 -29 -25 -10 -16 -24 -19 -2 -27 -17 -15 -14 -22 0
26 29 4 2 25 5 12 1 27 17 7 19 -28 -20 -8 -21 -11 -16 -10 -14 -18 -24 0
19 20 12 2 23 7 10 9 6 -1 -14 -8 -21 -18 -27 -16 -11 -13 -22 0
23 26 24 10 11 22 13 7 25 20 28 18 3 15 1 -4 -12 -16 -5 -19 -17 -27 -29 -14 -6 -8 -21 0
28 23 22 24 16 11 2 21 14 25 19 13 6 -9 -10 -27 -12 -17 -3 -1 -18 -29 -5 -8 -20 -7 -4 0
22 24 3 5 12 20 8 -13 -15 -28 -29 -23 -4 0
29 27 6 13 -16 -26 0
20 5 12 26 7 2 29 17 24 25 23 4 11 -10 -19 -27 -9 -13 -3 -28 -14 -18 -21 -15 -16 -22 -8 -6 0
14 10 1 25 11 21 12 29 -20 -8 -9 0
14 10 28 22 5 15 8 11 7 2 17 -18 -27 -3 -20 -25 -6 -19 0
27 3 7 8 18 6 17 9 -13 -20 -12 -22 -5 -16 -15 -26 -24 0
23 0
17 4 24 7 11 20 28 6 19 23 5 13 -14 -10 -8 -2 -26 -16 -25 -27 -15 -1 -18 -9 -3 -12 -22 0
19 7 25 24 27 17 11 -26 0
7 18 8 22 4 24 -11 -13 -9 -17 -26 -6 -3 -15 -23 0
7 2 3 9 4 14 17 18 27 28 19 26 -10 -21 -13 -25 -12 -1 -20 -8 -15 -6 -24 -29 -23 -5 0
26 12 28 7 10 23 22 -8 -13 -16 -4 -11 -20 -9 -2 -27 -24 -1 -14 -29 0
3 21 2 4 29 26 13 15 -14 -6 -27 -5 -18 -19 -8 -22 0
13 19 8 20 6 21 15 -29 -23 -26 -2 -10 -3 -1 -28 -22 -7 -27 0
15 27 -3 -20 -28 -29 0
29 2 8 6 27 9 15 10 24 25 13 -5 -23 -19 -14 -18 -16 -4 -3 -21 -22 -1 0
21 19 22 -4 -1 -15 0
1 3 22 19 20 6 9 18 16 17 13 12 2 25 27 26 -23 -11 -5 -24 -8 -4 -29 -10 -14 -7 -21 -15 0
6 -16 -20 -13 0
15 14 1 5 23 29 7 10 22 21 18 16 13 27 26 19 -24 -4 -12 -6 -17 -9 -25 0
7 10 13 20 5 -26 -24 -15 -1 0
25 3 22 10 23 18 12 -15 -9 -5 -27 -1 -7 -14 0
13 27 21 11 9 12 5 17 10 3 2 15 -18 -23 -29 -7 -8 -4 -25 -22 -6 -14 -28 -19 -20 -26 -24 0
9 21 19 -14 -13 -7 0
2 11 20 19 12 18 13 29 16 5 10 3 15 -23 -1 -22 -27 -28 -8 -25 -6 -14 0
21 10 22 11 6 18 2 14 19 27 1 7 12 -20 -5 -3 -25 -13 -9 -29 -26 -28 -17 -23 -15 -16 -4 0
11 2 8 18 19 9 24 26 4 15 3 22 14 28 21 29 7 -27 -10 -1 -25 -12 -16 -5 0
23 12 6 4 21 9 3 20 -5 -8 -2 -13 -14 -27 -22 0
28 10 13 15 12 -29 -21 -27 -14 -16 0
19 21 7 27 2 29 9 3 10 6 -28 -13 -24 -18 -14 -17 -1 -15 -11 -8 -4 -25 -20 0
21 6 1 11 24 15 18 3 29 -16 -26 -10 -4 -7 -13 -14 -25 0
28 -19 -15 -17 -4 0
7 20 26 24 17 21 5 6 13 14 12 19 18 2 -28 -27 -16 -10 -1 -11 -8 -23 -4 -9 -22 -15 0
22 29 11 15 20 8 -25 -18 -10 -16 -3 0
4 22 2 -14 -9 -3 -10 0
29 14 9 22 6 -15 -1 -26 -28 -25 -4 -24 -7 0
23 16 1 8 28 3 12 24 18 17 10 21 13 15 -6 -9 -26 -7 0
23 4 26 3 9 12 21 25 1 20 8 29 7 6 13 -10 -27 -5 -19 -15 -17 -14 -18 -2 -11 -28 -24 -16 0
9 0
20 23 15 29 16 24 1 28 21 3 13 22 8 19 -18 -25 -17 -4 -9 -12 -10 0
14 21 2 5 22 -11 -27 -6 -23 -10 -24 0
1 7 11 3 -27 -10 -26 0
16 4 14 2 18 3 8 9 26 23 7 17 -10 -21 -15 -24 -25 -11 -22 -29 -27 -12 -20 0
16 -17 -3 -9 -6 0
25 23 14 12 13 7 11 21 19 28 4 8 24 5 3 26 29 -20 -2 -15 -1 -27 -17 -18 -10 -6 -9 0
9 6 1 18 17 28 11 26 8 -4 -2 -15 -21 -3 -16 -25 -19 -7 0
16 11 7 3 15 29 9 17 26 23 25 14 10 13 19 -4 -20 -12 -5 -24 -21 -2 -28 0
2 19 26 9 8 -1 -15 -7 -16 -10 -27 -6 0
18 5 27 26 15 13 10 2 24 -21 -6 -20 -19 -1 -12 -29 -14 -22 -23 0
24 6 15 -26 -16 -12 0
15 8 11 12 19 13 24 17 23 -21 -16 -2 -28 -9 -1 -27 -4 -14 -6 -29 0
28 23 16 15 22 25 11 2 24 3 6 27 9 8 29 -17 -12 -20 -18 -19 -14 -5 -10 -13 -4 -7 -1 0
25 19 16 -1 -26 -10 0
23 12 28 16 -1 0
26 7 15 28 14 4 9 16 12 6 -10 -19 -5 -2 -11 -18 -3 -17 -25 -21 -22 -13 -23 -8 -29 0
28 11 27 1 26 7 -23 -22 -21 -5 -19 -16 0
19 5 3 12 22 10 24 -17 -2 -23 -15 -14 -26 -20 -11 -27 0
13 7 14 16 3 29 10 23 9 4 11 20 19 -25 -6 -21 -12 -24 -1 -26 -2 -5 0
18 1 12 6 9 14 21 22 13 20 8 19 17 -4 -25 -29 -2 -27 -23 -3 -11 -5 -24 -28 -7 -16 0
17 25 18 22 24 2 27 0
26 21 1 3 5 17 13 15 28 12 -22 -25 -20 -7 -9 -24 -19 -27 -11 -23 -14 -18 -2 -16 -10 -6 -4 -29 0
7 15 6 28 11 16 2 12 14 13 3 22 -21 -17 -5 -26 -19 -23 -24 -9 -25 -8 -18 -1 -4 -27 0
24 29 -25 -23 -14 -7 -17 -6 -20 -26 -28 0
10 8 19 20 21 7 5 17 1 4 -15 -23 -24 -12 -27 -29 -6 -3 -13 -11 -2 -25 0
10 11 3 28 12 7 17 21 23 5 13 -9 -29 -8 -24 -26 -16 0
16 7 2 14 9 25 6 22 27 5 4 23 1 12 -24 -26 -20 -17 -8 -11 -21 -15 0
4 5 22 25 24 -14 -9 -21 0
4 12 16 17 -6 -14 -24 -7 -22 0
13 26 12 20 3 10 22 9 4 21 19 24 -18 -1 -27 -28 -29 -23 -11 -17 -16 -14 -15 -2 -25 -5 -6 -7 0
7 20 25 1 -27 -22 -3 -18 -9 0
2 20 22 11 25 9 18 10 19 12 24 1 -23 -5 -15 -16 -29 -8 -4 -21 -17 -3 -13 -7 -14 -28 -26 -27 0
1 9 -3 -20 0
21 29 9 4 27 14 16 7 12 1 -25 -18 -8 -11 -2 -5 -3 -20 -19 0
15 19 9 2 8 29 1 12 18 3 23 7 -28 -26 -13 -5 -22 -27 -17 0
17 3 14 16 5 10 6 26 9 29 21 1 -27 -19 -15 -7 -12 -25 -2 -4 0
24 9 5 14 11 7 22 -27 -26 -15 0
8 18 15 3 6 -1 -16 -7 -24 -11 -28 -26 -10 -19 -29 -22 -21 -14 0
21 8 -4 0
8 27 11 9 23 6 25 15 12 26 2 18 22 7 1 -20 -3 -13 -14 -24 -5 -16 0
22 9 12 2 19 10 18 27 15 6 -24 -29 -21 -14 -4 -13 -25 -20 -11 -23 -3 -8 -7 0
3 9 6 18 7 8 24 5 1 23 -17 -4 -22 -29 -20 0
4 6 20 11 10 17 3 23 -29 -12 -5 -1 -24 -25 -27 -22 -16 -15 -26 -2 -13 0
21 26 27 25 7 5 -4 -1 -28 -6 -13 -3 -20 0
14 18 13 26 28 3 29 4 -21 -24 -1 -22 -20 -25 -11 -27 -23 -7 -19 -8 0
24 29 18 15 10 22 1 21 -20 -8 -4 -17 -19 -7 -13 -28 -11 -2 -16 -3 -25 -6 -27 -9 -23 0
11 8 25 23 19 20 24 13 7 21 28 16 -26 -12 -6 -9 -5 -15 -4 -10 -1 -3 -14 -17 -18 0
16 -1 -9 -10 0
18 26 11 14 13 29 25 19 21 6 10 15 28 -3 -5 -27 -7 -17 -24 -23 -22 -2 -9 -12 -20 -1 0
14 16 25 15 27 19 17 7 -20 -5 -9 -6 0
14 17 16 22 21 2 25 24 9 -23 -3 -7 -13 -1 -26 -11 -28 -12 -4 -15 -19 -27 -5 -18 -29 -8 0
14 22 11 8 16 17 2 5 15 24 1 23 3 10 -25 -19 -20 -18 -4 -9 -6 -29 -12 -28 0
28 -12 -15 0
13 17 27 12 -7 -20 -10 -3 -2 -14 0
16 18 26 6 29 28 19 10 1 17 24 27 3 7 25 11 -13 -14 -21 -12 -22 -9 -8 -4 -20 -23 0
14 7 24 15 29 20 -1 -4 -6 -22 -26 -23 -19 0
-10 0
18 12 1 13 21 15 6 11 20 17 8 10 16 25 26 -23 -14 -9 -22 -29 -27 -7 -5 -28 -24 -4 -19 0
