c NeuroCodeBench 2.0 CNF formula with verdict Sat
p cnf 97 736
50 73 96 81 53 32 44 18 91 33 10 27 48 36 60 6 52 93 80 14 67 16 69 7 9 37 29 22 71 65 82 30 43 89 3 35 85 20 -5 -63 -4 -66 -34 -88 -39 -84 -17 -79 -21 -72 -76 -62 -2 -58 -38 -15 -83 -1 -26 -47 -70 -61 -42 -49 -95 -40 -28 -46 -92 -45 -57 -94 0
1 8 67 5 41 82 57 10 70 66 76 69 28 31 77 73 24 14 85 71 56 44 47 94 6 7 91 48 89 30 13 64 79 34 62 11 26 22 17 19 42 -49 -27 -9 -80 -36 -53 -74 -35 -18 -37 -46 -81 -92 -20 -29 -33 -45 -84 -25 -88 -43 -68 -97 -39 -95 -55 -4 -86 -59 -21 -50 -58 -15 -54 -2 -90 -60 -61 -38 -72 -87 -32 -23 -75 -40 -93 -16 0
29 7 40 6 46 86 59 44 51 11 36 2 79 65 18 24 9 28 30 48 4 37 68 87 34 91 88 60 72 39 22 21 82 83 12 74 43 16 8 95 66 81 96 94 -1 -77 -10 -42 -90 -62 -35 -63 -49 -85 -69 -78 -50 -31 -14 -25 -89 -64 -41 -5 -20 -3 -84 -70 -93 -71 -73 -15 -92 -57 -76 -45 -27 -32 -97 0
76 26 -55 -45 -86 -30 -73 0
31 75 14 72 19 26 45 96 9 32 93 48 41 43 55 80 2 34 40 91 16 71 51 28 11 10 56 18 24 68 4 12 6 15 57 87 44 22 50 46 58 39 79 42 83 38 1 37 3 47 -76 -74 -27 -94 -63 -84 -5 -64 -65 -53 -17 -30 -78 -89 -69 -88 -82 -29 -70 -90 -85 -49 -36 -60 -77 -54 -23 -52 -8 -73 -66 -95 -61 -59 -20 -25 -92 -81 -86 -21 0
30 21 58 38 56 55 7 91 89 -73 -50 -84 -36 -71 -87 -59 -81 -45 0
16 17 91 34 23 80 58 92 43 69 28 3 4 96 60 46 87 76 94 82 11 84 2 88 -75 -47 -13 -73 -67 -78 -15 -55 -52 -64 -38 -6 -26 -65 -63 -35 -40 -54 0
12 79 52 26 42 27 38 85 46 63 1 4 -49 -3 -30 -21 -62 -57 -29 -97 -80 -40 -13 0
87 42 68 5 29 67 93 16 61 79 55 -97 -80 -63 -43 -20 -44 -41 -9 0
83 86 46 34 92 59 1 37 55 75 32 31 14 5 81 24 65 6 -66 -27 -73 -43 -23 -52 -63 -62 -20 -60 -39 -4 -69 -91 -88 -64 -18 -58 -26 -51 -53 -8 -79 -40 -54 -25 -28 -80 -48 -30 0
84 25 76 42 37 95 63 2 73 92 39 75 32 14 13 52 77 51 68 44 -53 -9 -29 -69 -23 -55 -56 -33 -38 -60 -41 -97 -10 -35 -81 -5 -82 -40 0
75 8 74 42 3 28 61 43 39 11 82 92 78 5 51 20 -80 -45 -86 -1 -55 -71 -13 -47 -4 -90 -96 -95 -32 -9 -37 0
53 66 1 65 44 40 30 96 86 29 12 69 93 57 92 32 26 14 3 49 35 42 91 16 56 55 -13 -77 -81 -6 -7 -87 -20 -85 -43 -95 -67 -2 -68 -71 -78 -59 -10 -34 -38 -33 0
82 7 21 49 92 83 37 2 56 9 95 8 30 89 44 25 55 77 88 40 -76 -74 -39 -16 -96 -86 -64 -34 -67 -27 -46 -41 -5 -60 -48 -59 -45 -81 0
33 40 10 62 7 37 24 20 67 90 73 83 26 60 31 51 11 54 96 30 48 55 97 17 -18 -92 -49 -68 -2 -34 -35 -76 -89 -57 -41 -32 -93 -1 -52 -53 -45 -78 0
77 16 -34 -79 0
25 86 78 49 65 59 1 88 48 43 71 62 29 47 24 11 91 51 -31 -70 -40 -23 -22 -26 -92 -42 -66 -56 -61 -7 -28 -63 -20 0
45 15 37 66 25 81 19 88 30 13 55 77 5 58 36 27 -31 -7 -32 -14 -65 -92 -2 -47 -53 -76 -94 -41 -34 0
56 57 19 49 36 45 76 6 52 79 20 8 11 65 5 58 71 -31 -22 -30 -82 -2 -51 -25 -44 -37 -28 -48 -75 -32 -17 -95 -47 -24 -96 -68 -66 -72 -15 -26 -29 -97 -83 -33 -92 -91 -39 -94 -35 -21 -46 -69 0
36 85 62 6 91 97 33 63 19 56 37 -43 -82 -72 -22 -67 -86 -26 -29 -87 -11 -84 -24 -90 0
83 55 97 52 4 74 70 75 54 69 68 90 49 21 17 31 36 10 34 13 80 89 88 15 -57 -2 -35 -53 -59 -28 -65 -66 -25 -20 -92 -67 -76 -81 -8 -56 -63 -6 -12 -62 -46 -91 -96 -24 -43 -72 -78 -5 -33 -27 -44 0
26 47 90 94 22 14 60 82 78 66 10 42 54 44 58 92 -15 -19 -87 -86 -76 -3 -34 0
71 37 53 43 3 82 40 83 84 86 34 62 1 72 33 85 50 26 23 22 65 58 59 51 52 -47 -89 -32 -16 -67 -44 -17 -20 -75 -5 -69 -12 -54 0
93 44 63 27 84 80 83 16 87 -54 -42 -24 -34 -43 -46 0
21 85 75 86 84 59 2 5 40 74 89 39 91 82 22 63 87 41 35 64 69 30 23 31 17 25 10 68 58 36 95 49 60 54 88 77 20 55 32 48 -67 -96 -15 -78 -26 -18 -11 -29 -8 -62 -90 -34 -27 -45 -24 -6 -16 -61 -92 -37 -56 -44 -71 -3 -50 -80 -47 -9 -46 -28 -65 -73 -97 -33 -12 -43 -1 -52 -7 -51 -72 -81 -53 -38 0
8 59 96 21 78 43 39 3 27 61 34 70 23 13 80 36 24 16 9 22 64 25 -81 -37 -88 -82 -29 -74 -33 -58 -68 -20 -69 -40 -15 -72 -18 -17 -44 -56 -7 -51 -6 -73 -52 -1 -11 -57 -53 -30 -85 0
38 47 39 88 59 94 13 60 25 95 19 70 30 74 -76 -32 -66 -69 -62 -46 -49 -54 -43 -35 -11 -89 -63 -53 -28 -4 -64 -68 -80 -67 -91 -84 0
41 28 5 89 8 17 65 91 44 48 83 84 74 25 21 86 24 7 71 16 30 37 50 63 97 33 27 40 20 88 10 57 82 95 77 26 4 76 2 67 6 38 22 42 36 60 -69 -1 -80 -93 -58 -72 -19 -3 -12 -45 -66 -64 -43 -56 -90 -70 -96 -75 -32 -59 -29 -35 -52 -14 -34 -11 -68 -87 -31 -15 -85 -55 -73 -49 -79 -46 -23 -18 -51 -92 -81 0
68 43 87 13 25 96 64 35 36 63 72 71 33 66 -51 -10 -84 -21 -12 -38 -57 -95 0
84 41 46 79 38 72 71 15 25 78 36 59 82 83 33 13 39 64 76 37 26 94 21 69 34 4 55 92 70 32 44 49 63 40 20 60 88 6 10 86 29 74 62 8 -7 -75 -3 -77 -14 -58 -85 -27 -28 -87 -57 -30 -17 -97 -53 -54 -89 -67 -50 -18 -24 -65 -35 -43 -66 -95 -11 -9 -90 -80 -93 -52 -81 -61 -56 -2 -51 0
83 35 52 54 65 50 23 43 89 5 19 37 33 36 15 3 31 41 59 7 8 58 10 57 88 45 4 72 97 44 28 46 26 75 1 68 81 49 29 79 67 51 21 25 16 71 -47 -93 -96 -14 -77 -76 -61 -55 -74 -78 -82 -80 -85 -86 -62 -73 -95 -91 -9 -60 -48 -69 -30 -39 -6 -22 -13 -17 -66 -32 -2 -53 -12 -20 -63 -64 -92 -18 -42 -84 -94 -24 -56 -11 0
79 56 59 83 6 9 94 68 2 52 36 49 66 44 62 25 70 76 61 81 63 14 38 50 43 28 45 67 22 1 58 82 47 78 84 19 57 96 93 91 -48 -11 -33 -90 -64 -4 -8 -51 -95 -41 -37 -85 -69 -74 -21 -75 -15 -89 -7 -73 -13 -54 -34 -77 -92 -39 -71 -5 -16 -65 -86 -80 -10 -29 -12 -24 -72 -40 -30 -53 -23 -26 0
75 27 60 5 47 10 26 78 85 82 18 39 88 87 77 19 11 -22 -95 -94 -70 -61 -79 -16 -56 -24 -33 -93 -12 -89 -83 -55 0
42 19 76 27 83 67 90 70 96 66 53 30 37 64 18 54 71 44 25 10 23 32 1 22 56 77 49 82 58 47 87 75 5 14 46 52 60 20 6 24 -91 -41 -97 -65 -79 -38 -39 -86 -43 -81 -72 -29 -89 -26 -50 -88 -80 -68 -84 -35 -31 -48 -55 -2 -61 -21 -9 -15 -40 -62 -36 -73 -17 -7 -92 -45 -63 -4 -16 -74 -93 -59 -51 -33 -12 0
31 25 45 20 70 76 95 80 57 58 43 75 77 74 21 8 69 14 53 52 48 71 50 82 29 59 94 27 81 4 7 97 38 39 17 36 5 91 12 63 13 73 84 1 35 -44 -10 -37 -65 -30 -55 -78 -56 -85 -15 -83 -89 -96 -19 -62 -6 -22 -46 -3 -61 -93 -41 -16 -11 -88 -67 -49 -68 -42 -87 -51 -23 -66 -64 -18 -40 -90 -24 -2 -9 -32 -54 -92 -60 -26 -33 0
8 79 26 6 27 73 92 89 16 85 68 46 38 17 76 97 41 64 83 2 35 84 13 59 55 48 74 25 39 80 28 72 29 51 82 52 15 -44 -45 -1 -78 -62 -4 -10 -18 -22 -53 -61 -32 -63 -33 -66 -69 -19 -54 -43 -20 -36 -40 -5 -21 -60 -37 -95 -58 -47 -75 -94 -96 -7 -9 -49 -65 -77 -90 -88 -91 -87 -12 -31 0
2 97 23 88 1 3 91 32 -77 -25 -34 -52 -72 -35 -75 0
12 47 56 48 41 54 64 77 93 18 33 42 34 32 -87 -67 -57 -74 -25 -51 -8 -49 -96 -28 -6 -38 -27 -35 0
36 63 48 11 85 20 78 13 46 25 3 54 76 84 82 95 59 40 -71 -80 -65 -12 -91 -2 -27 -21 -22 -31 -62 -73 -49 -70 -94 -88 -26 -89 -69 -32 -37 0
34 5 24 97 35 83 20 79 44 42 45 1 9 73 33 88 91 70 28 -22 -66 -32 -37 -67 -65 -13 -17 -96 -23 -81 -75 -47 -69 -27 -19 -11 -40 -10 -29 -58 -78 -36 -94 -85 -63 -14 -95 0
24 60 89 85 21 47 40 92 34 5 27 86 63 64 87 88 56 78 15 36 80 91 32 55 13 10 39 65 53 97 76 3 25 70 37 96 26 51 22 73 61 14 46 7 -33 -43 -20 -2 -29 -57 -93 -75 -79 -52 -82 -38 -84 -77 -48 -49 -35 -17 -28 -71 -45 -54 -42 -4 -8 -95 -1 -30 -12 -18 -58 -23 -66 -31 -11 -83 -94 -67 -72 -19 -74 -90 -68 -6 -62 -16 -59 -81 -69 -9 0
65 93 48 4 41 86 83 55 21 53 85 39 74 80 79 45 37 -10 -14 -54 -1 -5 -30 -43 -94 -31 -52 -76 -42 -22 -90 -46 -17 -87 -96 -89 -11 -59 -28 -20 0
87 29 54 26 59 78 13 90 82 36 21 40 12 50 -66 -4 -95 -1 -23 -14 -68 -63 -15 -48 -3 -85 -49 -34 -89 -83 -52 0
69 82 56 32 6 36 92 46 73 67 31 13 1 93 10 58 76 68 28 86 77 12 -45 -7 -54 -19 -74 -11 -24 -18 -21 -4 -29 -91 -80 -30 -63 -16 -41 -20 0
88 64 57 37 58 36 80 50 95 17 75 73 47 70 23 20 83 42 94 81 60 63 25 49 62 65 91 33 85 -89 -68 -22 -84 -54 -34 -30 -79 -72 -14 -76 -31 -40 -21 -48 -67 -82 -53 -97 -90 -59 -38 -27 -77 -12 -18 -78 -92 -56 -46 -3 -55 -10 -4 -24 -8 -86 -87 -5 -51 -15 0
52 82 79 32 68 40 91 48 93 62 70 -27 -67 -3 -46 -89 -23 -73 -64 0
47 27 22 91 46 7 67 10 21 86 1 78 4 20 54 24 53 64 -57 -9 -74 -80 -12 -2 -3 -17 -35 -59 -18 -5 -6 -13 -50 -49 -63 -83 -62 -25 -75 -39 -60 -43 0
39 63 56 4 97 58 53 79 81 42 77 27 72 62 1 95 51 85 84 70 17 16 22 69 73 15 37 -20 -18 -91 -67 -25 -29 -12 -44 -46 -34 -87 -54 -71 -31 -10 -13 -6 -5 -76 -23 -40 -7 -35 -80 -57 -68 -41 0
48 31 10 -72 0
69 90 0
40 86 88 15 53 31 26 90 42 37 12 66 46 17 96 47 3 55 28 54 21 48 51 63 80 41 52 10 27 85 57 68 13 5 19 61 11 81 60 -2 -70 -7 -45 -92 -33 -94 -62 -18 -87 -38 -74 -89 -69 -36 -34 -22 -4 -79 -9 -30 -23 -29 -49 -32 -24 -59 -75 -83 -39 -56 -50 -16 -1 -64 -76 -77 -8 -93 -44 -14 -84 -71 0
47 68 43 51 48 57 20 13 71 90 79 82 8 93 34 35 31 12 59 17 84 61 54 16 21 28 95 80 41 85 32 92 64 -74 -18 -36 -66 -55 -29 -75 -69 -9 -87 -39 -4 -38 -63 -78 -53 -11 -96 -91 -25 -77 -52 -40 -42 -19 -3 -23 -7 -5 -45 -2 0
75 55 27 28 34 25 80 73 26 8 56 94 4 31 88 77 50 13 20 84 62 65 95 24 92 48 85 10 21 87 30 6 54 59 63 -91 -43 -93 -19 -47 -69 -53 -2 -40 -67 -17 -18 -60 -86 -66 -32 -39 -3 -5 -36 -15 -51 -35 -58 -78 -49 -9 -33 -90 -37 -38 -83 -64 0
86 68 61 48 79 49 96 43 95 21 6 75 55 60 -69 -20 -38 -72 -85 -27 -34 -71 -37 -46 -57 -53 -45 0
76 4 75 41 68 33 49 27 -7 0
64 26 90 60 2 56 86 10 89 21 87 43 14 97 79 94 19 73 6 24 49 80 57 83 12 41 35 51 33 77 -45 -42 -82 -58 -85 -48 -67 -69 -15 -88 -63 -30 -93 -36 -65 -91 -54 -22 -5 -31 -68 -84 -74 -75 -38 -20 -17 -37 -39 0
39 50 75 21 91 8 48 19 20 3 59 95 80 57 81 31 -90 -34 -23 -82 -79 -74 -51 -9 -29 -2 -33 -37 -14 -18 -35 -15 -38 -55 -52 0
23 17 70 35 78 95 -75 -90 -41 -59 -92 -79 0
95 79 9 94 73 47 11 54 45 89 77 72 60 2 17 58 38 48 42 34 76 23 18 41 71 -46 -35 -16 -91 -78 -44 -67 -57 -64 -28 -80 -61 -97 -56 -62 -20 -53 -81 -50 -39 -29 -30 -31 -90 -25 -85 -83 -86 0
18 82 29 59 15 2 86 54 97 96 11 37 74 71 16 -89 -14 -24 -90 -56 -34 -3 -33 -93 -31 -58 -30 -48 -61 -70 -36 -64 -94 0
37 25 56 80 2 70 8 51 53 90 72 26 68 84 30 88 23 87 49 47 50 55 -73 -1 -81 -13 -31 -12 -65 -38 -48 -33 -34 -82 -91 -94 -21 -57 -18 -95 -41 -19 -52 -35 -3 -39 -42 -69 -93 -11 0
33 59 86 15 37 64 84 71 79 17 56 80 23 9 13 21 70 34 48 63 2 28 55 35 11 50 75 36 76 27 12 72 7 78 8 32 60 44 87 16 -24 -94 -77 -4 -31 -41 -19 -93 -58 -43 -38 -25 -1 -68 -42 -49 -3 -52 -22 -18 -83 -10 -65 -90 -95 -73 -61 -14 -20 -96 -97 -6 -81 -54 -89 -53 -47 -40 -74 -85 -46 -39 -66 -30 -5 -45 -29 -62 -26 0
17 89 23 26 47 91 50 55 76 25 53 66 3 60 78 62 42 5 69 61 11 97 92 -31 -96 -12 -13 -90 -52 -10 -68 -80 -86 -15 -95 -56 -58 -70 -43 -30 -75 -36 -81 -7 -18 0
2 8 69 14 32 51 42 9 87 85 88 67 95 23 15 -21 -78 -5 -66 -97 -93 -89 -63 -83 -58 -60 -92 -75 -54 -56 -12 0
45 3 9 65 84 96 48 46 68 50 63 12 30 6 -43 -77 -67 -26 -92 -66 -19 -4 -72 -70 -51 -53 -18 -93 -32 -71 0
9 25 6 89 2 26 66 29 59 16 3 82 58 77 83 56 84 96 92 22 15 86 21 74 44 42 88 52 -40 -39 -90 -50 -11 -85 -81 -97 -45 -48 -69 -64 -62 -78 -43 -57 -18 -87 -68 -32 -65 -95 -12 -70 -91 -14 -54 -73 -20 0
91 15 63 3 53 26 2 4 41 12 21 35 17 88 25 37 42 32 85 70 44 92 55 66 -81 -8 -29 -94 -64 -46 -79 -39 -61 -16 -30 -86 -97 -82 -90 -36 -40 -80 -69 -31 -75 -83 -9 -45 -87 -74 -65 -5 -67 -57 -58 0
39 63 74 54 61 13 91 84 19 77 57 60 36 8 21 51 17 52 69 43 9 94 18 92 76 33 93 25 90 31 49 2 56 48 50 38 -28 -87 -58 -46 -78 -15 -96 -44 -59 -53 -6 -83 -37 -26 -3 -7 -45 -68 -64 -62 -23 -80 -88 -65 -11 -79 -72 -16 -75 -85 -10 -35 -4 -42 -66 -5 -32 -14 -1 -29 -24 -34 -97 -12 0
11 68 42 23 50 29 73 35 78 71 14 25 4 59 49 58 40 67 1 7 26 57 55 69 43 15 60 21 12 17 24 56 41 66 95 -64 -97 -16 -92 -84 -31 -80 -91 -62 -46 -44 -86 -94 -32 -54 -79 -5 -8 -51 -30 -88 -72 -18 -13 -53 -47 -39 -48 -74 -2 -93 -34 -45 -65 -90 -33 -76 -75 -6 -82 -77 -87 -61 -37 -9 -85 -10 -52 -20 -3 -19 0
-72 -39 0
6 4 56 75 20 71 39 68 3 30 72 47 14 51 79 82 50 28 80 38 19 66 40 91 9 87 89 64 77 45 17 31 70 74 83 59 76 12 21 -46 -44 -63 -13 -57 -55 -1 -23 -2 -96 -58 -26 -41 -16 -61 -97 -42 -81 -65 -10 -37 -25 -86 -60 -88 -27 -49 -62 -48 -92 -5 0
1 71 35 69 18 -51 -44 -19 -70 -25 -97 -76 -91 -27 -3 0
47 50 71 90 25 9 44 41 93 92 4 40 59 28 49 18 17 31 38 72 14 1 89 80 63 62 95 75 58 83 3 73 54 35 15 43 12 36 91 76 -94 -8 -81 -27 -79 -66 -5 -13 -67 -60 -85 -53 -26 -29 -33 -45 -2 -88 -21 -16 -22 -7 -6 -97 -32 -82 -52 -19 -34 -48 -78 -77 -37 0
-71 -23 -97 0
68 91 73 76 10 62 32 42 24 25 3 7 37 8 55 16 5 71 -77 -44 -1 -94 -4 -13 -35 0
7 65 90 43 40 60 25 73 78 63 91 87 27 20 58 23 30 37 3 8 36 44 94 39 17 95 1 14 10 5 71 82 96 59 69 33 21 74 64 48 18 88 85 -13 -79 -41 -34 -19 -31 -93 -15 -72 -70 -9 -54 -50 -49 -26 -61 -76 -38 -80 -55 -16 -42 -57 -47 -35 -56 -81 -4 -52 -46 -11 -77 -83 -92 -89 -24 -45 -29 -32 -53 -51 -66 -28 -6 -62 -68 -86 -12 0
91 87 18 50 21 69 26 88 68 10 65 71 11 35 66 81 90 95 51 74 62 33 44 97 45 6 36 25 27 8 77 76 24 -70 -57 -34 -59 -73 -14 -75 -78 -46 -84 -52 -39 -19 -80 -56 -61 -49 -28 -42 -86 -3 -79 -20 -54 -23 -55 -17 -48 -7 -1 -72 -94 -16 -41 -32 -22 -2 -64 -31 -38 0
94 71 42 3 62 34 84 29 32 72 75 56 14 15 28 4 23 13 74 47 31 39 87 50 22 33 64 43 83 79 27 2 19 24 78 81 45 91 25 11 -20 -85 -68 -5 -69 -77 -40 -49 -16 -88 -7 -55 -66 -53 -38 -82 -54 -63 -21 -26 -57 -1 -96 -37 -12 -35 -65 -58 -44 -30 -97 -60 -73 -92 -10 -61 -89 -80 -18 0
64 85 52 67 28 62 13 92 81 16 15 21 56 47 33 78 40 68 79 94 29 95 35 31 90 1 7 76 -59 -41 -72 -89 -26 -77 -65 -61 -49 -25 -55 -32 -75 -69 -22 -51 -8 -30 -12 -37 -23 -66 -43 -57 -27 -53 -24 -38 0
18 23 27 3 88 42 49 40 2 25 96 12 63 37 61 52 5 94 66 34 33 89 31 82 45 15 17 8 76 84 30 64 70 22 11 78 85 93 56 -74 -81 -60 -24 -55 -35 -87 -50 -16 -26 -77 -67 -97 -38 -71 -83 -90 -62 -43 -91 -28 -48 0
90 30 94 17 49 2 1 -38 -25 -71 -40 0
87 81 72 39 75 5 97 23 57 29 20 51 86 25 94 67 69 93 35 62 8 49 45 14 16 68 64 41 26 33 79 61 24 22 54 56 34 47 77 -4 -32 -73 -18 -21 -92 -52 -65 -89 -10 -17 -78 -76 -2 -50 -88 -53 -84 -91 -74 -82 -80 -46 -7 -40 -12 -60 -70 -59 -44 0
36 55 96 18 4 40 64 16 30 33 79 65 9 81 59 69 8 14 66 82 84 97 2 45 26 76 87 89 12 43 7 85 61 -63 -15 -29 -88 -80 -60 -44 -50 -24 -39 -31 -94 -68 -37 -41 -74 -56 -72 -21 -93 -53 -83 -34 -75 0
35 39 42 95 30 6 29 82 51 12 71 18 40 60 49 81 67 3 62 85 58 10 32 74 86 90 68 91 55 15 -44 -22 -69 -24 -79 -56 -21 -80 -75 -89 -13 -43 -38 -41 -50 -19 -77 -72 -83 -20 -57 -5 -37 -48 -14 -4 -8 -2 -31 -97 -26 0
78 91 9 31 46 69 43 72 22 42 60 55 2 5 96 45 17 28 63 41 53 85 30 37 75 57 62 74 15 16 24 1 84 10 93 49 92 29 50 -80 -8 -3 -11 -67 -44 -27 -94 -4 -79 -18 -47 -39 -77 -71 -90 -65 -33 -76 -51 -40 -38 -6 -19 -97 -66 -35 -82 -73 -89 -58 -68 -48 -88 -56 -52 -14 -34 -54 -83 -7 -70 -64 0
17 19 38 4 9 73 70 89 60 88 2 57 13 71 78 30 51 28 12 79 35 54 43 86 32 63 90 23 -52 -21 -68 -31 -42 -94 -75 -85 -96 -5 -65 -39 -82 -47 -11 -7 -36 0
71 87 37 55 92 20 23 -69 -1 -38 -91 -10 -33 -45 -40 -96 -86 -48 -25 -15 -51 -67 -85 -93 -28 -43 -68 -66 -76 -29 0
69 20 60 65 73 4 -12 -26 -74 -64 -52 -45 -92 0
6 89 12 81 68 35 4 34 84 36 -33 -97 -85 -25 -8 -45 -70 -67 -61 -94 -66 0
69 27 6 42 95 20 51 58 11 84 35 19 67 82 87 29 38 72 43 86 10 3 8 79 15 81 85 9 32 91 45 14 65 94 25 33 80 92 83 75 39 76 18 47 37 73 1 89 60 71 59 90 97 -93 -7 -61 -21 -22 -66 -17 -78 -2 -70 -56 -16 -34 -46 -64 -88 -4 -12 -74 -40 -50 -49 -63 -96 -48 -30 -57 -68 -77 -26 -53 -24 -55 -62 -54 -36 -28 -52 -31 -13 -5 0
47 81 68 73 25 24 56 61 20 65 84 57 97 30 67 43 82 32 54 2 96 41 49 7 93 -74 -21 -75 -66 -18 -80 -72 -76 -51 -52 -4 -55 -27 -62 -94 -71 -29 0
52 78 67 5 1 31 70 11 2 35 36 87 21 -83 -90 -66 -65 -85 -27 -77 -43 -4 -94 -29 -59 -75 -20 -54 -84 -13 -26 -40 -73 -91 -86 -92 -79 -12 -28 -81 -50 0
66 2 17 12 49 38 9 69 80 76 36 11 90 61 32 45 46 40 25 62 37 85 64 35 26 79 41 1 23 31 29 43 91 -81 -54 -86 -8 -20 -50 -58 -65 -84 -30 -4 -42 -56 -78 -67 -18 -95 -3 -72 -96 -71 -44 -34 -82 -55 -14 -63 -92 -97 -83 -60 -93 -15 0
90 84 65 92 74 10 75 23 61 26 97 3 67 44 2 50 60 59 22 73 95 39 93 48 70 -94 -36 -40 -66 -51 -32 -78 -29 -11 -18 -38 -81 -9 -25 -16 -68 -86 -7 -43 -80 -87 -52 -42 -6 -49 -24 -5 -12 -53 0
77 90 85 46 96 31 7 67 81 3 12 58 57 13 6 60 93 76 16 65 17 35 88 34 56 75 28 74 2 40 45 50 32 9 97 26 91 94 11 15 48 61 19 -80 -18 -23 -30 -78 -70 -25 -1 -29 -10 -66 -21 -24 -64 -54 -62 -49 -83 -92 -59 -47 -38 -37 -20 -86 -44 -73 -51 -22 -82 -55 -14 -71 -69 -8 -41 -95 -72 -27 -63 -4 -68 -42 0
8 17 35 52 37 70 84 38 51 19 7 26 49 32 1 23 30 58 9 54 45 28 36 33 11 79 83 -14 -93 -4 -60 -90 -80 -5 -61 -88 -75 -89 -66 -47 -2 -50 -77 -20 -25 -87 -44 -27 -46 -74 -82 -86 -65 0
4 49 82 57 63 93 7 1 39 76 31 58 55 75 84 69 47 25 77 51 27 73 61 37 89 23 18 48 83 71 9 34 97 38 -56 -32 -81 -62 -78 -28 -41 -64 -50 -30 -14 -15 -2 -92 -22 -10 -3 -90 -54 -68 -43 -94 -52 -16 -20 -85 -17 -40 -12 -65 -19 -45 -13 -42 -24 -29 -67 -72 -11 0
55 32 34 24 9 87 36 41 95 79 27 42 68 58 62 23 2 54 81 -8 -52 -88 -16 -22 -35 -14 -74 -93 -10 -21 -3 -49 -6 0
89 17 32 25 91 39 90 88 67 94 13 75 10 41 57 23 2 50 92 28 45 3 29 69 1 46 96 26 -61 -16 -82 -81 -40 -56 -71 -80 -66 -72 -7 -47 -8 -58 -63 -12 -60 -35 -6 -19 -21 -73 -27 -42 -49 -9 -14 -70 0
82 8 58 83 2 67 46 23 61 29 31 89 95 10 92 24 33 43 88 56 30 13 37 72 97 73 75 65 79 69 -1 -85 -71 -26 -3 -52 -45 -63 -44 -47 -91 -38 -76 -7 -35 -4 -14 -9 -78 -68 -25 -81 -5 -86 -21 -12 -20 -34 -11 -70 -40 -6 -84 -54 -16 -62 -93 -32 -50 -27 -17 -49 -19 -39 -90 -59 -18 -57 -51 -64 0
41 69 -60 -71 -68 0
22 32 12 64 69 41 55 82 80 19 35 13 51 75 86 5 29 91 84 79 7 71 70 44 31 45 27 57 9 59 48 38 24 74 -73 -87 -39 -40 -26 -11 -3 -20 -47 -15 -21 -34 -60 -16 -8 -28 -77 -56 -68 -83 -53 -52 -4 -46 -37 -63 -67 -6 -61 -36 -76 -50 -93 -33 -66 -23 0
20 35 28 24 16 46 90 8 70 63 45 95 3 67 85 -2 -39 -19 -14 -25 -22 -79 -21 -40 -6 -55 -49 -73 -86 -51 -41 -50 -30 -27 -88 0
51 9 29 70 7 37 -96 -65 -4 -14 -24 0
13 35 92 16 59 15 24 18 26 28 9 50 60 62 85 72 75 40 91 19 -73 -29 -79 -32 -41 -53 -3 -42 -22 -49 -81 -61 -1 -87 -48 -46 -12 -94 -88 -47 -86 -11 -14 -77 0
85 13 39 33 7 73 11 74 -95 -12 -82 0
13 35 81 50 34 95 1 68 28 64 60 -79 -33 -19 -31 -92 -17 -84 -40 -83 -53 -77 -26 -75 -65 -43 -54 -32 -18 -47 -78 0
83 36 55 56 80 16 47 76 57 46 62 68 35 89 41 37 7 11 29 39 40 19 60 78 -65 -52 -9 -24 -54 -10 -34 -17 -51 -61 -4 -26 -23 -25 -27 -67 -45 -15 -6 -33 -43 -21 -53 -74 -86 -8 0
34 78 76 74 -31 -75 -2 -62 -51 -86 0
11 5 52 69 18 64 54 37 59 35 12 61 -79 -77 -82 -2 -47 -74 0
76 72 42 66 11 67 59 97 8 32 31 93 62 70 27 80 83 -78 -23 -5 -74 -57 -4 -37 -26 -3 0
15 6 64 10 22 23 35 90 8 63 -40 -4 -52 -88 -2 -50 -62 -42 -69 -97 -16 -96 -83 -17 -19 -78 -9 0
65 47 39 89 2 5 -61 -25 -53 -44 -59 -6 -46 0
72 23 35 90 41 42 78 21 59 51 73 88 3 77 14 69 92 6 32 10 36 38 68 82 65 62 47 83 61 -26 -16 -18 -45 -64 -28 -84 -55 -8 -37 -2 -48 -20 -43 -97 -58 -33 -27 -19 -30 -40 -81 -7 -96 -34 -71 -87 -76 -91 -24 -89 -94 -66 -11 -22 -31 -15 0
53 91 12 55 74 28 39 44 87 43 88 10 2 69 4 78 36 58 49 52 57 11 54 75 48 59 83 18 24 40 92 47 45 61 27 15 23 21 51 84 93 79 56 66 32 8 95 -35 -67 -19 -13 -64 -3 -94 -30 -77 -33 -31 -82 -29 -71 -37 -14 -68 -86 -38 -65 -17 -70 -81 -42 -5 -85 -46 -26 -90 -72 -73 -62 -20 -1 -25 -9 0
1 85 21 55 90 26 83 20 17 61 80 10 52 31 94 97 49 42 87 5 47 96 25 8 41 91 -11 -30 -89 -3 -15 -12 -37 -82 -77 -27 -6 -51 -93 -43 -92 -84 -23 -95 -69 -86 -64 0
96 49 73 34 1 79 57 87 37 40 42 25 92 48 35 78 60 28 4 90 67 72 39 6 46 81 51 68 23 2 30 77 69 8 84 26 59 41 7 54 55 80 71 14 47 5 56 -74 -62 -63 -85 -65 -32 -29 -82 -83 -89 -44 -88 -50 -70 -33 -10 -11 -18 -43 -21 -75 -64 -27 -22 -76 -61 -95 -12 -3 -52 -17 -36 -86 -13 -93 -45 -53 -19 0
71 61 18 47 11 76 39 25 4 88 54 65 21 15 44 35 28 95 -51 -80 -91 -8 -7 -10 -66 -56 -84 -42 -50 -43 -27 -36 -55 -23 -79 -48 -82 -20 -22 0
26 9 72 87 41 91 36 1 20 25 65 48 84 92 55 24 33 23 27 56 12 82 4 17 81 22 -40 -96 -61 -13 -53 -6 -68 -89 -52 -58 -57 -34 -7 -42 -80 -88 -38 -8 -2 -15 -11 -45 -16 -78 -18 -66 -69 -64 -54 -44 -59 0
44 92 24 8 50 74 72 29 34 90 17 61 35 20 37 31 82 23 27 22 73 87 67 83 89 91 -77 -15 -36 -41 -80 -25 -68 -94 -78 -69 -30 -26 -96 -32 -81 -7 -13 -21 -97 -52 -5 -93 -57 -9 -59 -63 -3 0
76 14 96 21 25 88 80 47 69 8 31 42 82 86 38 11 43 52 44 60 72 66 78 65 15 24 59 94 91 19 89 1 79 12 -7 -87 -33 -85 -49 -13 -68 -17 -22 -4 -36 -35 -16 -51 -55 -63 -50 -64 -53 -61 -70 -84 -41 -57 -75 -71 -9 -56 -95 -39 -18 -54 -6 -67 -20 -5 -34 -81 -48 -45 -92 -77 -30 0
78 69 56 49 70 36 -42 -63 -18 -2 -14 0
81 29 19 26 50 34 45 47 65 67 86 40 12 27 72 25 76 32 -61 -77 -62 -94 -55 -44 -21 -15 -60 -95 -39 -13 -53 -71 -79 -63 -8 -52 -88 0
30 45 9 5 31 68 66 88 23 21 56 60 69 84 12 16 85 94 34 77 87 73 38 1 40 7 58 6 78 4 2 22 55 54 80 63 79 72 28 19 39 89 47 62 37 10 59 74 96 64 76 11 25 18 67 32 97 35 65 -41 -50 -44 -71 -61 -83 -29 -3 -95 -20 -86 -53 -75 -24 -52 -36 -70 -49 -33 -82 -46 -14 -27 -81 -8 -13 -57 -42 -51 -15 -26 -90 -93 -91 -48 -17 -43 0
61 72 37 80 97 -56 -35 -45 -16 -52 -36 -20 -69 -41 -2 0
6 46 15 34 12 7 87 23 82 30 62 20 32 27 79 76 93 84 44 58 5 70 43 96 11 74 94 88 48 8 25 39 60 17 71 3 73 36 21 35 81 83 28 64 -54 -92 -65 -13 -19 -50 -89 -37 -78 -45 -90 -42 -1 -51 -2 -29 -49 -56 -72 -66 -77 -9 -59 -75 -57 -86 -24 -47 -63 -41 -85 -16 -69 -55 -22 -38 -10 -53 -61 -52 -95 -31 -4 0
52 30 67 23 79 43 35 61 7 37 50 6 19 76 8 88 13 4 22 10 87 57 -68 -15 -92 -24 -40 -80 -25 -63 -21 -11 -31 -71 -26 -44 -94 -83 -90 -41 -16 0
9 63 49 45 53 30 77 26 93 71 64 62 84 65 97 68 61 80 37 92 47 8 54 15 7 67 25 87 89 12 88 76 95 73 33 57 5 -72 -34 -60 -41 -1 -48 -17 -90 -74 -32 -75 -83 -40 -94 -91 -20 -52 -79 -69 -51 -11 -6 -46 -29 -55 -36 -23 -22 -10 -38 -35 -2 -28 -50 -82 -44 -19 -27 -24 -21 -18 -58 -81 -78 -43 0
33 44 77 11 38 71 7 75 41 65 42 53 9 70 32 19 20 10 47 84 69 96 49 -83 -91 -48 -28 -37 -87 -66 -45 -25 -82 -27 -2 -93 -52 0
26 24 32 19 8 34 9 36 68 70 61 18 25 48 51 83 60 4 49 10 23 3 43 66 37 69 97 62 56 27 5 85 77 67 38 17 28 46 88 41 87 35 -12 -65 -54 -92 -53 -71 -29 -86 -74 -89 -59 -58 -95 -31 -81 -72 -82 -13 -11 -91 -33 -6 -7 -15 -73 -96 -57 -45 -94 -80 -1 -47 -64 -44 -30 -16 -22 -63 0
94 47 24 42 52 53 66 87 28 38 34 13 41 96 21 17 65 82 59 83 73 12 30 19 55 75 54 39 3 8 93 49 80 74 70 10 18 50 84 86 90 44 91 58 48 68 -9 -76 -46 -23 -61 -71 -14 -20 -35 -56 -16 -33 -62 -2 -78 -40 -85 -60 -45 -77 -63 -26 -88 -1 -37 -6 -89 -43 -67 -72 -11 -27 -95 -92 -5 -79 -25 -81 -4 -32 -57 -64 -31 -15 -29 0
12 52 6 78 17 14 90 4 20 11 92 5 21 18 64 57 68 30 96 9 47 29 69 45 22 19 -91 -79 -60 -1 -66 -58 -31 -39 -71 -72 -25 -61 -32 0
13 49 32 85 21 34 65 50 41 90 27 81 84 55 76 12 2 78 8 40 69 11 72 67 39 86 -19 -36 -25 -10 -18 -3 -83 -89 -5 -45 -75 -33 -16 -91 -57 -29 -47 -58 -46 -68 -95 -1 -9 0
70 17 36 26 79 73 97 19 1 72 12 27 86 59 9 11 57 63 33 76 88 7 46 24 54 68 28 -92 -58 -49 -69 -89 -74 -85 -47 -87 -91 -42 -41 -52 -43 -14 -20 -30 -18 -25 -13 -16 -35 -65 0
46 10 3 69 80 88 48 95 43 40 81 86 83 36 12 17 94 32 77 47 9 65 52 45 72 25 79 85 50 54 41 35 8 26 11 15 33 51 14 2 42 31 58 49 -53 -71 -89 -62 -23 -60 -1 -21 -68 -78 -56 -74 -75 -73 -57 -27 -67 -39 -7 -24 -90 -20 -91 -44 -16 -18 -55 -93 -64 -37 -22 -66 -28 -34 -38 -76 -84 -59 0
48 68 74 69 15 8 41 76 30 72 90 26 12 35 -67 -51 -3 -34 -59 -97 -92 -45 -24 -91 -71 -85 -46 -70 -63 -86 -31 -43 -73 0
78 9 67 42 14 25 85 56 51 68 28 76 52 27 47 26 92 95 29 33 11 16 70 58 -36 -79 -37 -72 -41 -83 -6 -90 -2 -43 -71 -19 -69 -44 -62 -65 -35 -80 -18 -93 -12 -24 -13 -86 -89 -46 -50 -57 -8 -66 -15 -7 -3 0
8 84 71 95 54 40 62 7 57 41 34 86 30 12 6 58 15 5 97 31 3 51 38 36 37 46 50 14 23 72 43 67 60 94 74 77 89 81 82 20 53 45 68 19 78 52 35 64 22 18 -39 -75 -91 -32 -48 -56 -66 -44 -92 -28 -70 -4 -21 -26 -85 -93 -79 -24 -9 -27 -90 -10 -59 -13 -47 -73 -83 -87 -61 -17 -63 -76 -11 -80 -88 -65 -69 0
34 10 41 5 22 72 91 75 87 16 94 27 62 81 57 82 56 17 21 68 40 13 9 59 89 58 31 -42 -47 -50 -92 -20 -14 -77 -8 -2 -6 -25 -19 -51 -49 -12 -80 -83 -69 -55 -44 -28 -37 -53 -52 -70 -36 -7 -48 -46 -93 -4 -60 -65 -97 -63 -11 -66 -86 -3 -85 -79 0
3 58 47 28 56 53 25 23 22 85 93 39 33 26 -92 -24 -37 -89 -69 0
33 79 50 71 96 61 81 80 37 57 54 39 44 17 85 5 28 41 36 65 88 11 46 40 1 47 25 59 68 7 64 34 67 91 23 10 51 76 16 52 49 -66 -6 -3 -13 -32 -30 -9 -29 -12 -2 -38 -15 -43 -21 -35 -93 -58 -97 -92 -90 -95 -73 -89 -26 -19 -75 -18 -70 -45 -24 -42 -8 -56 -84 -60 -48 -55 -77 -78 -22 -31 0
3 62 6 25 64 44 52 91 65 49 28 7 41 -29 -37 -75 -26 -46 -66 -51 -85 -88 -18 -34 -68 -76 -22 -16 -40 -93 -89 -72 -74 -69 -95 -80 -50 -90 -87 -71 0
58 54 38 50 56 53 27 14 26 64 86 70 28 62 63 11 22 88 55 41 69 52 60 79 59 9 81 29 25 32 19 12 48 35 94 82 1 68 67 2 31 42 65 45 96 15 91 -37 -73 -44 -6 -57 -34 -24 -36 -80 -66 -8 -78 -77 -3 -74 -95 -71 -97 -49 -75 -23 -61 -10 -92 -83 -16 -84 -17 -21 -51 -43 -47 -46 -5 -39 -87 -20 -72 -30 -90 -93 -18 -89 -85 -33 -40 -76 0
35 14 13 40 48 65 80 86 83 93 89 84 61 34 24 63 33 90 2 47 68 -62 -87 -74 -92 -64 -43 -37 -95 -69 -26 -79 -91 -53 -82 -25 -76 -49 -94 -85 -11 -29 -57 -15 -72 -73 -16 -54 -78 -20 -75 -38 -8 -1 -18 -50 0
90 23 60 63 75 56 -28 -1 -87 -3 -22 -33 -73 -69 -15 -12 0
60 77 71 94 55 86 41 70 97 48 40 75 12 19 46 29 13 32 -81 -65 -39 -2 -96 -64 -57 -27 -76 -18 -68 -53 -62 -20 -83 -85 -37 -54 0
60 33 39 83 41 80 42 82 38 46 84 44 1 96 86 90 81 73 48 24 4 16 71 53 -36 -58 -89 -88 -74 -35 -40 -97 -31 -68 -47 -14 -57 -59 -29 -77 -10 -51 -20 -91 -23 -66 -76 -79 -15 -72 -2 -64 -69 0
95 54 4 83 23 5 57 43 78 68 49 34 32 86 62 76 71 93 87 17 50 80 72 31 70 13 63 2 15 19 66 38 91 81 33 22 39 -74 -89 -79 -3 -88 -55 -41 -8 -10 -27 -40 -16 -84 -6 -61 -75 -29 -59 -52 -58 -14 -30 -20 -97 -53 -85 -92 -82 -73 -96 -45 0
49 -24 -4 -35 -81 -17 0
56 35 72 81 14 48 63 8 31 -5 -15 -16 -6 -24 -39 -62 -20 -49 -92 0
9 45 15 24 21 76 27 41 43 11 42 67 19 13 48 59 2 22 49 32 30 69 91 66 23 88 -14 -3 -51 -50 -89 -97 -39 -36 -81 -34 -20 -31 -83 -85 -26 -17 -35 -44 -92 -10 -73 -65 -4 -40 -28 -54 -62 -94 0
35 64 12 32 95 21 29 25 90 4 65 -66 -18 -93 -17 -36 -82 -91 -79 -23 -7 -41 -70 -74 0
11 89 60 31 25 29 37 20 63 59 68 22 62 40 67 5 3 81 84 -23 -24 -39 -93 -53 -85 -51 -86 -2 -82 -88 -30 -14 -56 -44 -48 0
57 54 8 41 74 -24 -32 -10 0
49 3 9 84 52 8 10 40 1 28 64 97 71 2 69 61 58 45 43 34 33 11 85 80 82 50 76 42 -17 -51 -35 -53 -62 -60 -27 -12 -29 -56 -90 -5 -66 -96 -39 -19 -6 0
3 -78 -5 -37 0
3 60 42 40 -61 -37 -9 -18 -2 -44 -1 0
10 74 17 80 29 62 83 22 47 8 49 57 50 14 6 46 -36 -16 -20 -43 -28 -1 -97 -81 -32 0
84 97 88 29 21 10 22 37 59 35 56 38 83 3 69 32 5 41 78 23 91 79 48 34 62 12 1 27 51 42 95 24 30 49 58 92 18 66 9 7 46 85 72 77 76 57 65 13 11 14 47 6 -28 -53 -75 -36 -52 -74 -4 -67 -20 -89 -54 -40 -71 -26 -70 -25 -63 -68 -2 -43 -44 -73 -96 -61 -81 -33 -39 -15 -8 -19 -64 -82 -87 -90 -80 -55 -45 -16 -93 -60 -86 0
26 73 14 44 41 96 30 54 17 2 40 97 8 92 -69 -88 -65 -9 -20 -58 -62 -61 -53 -33 -71 -68 -82 -38 -51 -18 -74 -76 -34 0
53 80 59 96 52 7 4 34 89 25 58 19 94 95 76 10 67 30 75 86 85 63 69 49 33 24 54 35 64 29 93 88 6 37 20 78 66 18 36 11 92 74 70 26 38 61 44 2 -31 -62 -65 -8 -56 -55 -48 -87 -3 -82 -73 -83 -21 -17 -15 -12 -97 -46 -43 -68 -72 -51 -40 -22 -41 -9 -79 -60 -50 -27 -13 -47 -14 -16 -57 -77 -32 -28 -23 -39 -1 -90 -5 -84 -91 -42 -81 -71 0
43 40 96 72 31 51 22 78 41 36 34 86 77 64 38 6 65 3 95 18 42 14 2 74 91 75 61 28 92 46 59 66 20 81 9 1 11 32 94 83 37 70 56 58 7 24 21 67 5 89 57 -71 -80 -16 -84 -88 -82 -39 -76 -85 -4 -26 -12 -45 -68 -44 -54 -63 -55 -35 -27 -90 -30 -29 -17 -69 -15 -93 -47 -87 -52 -73 -62 -53 -23 -79 -60 -10 -8 -49 -97 -19 -25 -13 -33 0
2 78 14 75 74 44 54 55 68 10 66 25 94 59 49 4 47 9 41 15 90 58 27 84 76 24 50 20 13 30 73 64 16 48 81 32 57 88 65 18 70 23 -26 -8 -22 -17 -79 -69 -40 -77 -11 -51 -89 -87 -38 -28 -45 -42 -31 -95 -85 -52 -67 -63 -6 -56 -5 -43 -29 -39 -7 -80 -37 -19 -35 -96 -3 -82 -33 -97 -46 -93 -1 -36 -91 -34 -83 0
66 43 94 34 60 55 96 85 81 76 58 27 7 39 63 9 37 89 79 72 95 88 70 1 53 -31 -49 -41 -38 -86 -32 -6 -15 -21 -29 -46 -97 -73 0
48 12 92 19 85 45 63 80 43 50 -74 -61 -11 -60 -86 -67 -7 0
8 3 65 79 10 72 30 84 66 47 43 88 27 5 57 67 16 29 96 76 26 85 40 38 44 58 54 75 36 31 42 2 95 91 53 56 48 20 60 49 78 23 87 86 24 21 74 9 25 -81 -80 -83 -73 -17 -71 -59 -90 -22 -28 -33 -55 -51 -1 -39 -89 -7 -14 -15 -93 -46 -68 -34 -97 -52 -77 -6 -62 -18 -64 -41 -35 -82 -19 -70 -4 -92 -63 -13 0
5 63 88 67 74 18 6 40 94 49 60 17 69 1 51 91 65 31 16 11 27 24 68 62 8 7 92 86 20 46 55 13 23 26 96 45 3 78 4 90 93 73 44 36 29 32 79 41 72 97 87 53 80 52 77 71 -81 -15 -14 -39 -76 -70 -64 -57 -33 -38 -48 -30 -43 -21 -12 -58 -61 -89 -42 -56 -28 -35 -9 -37 -82 -59 -66 -22 -95 -54 -50 -75 -25 -2 -19 -34 0
38 1 71 48 88 75 14 7 95 86 10 18 47 8 -42 -46 -76 -80 -30 -26 -87 -31 -56 -28 -29 0
85 56 -31 0
17 50 85 65 94 28 40 21 43 92 2 54 9 22 86 46 4 25 57 -51 -32 -52 -69 -42 -89 -79 -3 -84 -8 -87 -12 -66 -81 -31 -74 -53 -73 -68 -36 -91 -39 -16 -29 0
80 46 97 58 95 9 10 1 63 81 62 24 15 56 5 78 51 84 79 8 43 26 96 85 38 40 73 59 47 39 50 12 18 21 89 61 71 37 -6 -28 -29 -75 -91 -77 -76 -25 -65 -4 -60 -68 -34 -52 -69 -31 -44 -64 -53 -70 -16 -2 -19 -88 -90 -66 -57 -14 -11 -72 -36 -17 -82 -42 -93 -87 -54 -74 -35 -94 -45 0
73 45 19 83 5 28 90 18 65 10 21 82 3 59 85 88 71 95 6 58 16 81 51 57 87 20 76 30 35 47 64 93 8 79 75 62 40 23 67 74 72 1 42 -38 -69 -36 -66 -43 -52 -37 -92 -4 -68 -13 -89 -31 -7 -46 -80 -54 -29 -49 -12 -86 -27 -11 -33 -63 -60 -34 -97 -41 -91 -77 -32 -84 -2 -44 -17 -14 -55 -9 -94 -48 0
71 87 53 73 89 61 64 92 5 26 33 91 86 67 2 62 84 69 36 10 85 70 49 88 41 -46 -32 -90 -51 -94 -47 -8 -1 -59 -83 -16 -7 -44 -12 -31 -96 -24 -40 -75 -58 -20 -18 -54 -37 -63 -21 -82 -4 -43 -52 -39 -78 -50 -72 -27 -23 -55 -42 0
75 26 61 45 93 90 13 69 16 60 18 20 39 2 24 50 36 22 6 37 15 38 53 4 59 9 52 57 49 40 71 96 7 74 55 97 -63 -89 -12 -14 -29 -31 -76 -41 -73 -8 -77 -58 -43 -65 -1 -5 -72 -79 -62 -85 -42 -82 -83 -66 0
4 10 32 70 75 27 45 15 49 54 90 44 64 89 84 31 53 1 73 46 63 39 24 3 61 14 88 17 2 41 82 51 38 36 40 12 42 -33 -85 -83 -30 -62 -22 -76 -9 -52 -5 -58 -18 -71 -79 -47 -16 -74 -67 -57 -86 -25 -78 -7 -92 -8 -91 -26 -66 -37 -69 -50 -94 0
94 15 27 20 34 65 59 49 51 53 76 70 97 28 42 21 17 81 8 71 92 25 85 75 45 4 26 29 90 66 86 77 89 82 67 79 5 46 88 -52 -47 -84 -61 -33 -80 -68 -35 -7 -39 -95 -48 -30 -69 -55 -93 -91 -54 -58 -60 -1 -11 -64 -43 -6 -23 -73 -62 -31 -2 -74 -44 -32 -63 -24 -10 -87 -72 -9 -16 -3 -96 -40 -83 0
97 87 7 63 73 45 86 1 58 36 66 25 76 5 95 77 17 37 40 85 46 74 54 47 3 13 9 26 92 88 78 20 32 91 75 89 11 -43 -69 -64 -59 -23 -39 -14 -48 -68 -83 -65 -31 -2 -93 -60 -24 -28 -29 -6 -79 -34 -96 -15 0
7 9 -91 0
8 37 53 95 24 28 86 72 48 14 84 15 81 26 66 97 12 49 19 44 42 39 94 80 73 46 18 -36 -89 -59 -5 -96 -79 -71 -83 -77 -65 -56 -32 -17 -41 -93 -58 -70 -40 -25 -90 -69 -16 -67 -4 -23 -91 -54 0
63 81 12 97 28 61 78 65 55 83 14 13 48 29 85 93 52 57 96 90 92 69 84 45 9 26 73 76 47 6 18 68 1 60 66 37 87 15 75 62 88 10 44 -19 -67 -21 -35 -17 -46 -2 -74 -86 -8 -23 -40 -72 -39 -51 -20 -89 -94 -82 -80 -30 -27 -38 -54 -4 -7 -32 -77 -31 -59 -95 -49 -3 -36 -71 -41 -22 -50 -42 -79 -25 -58 -33 -70 -5 0
-19 -57 0
62 74 22 52 89 57 35 25 44 7 -1 -64 -78 -39 -69 -48 -23 -90 -82 -61 -14 -29 -11 -88 -56 0
31 5 42 9 76 24 59 36 97 19 86 21 58 77 20 -16 -29 0
35 63 -17 0
92 21 44 19 15 86 58 72 76 70 -87 -75 -71 -54 -7 -73 -74 -38 -82 -68 -31 -36 -14 -29 0
10 33 74 14 63 85 1 18 9 73 25 90 48 29 77 57 40 12 6 91 79 92 27 32 2 21 43 86 59 15 76 42 94 11 -13 -53 -61 -72 -75 -95 -19 -70 -23 -5 -28 -64 -45 -17 -47 -4 -46 -16 -3 -52 -44 -31 -56 -38 -50 -65 -81 -97 -93 -26 -66 -49 -62 -7 -30 -88 0
46 88 94 73 59 61 80 2 89 16 23 76 -40 -8 -55 -5 -84 -63 -39 -78 -43 -7 -97 0
16 66 26 48 77 4 91 14 53 30 93 76 1 3 44 24 79 19 96 43 54 50 87 28 97 40 63 80 82 74 -47 -72 -84 -11 -31 -58 -67 -42 -51 -95 -12 -27 -49 -22 -60 -55 -33 -6 -9 -59 -75 -17 -18 -65 -81 -83 -57 0
92 33 88 9 25 1 38 89 19 60 3 31 53 43 12 82 61 79 8 41 17 81 87 96 50 97 65 63 49 20 14 83 75 34 76 44 46 51 7 13 84 40 -54 -57 -72 -21 -42 -80 -47 -85 -58 -26 -71 -94 -74 -69 -64 -56 -11 -29 -70 -27 -10 -35 -23 -73 -52 -2 -45 -15 -95 -93 -59 -91 -77 -66 -28 -36 -16 -78 -4 -39 -32 -55 -22 -37 0
30 43 28 7 3 19 50 80 44 37 94 51 72 18 67 12 81 64 26 57 92 70 55 73 65 61 20 -11 -2 -9 -97 -46 -40 -24 -15 -84 -89 -31 -77 -91 -42 -6 -10 -13 -82 -68 -14 -48 -41 -63 -32 -71 -23 -45 -96 -58 -93 -21 0
47 95 20 66 54 37 30 48 85 22 15 70 46 3 34 78 55 56 12 10 97 35 87 91 5 29 1 7 83 80 86 24 21 40 -75 -38 -17 -72 -2 -31 -18 -32 -28 -49 -50 -79 -27 -90 -58 -77 -8 -57 -89 -82 -51 -64 -62 -93 -23 -42 -9 -96 -41 -53 -26 -88 -76 -74 -45 -44 -16 0
94 72 63 13 6 16 10 1 67 50 36 35 61 30 68 91 23 84 92 97 48 79 75 71 58 31 42 96 29 3 93 70 77 -2 -8 -37 -82 -95 -57 -69 -14 -85 -60 -27 -38 -22 -64 -21 -86 -15 -80 -34 -7 -33 -5 -49 -74 -12 -45 -83 -11 -59 -89 -25 -55 -90 -39 -73 -18 -41 -46 -19 -47 0
46 29 73 97 39 41 84 68 81 71 58 20 -27 -91 -77 -9 -12 -51 -42 -55 -15 -86 -6 -74 -45 -89 -65 -54 -22 -24 0
62 38 87 37 2 69 41 39 79 53 34 56 29 70 50 84 46 27 18 82 57 77 30 10 88 12 16 17 33 3 73 23 1 -58 -68 -13 -9 -78 -51 -71 -59 -20 -83 -11 -36 -67 -74 -26 -92 -80 -93 -14 -45 -31 -40 -96 -49 -22 0
84 18 72 95 70 75 82 57 83 48 94 79 93 85 87 5 16 27 73 35 7 53 33 26 76 68 6 92 45 4 52 74 88 51 54 56 81 30 80 28 23 71 10 25 8 -60 -50 -91 -63 -22 -58 -44 -41 -19 -55 -17 -90 -9 -49 -62 -36 -42 -38 -64 -65 -40 -77 -86 -37 -3 -14 -78 -32 -66 -34 -46 -20 -21 -11 -15 -69 -13 -12 -47 -31 -43 -89 -61 -2 -39 -96 -29 0
5 52 47 21 2 97 60 33 18 36 34 -28 -59 -26 -92 -70 -20 -49 -75 -77 -19 -31 -58 -84 -61 -71 -89 0
67 7 19 83 -41 -65 -44 -45 0
54 52 14 74 18 3 77 34 20 80 40 87 76 7 78 70 62 32 -69 -79 -85 -97 -44 -45 -33 -60 -71 -11 -42 -10 -55 -91 -4 -94 -95 -9 -5 0
57 93 95 22 66 41 9 64 1 42 55 21 92 16 58 53 63 43 48 10 78 18 35 71 45 96 52 30 94 73 70 20 12 -46 -38 -32 -85 -61 -51 -77 -49 -3 -14 -76 -26 -83 -23 -31 -27 -60 -7 -6 -33 -36 -59 -80 -82 -39 -2 -91 -37 0
41 6 21 25 87 75 7 50 13 55 88 27 76 70 39 29 89 3 34 57 67 5 93 33 66 14 15 38 79 64 54 52 72 92 19 12 22 -49 -56 -59 -97 -2 -85 -18 -60 -37 -63 -86 -77 -30 -47 -45 -9 -82 -36 -95 -71 -16 -81 -69 -90 -35 -42 -17 -78 -40 0
45 50 90 31 93 61 37 76 78 52 56 40 38 11 82 62 18 4 97 35 30 -57 -25 -84 -6 -29 -85 -19 -55 -47 -88 -89 -34 -75 -23 -22 -91 -28 -15 -9 -69 -20 -44 -46 -92 -21 0
39 13 61 12 43 56 75 22 38 40 18 70 7 87 83 46 55 68 14 91 74 66 92 45 15 8 84 60 32 44 23 4 62 80 58 93 36 85 28 94 86 -26 -59 -79 -29 -88 -24 -54 -89 -67 -31 -41 -19 -37 -48 -96 -69 -90 -78 -73 -64 -11 -20 -77 -50 -21 -72 -9 -65 -6 -3 -42 -2 -30 -95 -57 -53 -82 -5 -16 -27 -76 0
63 21 47 92 96 88 10 38 79 29 80 28 83 19 8 78 26 81 75 40 24 37 74 77 25 11 94 45 6 12 35 22 -44 -84 -15 -86 -30 -31 -39 -90 -71 -50 -5 -73 -55 -23 -89 -27 -61 -34 -49 -95 -42 -41 -52 -48 -18 -33 -32 -14 -69 -56 -82 -64 -87 -62 -51 0
96 86 25 23 54 5 74 51 52 77 70 7 49 9 91 1 87 78 12 -82 -8 -81 -43 -42 -95 -38 -26 -62 -44 -76 0
16 40 32 66 48 47 96 7 30 15 4 78 70 54 57 88 87 36 33 10 58 31 27 20 37 18 71 55 17 -81 -90 -95 -22 -41 -35 -79 -42 -2 -56 -61 -67 -74 -77 -45 -11 -85 -51 -38 -91 -25 -62 -6 -14 0
66 84 44 4 54 65 69 41 88 14 22 59 68 62 91 80 48 39 60 50 31 40 51 5 10 82 33 2 43 70 75 20 42 24 15 52 74 3 71 38 64 -37 -89 -45 -27 -95 -61 -49 -77 -8 -25 -12 -21 -92 -81 -28 -46 -26 -16 -87 -97 -47 -96 -9 -55 -78 -13 -57 -83 -72 -85 -86 -18 -93 -11 -79 -6 0
82 12 42 13 26 22 65 49 10 31 91 24 78 94 61 39 11 58 97 36 17 19 96 2 83 46 60 90 74 70 -41 -81 -52 -18 -56 -88 -47 -15 -95 -80 -28 -35 -57 -59 -14 -77 -66 -40 -38 -85 -29 -7 -53 -43 -30 -34 -23 -1 -6 -86 -73 0
1 93 -36 -80 -38 -71 0
49 92 62 88 32 64 43 10 41 46 7 8 12 17 27 67 30 75 53 93 85 1 81 48 79 2 4 61 26 6 19 16 54 59 25 29 69 11 60 57 55 33 73 35 72 39 14 20 65 18 15 77 -71 -21 -87 -78 -24 -56 -80 -70 -89 -44 -97 -40 -96 -63 -76 -3 -50 -31 -45 -37 -74 -90 -13 -28 -58 -95 -5 -47 -51 -34 -9 -86 -68 -52 -91 -23 -66 0
60 87 0
39 85 88 10 26 66 60 44 11 61 15 20 3 73 97 5 50 65 -86 -22 -62 -57 -84 -53 -13 -75 -70 -63 -23 -92 -41 -80 -29 -12 -21 -71 -89 -18 -59 0
34 42 4 13 81 37 82 51 86 3 69 87 10 85 68 7 16 20 19 27 65 15 66 29 97 80 56 33 22 1 9 25 60 11 79 -76 -41 -93 -49 -12 -72 -91 -17 -31 -26 -77 -74 -47 -52 -14 -58 -92 -48 -38 -53 -59 -50 -18 -78 -5 -44 -75 -63 -88 -39 -64 -94 -89 -45 -28 -55 -21 -2 -84 -71 -8 -67 -54 -90 -24 -57 -46 -35 -96 -40 -83 -62 -23 0
11 89 87 23 83 53 16 13 7 37 20 52 5 71 12 65 46 82 94 41 74 31 32 81 50 39 38 62 8 21 80 85 14 18 56 -75 -45 -51 -4 -64 -95 -57 -40 -90 -22 -60 -93 -2 -77 -49 -42 -9 -30 -27 -24 -3 -43 -15 -70 -19 -28 -69 -34 -1 -10 -78 -36 -33 -67 -76 0
93 91 89 -59 -83 0
31 89 60 28 43 -88 -10 -63 -8 -30 -67 -73 -4 -66 0
59 6 73 11 94 32 56 79 16 37 76 -46 -27 -38 -87 -3 -65 -82 -39 0
52 45 6 55 72 42 71 41 37 65 23 20 14 96 33 27 70 95 17 25 38 -90 -85 -49 -69 -80 -21 -97 -39 -57 -73 -24 -75 -83 -29 -22 -44 -11 -1 -94 -68 -8 -58 -93 0
86 95 78 50 71 26 89 32 96 81 20 9 52 56 57 17 22 68 92 4 12 79 34 80 13 48 -55 -77 -30 -63 -29 -6 -23 -5 -36 -10 -66 -14 -39 -69 -2 -72 -90 -97 -15 -8 -65 0
47 5 25 23 74 13 -39 -17 -43 -6 -20 -72 -50 -93 -35 -38 0
65 45 92 20 59 73 36 19 84 4 27 68 87 51 10 42 74 32 31 62 81 77 58 -78 -90 -2 -29 -89 -50 -38 -52 -18 -76 -30 -14 -34 -22 -35 -56 -55 -70 -15 -83 -21 -44 -47 -71 -86 -8 0
7 56 77 1 49 91 22 30 40 21 88 86 92 83 51 25 48 18 24 54 78 26 42 -27 -69 -58 -94 -3 -63 -8 -17 -45 -47 -33 -13 -4 -43 -96 -37 -71 -74 -85 -95 -35 -38 -10 -44 -32 -75 0
33 46 36 56 15 41 -28 -57 -9 0
72 49 77 63 29 90 53 40 30 65 52 11 15 58 8 -48 -47 -1 -33 -4 -24 -46 -59 -83 -64 -45 -10 -55 -80 0
80 77 57 2 64 65 8 69 63 88 50 52 56 32 9 3 42 26 35 47 76 34 91 37 85 86 55 7 21 18 10 66 68 36 28 83 74 30 54 45 27 70 16 59 62 -41 -31 -15 -73 -25 -82 -46 -33 -53 -19 -1 -89 -29 -11 -67 -44 -5 -38 -75 -79 -71 -4 -94 -97 -72 -92 -96 -90 -20 -49 -40 -39 -17 -24 -93 -51 0
69 52 36 59 71 62 9 83 81 3 92 -57 -88 -33 -43 -20 -17 -90 -1 -49 -23 -29 -55 -80 -39 -72 -2 -61 -82 -7 0
85 69 29 28 32 6 8 16 26 73 36 82 22 44 48 71 58 33 66 7 83 91 89 92 61 75 62 40 4 52 97 56 14 2 57 55 24 -64 -25 -95 -41 -13 -76 -34 -1 -50 -43 -86 -78 -81 -79 -19 -68 -80 -30 -72 -17 -3 -65 -23 -53 -38 -51 -42 -20 -74 -5 -67 -35 -94 -47 -45 -21 -60 -87 -39 -37 -46 0
13 60 15 67 -75 -78 -76 -77 -41 -68 0
2 27 38 58 61 48 60 54 65 45 57 30 29 92 36 49 55 86 56 68 74 13 7 23 95 32 -66 -34 -40 -97 -17 -78 -39 -28 -69 -4 -53 -73 -67 -93 -64 -76 -75 -72 -16 -47 -63 0
13 10 64 61 45 77 46 58 24 31 69 40 18 5 54 2 22 84 71 59 73 -67 -53 -86 -68 -65 -21 -19 -35 -26 -47 -12 -39 -49 -29 -43 -25 -88 -56 0
69 30 89 33 91 32 13 76 94 7 4 93 84 27 16 43 46 85 83 22 62 8 1 6 86 90 92 75 39 61 63 67 38 81 97 37 28 23 50 24 72 59 74 35 95 44 31 57 26 29 55 -96 -21 -80 -5 -45 -52 -70 -2 -12 -17 -87 -14 -82 -20 -3 -64 -10 -77 -47 -88 -73 -53 -18 -19 -25 -11 -9 -41 -54 -48 -58 -56 -36 -51 -66 -40 -49 -34 -42 -65 -68 -71 -78 -79 0
56 63 23 4 75 12 85 42 52 13 51 55 19 68 91 6 9 35 58 67 28 41 36 44 15 26 90 18 30 46 25 80 31 92 83 45 27 88 43 -82 -40 -87 -53 -17 -77 -73 -78 -62 -48 -66 -95 -10 -21 -79 -71 -96 -74 -3 -69 -16 -81 -32 -64 -76 -33 -29 -72 -5 -50 -84 -86 -2 -59 -65 -24 -54 0
84 85 81 40 88 32 39 15 3 66 75 64 51 58 49 20 59 19 50 45 89 86 13 18 97 31 10 17 67 76 52 30 -12 -65 -47 -95 -68 -71 -57 -9 -1 -27 -16 -90 -93 -70 -7 -42 -29 -46 -36 -54 -72 0
11 91 60 8 96 76 4 59 94 63 83 20 80 97 86 56 43 36 78 53 46 6 88 10 61 27 25 33 70 -44 -1 -37 -79 -7 -24 -62 -28 -13 -67 -29 -64 -26 -42 -89 -15 -21 -74 -3 -51 -90 -2 -93 -75 -16 -81 -58 -34 -73 -40 -19 -95 -47 -84 -52 0
23 93 88 43 6 97 66 28 1 49 95 15 60 86 94 -32 -90 -52 -81 -12 -62 -82 -44 -36 -65 -24 -38 -84 -37 -72 -63 0
50 13 23 70 29 7 52 18 86 94 36 64 59 21 58 19 54 62 49 11 80 15 25 35 12 32 93 90 39 87 72 88 46 69 71 26 30 78 81 40 66 95 53 8 76 56 37 4 20 75 85 91 6 -24 -16 -2 -61 -45 -51 -9 -77 -47 -73 -28 -42 -33 -65 -96 -43 -44 -57 -5 -55 -27 -1 -63 -3 -83 -41 -79 -14 -97 -84 -48 -92 -31 -34 -22 -60 -10 -68 -89 -17 0
35 49 59 6 44 36 70 47 85 43 76 1 26 58 5 52 19 89 56 62 23 18 16 7 9 -60 -31 -41 -21 -10 -73 -57 -74 -42 -15 -61 -92 -79 -8 -63 -96 -34 -54 -46 -14 -45 -33 -75 -38 -17 -71 -2 -32 -86 -22 0
97 78 14 40 84 29 56 93 77 64 4 36 26 87 89 88 92 70 34 13 69 66 16 39 79 25 32 96 24 1 68 3 67 43 52 86 23 60 10 50 91 53 17 51 -83 -11 -38 -85 -57 -75 -72 -82 -21 -47 -22 -61 -71 -20 -9 -7 -95 -41 -46 -76 -58 -49 -8 -27 -35 -62 -94 -30 -42 -37 -90 -15 -74 -54 -59 -12 -2 0
63 17 10 97 46 38 43 52 32 13 70 82 86 84 8 72 14 62 96 41 42 15 54 92 12 68 37 -40 -28 -66 -11 -31 -65 -75 -69 -26 -20 -79 -39 -80 -81 -9 -67 -58 -93 -49 -34 -45 -30 -33 -76 -90 -25 -47 -21 -36 -56 -5 -24 0
23 32 68 26 41 13 80 57 60 71 43 17 34 12 25 9 51 78 31 42 79 70 66 29 56 83 86 75 91 85 16 -45 -40 -84 -53 -50 -20 -6 -37 -48 -61 -33 -39 -19 -21 -62 -72 -87 -77 -2 -5 -36 -97 0
92 83 44 22 86 47 4 53 32 79 58 65 -36 -12 -1 -38 -39 -51 -59 -82 -29 -66 -46 -90 -81 -78 -21 -89 -8 -31 -34 -70 -17 -95 -69 -3 -6 -10 -73 -93 -55 -84 -94 0
53 35 93 4 40 61 7 50 64 83 43 8 68 42 6 85 11 77 94 23 78 21 14 24 29 26 87 90 73 37 47 -92 -39 -96 -32 -49 -89 -44 -22 -69 -27 -45 -10 -81 -48 -13 -25 -41 -63 -46 -52 -17 -2 -71 -66 -28 -82 -58 -15 -59 -95 -76 -67 0
91 13 77 35 17 97 25 1 50 83 55 18 72 82 85 61 71 44 39 4 54 41 89 19 37 5 70 68 69 29 60 58 90 75 47 24 6 73 56 86 -20 -84 -16 -30 -10 -87 -48 -93 -65 -28 -23 -21 -43 -42 -33 -95 -74 -45 -12 -46 -53 -59 -27 -3 -40 -36 -67 -66 -32 -57 -26 -63 -52 -34 -92 -96 0
10 1 33 90 21 70 12 -2 -74 -38 -37 -61 -20 -17 -65 -54 -49 0
1 59 41 94 54 37 2 26 89 52 86 43 16 79 23 44 96 3 -21 -14 -12 -97 -67 -72 -70 -36 -63 -31 -68 -24 -84 -82 -30 -28 -73 -22 -38 -45 -83 -88 -5 -46 -62 -47 -85 -32 0
30 14 29 95 71 77 13 79 80 16 17 70 46 32 5 90 84 86 65 93 38 68 28 8 6 9 76 81 42 47 23 -57 -26 -91 -74 -45 -51 -66 -56 -78 -27 -88 -96 -72 -7 -36 -11 -43 -75 -69 -2 -60 -1 -73 -50 -83 -15 -3 -40 -55 -37 -31 -59 -63 -25 -35 0
21 12 80 43 24 41 18 36 65 88 47 7 81 48 8 77 10 74 51 67 -1 -16 -46 -70 -68 -23 -71 -56 -89 -30 -37 -94 -39 -28 -44 -52 0
26 44 27 85 22 79 48 33 2 77 61 51 58 3 91 -30 -28 -72 -97 -94 -83 -53 -52 -57 -19 -81 -21 -60 0
5 47 29 90 70 76 8 2 16 56 -54 -84 -25 -87 -6 -66 -45 -64 0
14 3 78 55 11 34 63 76 85 30 58 52 95 36 47 40 80 38 56 69 15 5 32 49 33 66 42 45 35 2 20 70 1 59 13 16 17 21 25 81 27 48 83 65 73 62 -64 -41 -90 -87 -94 -44 -51 -22 -92 -37 -71 -10 -77 -74 -24 -86 -88 -46 -7 -79 -53 -28 -89 -50 -68 -67 -84 -75 -4 -9 -29 -60 -82 -26 -39 -19 -6 -12 -23 -96 0
95 54 93 23 49 9 2 42 56 14 89 10 80 41 96 47 12 8 58 11 -50 -57 -53 -52 -25 -85 -81 -28 -84 -5 -45 -1 -76 -79 -37 -77 -33 -66 -94 -88 -34 -74 -36 -78 -68 -73 -26 0
76 61 -33 0
62 14 67 -63 -74 -27 -71 -42 -47 0
36 8 24 52 75 22 44 42 57 21 49 31 9 84 82 74 11 33 13 73 63 65 -54 -93 -40 -12 -53 -30 -72 -15 -81 -34 -70 -95 -91 -88 -94 -41 -38 -83 -43 -45 -6 -80 -64 -48 -47 -86 -96 -10 -27 -90 -77 -89 -19 -59 -20 -56 -55 -5 -4 0
26 43 41 6 61 50 38 83 16 81 4 27 77 22 86 73 13 32 62 58 51 54 75 76 65 92 49 89 88 14 79 94 1 46 5 66 -72 -34 -69 -47 -84 -18 -53 -40 -12 -87 -63 -48 -90 -52 -70 -74 -35 -23 -59 -93 -85 -17 -78 -33 -7 -95 -21 -91 -8 -57 -29 -44 -97 -55 -45 -10 -96 -28 -56 -68 -11 -82 -30 -9 -36 -60 -20 -15 -25 -80 -42 -67 -64 -24 -71 -2 0
67 75 66 10 52 93 11 97 94 -21 -85 -57 -55 -44 -86 -16 -63 0
91 41 56 8 27 51 60 50 12 15 82 31 80 89 92 -90 -43 -49 -40 -17 -46 -47 -13 -83 -26 -95 -9 0
88 50 29 18 59 40 83 74 94 93 91 67 4 52 21 35 45 41 85 71 1 51 62 78 96 20 34 15 13 39 53 36 89 64 -14 -92 -6 -38 -72 -16 -3 -54 -79 -11 -2 -56 -58 -97 -69 -25 -12 -76 -10 -48 -66 -33 -70 -27 -57 -46 -8 0
7 94 80 75 2 65 17 56 60 51 54 66 42 41 48 13 52 3 19 96 53 32 61 40 33 27 84 83 50 74 15 55 45 70 92 34 49 59 82 62 12 85 28 25 26 -93 -95 -9 -24 -72 -14 -90 -89 -88 -1 -79 -21 -78 -77 -23 -20 -39 -30 -5 -35 -11 -91 -73 -43 -67 -64 -4 -16 -29 -37 -68 -47 -71 -86 -22 -10 -44 -76 -81 0
45 52 31 38 84 40 48 51 29 59 50 44 55 85 58 1 68 53 69 24 21 25 81 46 6 3 30 39 62 41 92 72 -75 -88 -90 -5 -4 -79 -82 -22 -54 -27 -93 -16 -9 -60 -49 -56 -61 -35 -87 -11 -17 -74 -65 -8 -64 -77 -57 -37 -18 -33 -12 -71 -63 -26 -91 0
12 90 84 62 21 73 86 38 92 4 54 60 41 39 33 61 16 17 27 3 5 93 2 7 71 1 11 9 -19 -91 -43 -45 -53 -34 -40 -80 -67 -48 -52 -81 -89 -95 -23 0
74 16 40 44 35 79 4 31 53 15 -20 -97 -21 -39 -14 -64 -62 -81 -94 0
68 50 32 21 44 30 80 36 52 2 76 92 15 48 62 74 17 75 43 81 4 94 8 23 37 60 -22 -93 -89 -78 -1 -3 -69 -53 -66 -34 -19 -87 -56 -5 -67 -40 -46 -49 -58 -84 -20 -54 -9 0
62 24 37 29 96 74 79 94 57 9 95 13 32 64 70 50 59 90 7 76 77 40 86 58 44 36 -75 -27 -11 -88 -3 -48 -39 -20 -8 -10 -38 -28 -89 -68 -12 -65 -87 -52 -93 -42 -81 0
67 1 77 56 3 38 14 85 13 34 27 40 20 22 82 49 21 44 5 75 37 57 8 30 89 73 18 61 95 78 63 97 43 -76 -72 -17 -60 -55 -68 -39 -29 -24 -33 -7 -69 -46 -15 -4 -65 -58 -12 -2 -41 -64 -80 0
84 34 68 95 57 85 81 8 82 72 11 26 20 23 10 7 28 22 56 15 4 93 6 64 2 -89 -61 -19 -55 -80 -49 -17 -18 -66 -44 -29 -53 -1 -33 -13 -92 -70 -94 -69 -21 -96 -77 -54 -30 -67 -71 -76 -38 0
21 46 76 95 93 45 5 69 27 2 47 42 19 -97 -38 -35 -4 -83 -12 -44 -37 0
75 52 23 26 49 3 31 45 53 12 22 57 2 8 89 16 15 62 17 94 77 24 82 43 73 6 92 79 -81 -50 -27 -96 -13 -66 -7 -78 -86 -80 -90 -67 -59 -70 -20 -93 -76 -5 -56 -42 -95 -72 -41 -21 -88 -68 -10 -35 -36 -34 -54 -63 0
65 44 88 77 60 66 4 -32 -15 -41 -54 -62 -8 -53 0
78 74 68 97 14 35 47 41 66 63 77 53 75 52 -61 -40 -34 -94 -38 -18 -1 -81 -15 -25 -82 -60 -39 -36 0
26 80 13 90 92 19 7 47 67 70 38 93 -61 -78 -12 -48 -51 -21 -33 -36 -86 -17 0
52 59 3 69 55 37 76 66 89 46 62 50 96 21 81 25 47 8 23 82 75 39 68 79 84 14 9 32 94 91 51 85 77 43 53 64 20 95 74 88 -7 -41 -65 -60 -78 -35 -44 -22 -80 -49 -72 -92 -61 -12 -93 -16 -1 -97 -26 -45 -67 -57 -86 -13 -34 -10 -73 -30 -6 -33 -54 -58 -48 -63 -71 0
8 24 57 67 38 83 26 3 5 53 97 34 79 14 51 43 25 60 27 75 32 93 46 56 59 84 -78 -36 -9 -94 -48 -92 -81 -88 -40 -33 -52 -1 -47 -49 -6 -73 -35 -76 -13 -42 -85 -69 -2 -10 -55 -30 -64 -22 -28 -80 -7 -11 0
73 84 20 96 40 85 74 10 -89 -29 -21 -63 -81 -11 -55 -45 -97 -62 -25 -71 -80 -24 -32 -5 -16 -17 -59 0
30 64 79 56 28 8 6 44 4 46 13 2 22 19 12 57 43 -55 -80 -41 -54 -71 -91 -36 -84 -93 -68 -73 -51 -75 -42 -15 -37 -53 -25 -7 -31 -63 -59 0
6 34 12 45 93 53 55 10 60 33 24 1 41 77 67 68 8 97 57 95 89 15 3 88 61 16 58 28 43 76 17 69 31 79 19 86 49 65 62 35 4 -85 -40 -87 -47 -11 -75 -51 -52 -96 -48 -59 -22 -13 -90 -20 -56 -32 -92 -78 -14 -94 -9 -83 -54 -30 -80 -82 -7 -42 -72 -37 -44 -39 -50 0
94 52 -6 -63 -80 -47 -24 -29 -32 0
68 67 69 49 83 80 20 92 16 22 28 3 27 26 82 95 33 21 96 66 48 75 88 50 85 44 65 -45 -89 -58 -61 -29 -54 -43 -37 -77 -4 -35 -59 -46 -86 -7 -17 -81 -32 -62 -91 -64 -1 -53 -76 -55 -10 -34 0
21 55 50 93 65 30 46 96 22 60 5 48 61 43 76 38 80 34 71 40 53 54 64 31 2 84 77 37 79 62 24 -27 -16 -13 -59 -88 -35 -11 -41 -47 -86 -63 -68 -73 -20 -44 -90 -51 -74 -6 0
24 61 65 87 73 39 43 68 16 80 41 19 81 59 84 33 26 22 12 92 17 94 57 50 77 34 21 55 89 75 51 38 56 83 32 76 60 25 -18 -52 -40 -37 -13 -95 -28 -29 -86 -47 -23 -20 -5 -63 -67 -85 -48 -74 -2 -78 -42 -6 -54 -93 -35 -70 -1 -66 -53 -9 -45 -44 -31 -58 -88 -49 -46 -96 -8 -4 -82 -27 -91 0
54 63 38 72 82 61 15 -31 -48 -60 -51 -80 -84 -56 -1 -11 -10 -17 -23 -59 -42 -87 -55 -49 -70 -50 -77 -9 0
64 24 20 94 81 26 29 16 47 -36 -40 -4 -72 -59 -82 -60 -7 -6 -84 -18 -45 -11 0
22 39 71 38 5 41 45 6 15 -75 -3 -55 -31 -21 -30 0
16 60 77 11 26 45 8 49 86 88 25 53 79 27 1 71 20 2 42 24 14 84 56 57 63 -41 -22 -34 -15 -82 -19 -68 -31 -51 -59 -73 -78 -23 -69 -61 -80 -72 -5 -70 -35 -87 -17 -89 -9 0
66 58 80 62 59 15 49 12 44 33 35 29 81 60 65 22 95 73 55 96 91 43 17 2 8 75 46 36 85 50 41 34 68 82 3 92 38 20 84 -90 -42 -53 -61 -45 -71 -37 -6 -64 -13 -1 -16 -70 -4 -56 -31 -72 -19 -48 -52 -79 -74 -23 -87 -77 -94 -47 -27 -51 0
56 94 18 51 34 55 11 96 12 67 74 38 17 28 97 44 57 26 60 72 25 95 64 77 23 68 15 80 90 19 42 62 36 20 -59 -41 -75 -47 -81 -4 -21 -63 -37 -39 -33 -16 -71 -2 -79 -78 -85 -87 -13 -40 -29 -84 -73 -88 -22 -27 -91 -76 -89 -82 -8 -31 -46 -30 -43 -3 -14 -70 -69 -49 -50 -54 -45 -1 -92 -58 -53 -32 -83 -52 -66 -24 -65 -5 -86 -6 0
59 62 26 56 48 17 75 46 88 27 12 67 74 83 24 18 19 47 90 50 8 30 44 66 49 38 97 60 28 36 76 -57 -31 -1 -72 -95 -6 -89 -40 -91 -94 -21 -4 -20 -84 -33 -14 -79 -29 -93 -34 -71 -82 -55 -92 -37 -13 -54 -69 -23 -42 -70 -45 -80 -15 -52 -32 -10 -96 -35 -39 0
92 55 73 38 32 42 17 60 33 40 7 -36 -94 -71 -10 -19 -12 -31 -79 -51 -45 -96 -88 -23 -82 -5 -28 -77 0
5 12 9 34 88 13 83 68 30 76 36 14 97 32 56 -18 -61 -16 -8 -43 -57 -2 -87 -3 -84 -23 -47 -25 -85 -94 -29 -6 -41 -92 0
12 13 24 88 35 62 56 84 94 21 61 83 49 72 1 23 18 85 79 77 53 28 65 59 36 34 32 69 89 -54 -7 -10 -22 -55 -76 -66 -92 -11 -75 -96 -37 -30 -78 -67 -97 -25 -39 -81 -64 -43 -5 -80 -33 -3 -29 -57 -95 -4 -17 -45 -68 -70 -44 -2 -8 -26 -93 -19 -38 -63 -86 0
60 24 7 93 51 20 1 65 77 80 56 72 32 45 59 79 89 49 11 87 76 68 96 18 19 44 53 61 84 94 35 52 10 86 14 70 25 17 75 47 26 27 40 22 28 5 21 91 48 69 -73 -42 -6 -36 -15 -41 -39 -34 -67 -57 -85 -37 -95 -55 -71 -78 -90 -64 -46 -2 -81 -16 -12 -83 -31 -30 -66 -43 -92 -82 -13 -33 -9 -4 0
51 66 -80 -60 0
42 91 6 18 77 74 71 16 8 36 64 54 88 24 59 97 -47 -70 -9 -34 -51 -60 -3 -39 -21 -43 -84 -68 -15 -32 -28 -55 -44 -61 -62 -49 -31 -80 -89 -5 -40 -82 -95 -37 -14 -35 -17 -63 -7 -96 -66 0
26 35 86 6 17 66 55 32 2 75 5 41 21 43 70 57 27 33 7 4 67 28 71 77 9 51 52 78 73 85 19 88 72 53 94 56 80 61 62 49 29 50 95 44 63 23 48 13 15 97 1 58 -12 -18 -81 -64 -16 -24 -38 -65 -83 -93 -36 -79 -14 -82 -69 -10 -74 -20 -87 -30 -54 -47 -68 -60 -45 -34 -3 -59 -76 -46 -96 -8 -37 -25 -31 -11 -22 -92 -39 -91 -42 0
75 22 19 82 36 26 52 78 89 88 1 38 5 -37 -95 -34 -58 -67 -72 -39 -3 -65 -24 -73 -55 0
11 39 26 38 22 59 81 19 45 86 34 20 48 74 37 70 27 96 88 63 17 10 29 7 32 52 6 14 43 8 28 60 15 41 67 18 -69 -79 -12 -54 -49 -4 -5 -82 -75 -95 -57 -66 -77 -24 -83 -58 -89 -87 -46 -92 -40 -30 -97 -1 -55 -84 0
93 87 54 85 43 79 74 68 15 6 56 48 47 4 81 55 92 28 12 20 83 31 69 5 86 89 57 63 50 26 97 25 7 71 78 10 37 30 80 62 14 39 9 61 1 18 -16 -29 -94 -51 -59 -84 -77 -19 -38 -65 -73 -95 -82 -17 -23 -60 -34 -66 -91 -76 -35 -41 -44 -45 -70 -32 -3 -42 -67 -75 -96 -52 -33 -21 -58 -72 -11 0
70 12 -73 -52 -80 -3 -36 -23 -38 0
93 89 82 31 60 52 43 73 49 -7 -94 -12 -41 -14 -21 -53 -23 0
16 62 19 34 7 95 17 39 65 82 88 8 18 70 6 46 67 -37 -48 -42 -27 -45 -41 -38 -23 -90 -36 -4 -80 -86 0
66 54 31 42 26 46 62 34 77 59 48 23 49 9 55 81 80 84 1 24 28 89 12 6 91 18 79 88 78 65 10 60 47 82 73 97 76 45 2 58 57 43 36 -44 -4 -37 -90 -29 -25 -13 -56 -63 -86 -27 -41 -16 -68 -70 -40 -50 -94 -39 -5 -33 -19 -95 -3 -11 -52 -64 -21 -30 -35 -93 0
3 64 87 67 68 20 28 15 27 25 35 40 51 80 29 23 52 30 84 45 6 73 96 78 97 82 69 42 85 77 95 2 39 76 63 94 26 89 16 33 66 32 47 93 8 22 49 53 43 24 -19 -18 -4 -57 -90 -86 -36 -74 -21 -10 -61 -50 -1 -46 -11 -70 -5 -55 -62 -13 -83 -65 -60 -38 -72 -88 -81 -59 -54 -9 -34 -91 -48 -79 -14 -41 -58 -44 -71 -56 -37 -75 0
22 16 62 34 11 47 48 14 46 7 26 44 69 84 33 74 64 58 27 17 30 66 92 55 9 85 56 41 52 76 80 32 79 59 10 24 63 72 57 86 94 -93 -50 -12 -82 -61 -23 -45 -65 -90 -18 -1 -73 -95 -2 -8 -39 -60 -19 -67 -15 -21 -29 -51 -87 -3 -28 -91 -89 -54 -81 -83 -53 -43 -71 -75 -4 -40 -96 -78 -38 0
34 62 46 35 20 84 16 87 77 64 11 93 96 88 94 17 9 26 6 52 53 74 14 23 91 38 24 78 67 30 45 1 79 76 13 44 65 41 3 8 12 59 5 40 89 70 56 -22 -66 -18 -33 -80 -2 -27 -49 -31 -86 -47 -85 -75 -32 -15 -28 -60 -95 -57 -90 -81 -63 -97 -7 -69 -54 -61 -21 -73 -37 -72 -29 -83 -51 -55 -50 -42 -71 -36 -68 -10 -4 -48 -25 -39 -58 -43 0
50 66 -87 -58 -52 0
56 2 15 14 37 85 41 67 72 7 5 36 78 13 40 60 68 24 74 87 52 65 61 70 53 97 47 84 49 42 6 30 12 44 69 27 51 -57 -34 -39 -79 -21 -64 -11 -28 -46 -58 -20 -16 -75 -55 -76 -59 -38 -26 -63 -25 -43 -77 -50 -23 -62 -54 -93 -89 -8 -35 -73 -91 -95 -82 -19 -4 0
81 17 44 37 50 40 80 87 56 72 52 77 90 97 35 -91 -83 -95 -28 -46 -53 -60 -55 -3 -18 -85 -30 0
10 64 47 41 59 63 43 55 94 70 69 9 72 3 61 67 18 89 4 22 74 66 51 13 77 45 20 48 62 21 75 54 46 1 30 97 2 53 6 -33 -83 -31 -87 -24 -5 -80 -93 -84 -8 -19 -60 -29 -32 -86 -91 -37 -52 -50 -58 -23 -68 -25 -34 -85 -17 -73 -79 -95 -7 -27 -42 -35 -26 -15 -92 -12 -40 -65 -14 -11 -56 -49 -57 -96 -44 0
52 97 25 7 28 23 11 51 94 62 47 29 4 19 20 78 50 43 69 12 86 -80 -68 -38 -9 -75 -36 -56 -34 -10 -3 -1 -33 -35 -63 -82 -44 -81 0
35 38 13 92 32 41 61 43 97 48 2 46 -73 -36 -80 -14 -65 -57 -23 -81 -89 -77 -27 -4 -53 -58 -55 -49 -42 0
58 81 65 1 40 19 31 38 78 72 34 29 2 23 84 76 89 12 9 20 35 79 17 47 86 44 -45 -46 -70 -87 -11 -92 -48 -24 -8 -63 -42 -82 -74 -73 -25 -61 -60 -53 -13 -67 -22 -95 -7 -55 0
27 52 51 33 23 16 84 5 90 36 26 76 -86 -80 -77 -15 -60 -71 -9 -88 -74 -64 -37 -81 -68 -59 -53 -8 -87 -4 -89 -62 -28 0
88 69 89 46 5 75 31 16 61 25 6 84 26 48 51 60 15 22 77 8 43 52 97 85 3 79 20 63 73 87 23 81 18 72 29 90 62 91 83 45 53 -7 -11 -41 -40 -67 -55 -54 -10 -58 -92 -68 -35 -71 -78 -86 -2 -70 -56 -50 -34 -21 -14 -94 -17 -37 -66 -28 -9 -12 -80 -33 -24 -36 -13 -19 -38 -49 -32 -82 -4 -59 -76 -64 0
64 49 87 31 44 83 16 96 86 9 91 47 40 18 63 7 81 42 25 82 37 32 26 60 4 15 22 10 39 57 76 58 59 69 3 77 -12 -35 -20 -79 -68 -19 -41 -85 -33 -92 -97 -74 -6 -38 -51 -2 -53 -66 -61 -21 -8 -23 -71 -56 -90 -45 -89 -84 -55 -93 -36 -14 -72 -54 -5 -95 -70 -75 -94 -24 -78 -73 -29 -17 -65 -1 -34 -88 -43 -46 -52 -67 -80 -62 -30 -11 -13 0
41 61 94 12 35 37 71 30 14 63 74 3 86 31 36 64 13 39 82 56 42 25 78 50 23 55 87 75 60 45 47 32 -97 -34 -58 -77 -93 -90 -21 -80 -15 -4 -6 -43 -89 -19 -10 -85 -22 -68 -11 -83 -26 -49 -79 -20 -62 -17 -81 -24 -96 -66 -53 -7 -16 -44 -40 -67 -2 -88 -52 -48 -1 -73 -69 -92 -65 -29 -54 -57 -76 -46 -18 -59 -33 -72 -28 -27 -91 -8 -51 0
87 63 31 39 80 67 65 16 83 45 -81 -9 -6 -58 -68 -85 -26 -36 -72 -52 -78 -32 -71 -51 -2 0
89 40 20 16 36 69 65 58 83 41 13 38 59 71 42 53 54 39 47 12 37 46 62 78 25 14 34 45 50 73 66 61 43 15 -9 -96 -2 -8 -48 -86 -44 -56 -93 -7 -10 -51 -4 -21 -26 -79 -29 -90 -32 -74 -70 -72 -31 -3 -76 -80 -49 -24 -64 -85 -60 -1 -75 -18 -97 -81 -77 -84 -57 -19 -68 -27 -28 -30 0
24 9 11 15 55 30 32 26 63 27 16 83 97 58 18 88 61 3 50 47 45 22 5 48 28 68 7 29 44 89 -42 -79 -72 -39 -93 -65 -94 -1 -37 -70 -56 -82 -35 -67 -54 -91 -90 -51 -80 -38 -69 -2 0
2 53 33 96 0
37 5 39 88 43 2 60 18 25 11 20 83 71 7 40 70 14 50 96 69 63 28 26 62 31 3 89 90 97 15 67 94 79 29 22 30 86 72 34 21 -38 -45 -65 -48 -53 -80 -66 -36 -76 -68 -58 -9 -55 -6 -54 -42 -92 -13 -47 -91 -51 -27 -87 -75 -16 -10 -46 -77 -24 -73 -81 -56 -33 -4 -8 -32 -17 -78 -35 -61 0
44 76 46 58 70 93 45 9 51 55 18 91 92 50 60 38 75 87 77 83 81 66 53 12 23 35 29 68 30 64 40 2 -82 -13 -85 -86 -96 -59 -25 -33 -43 -84 -74 -32 -14 -95 -20 -61 -39 -6 -7 0
90 83 52 67 70 42 18 47 26 27 3 -76 -14 -66 -30 -49 -81 -63 -92 -55 -11 -45 -73 -32 -46 -8 -94 -96 -50 0
72 21 84 51 86 32 52 64 55 77 82 71 10 40 80 37 -7 -46 -36 -95 -2 -83 -5 -1 -19 -20 -78 -96 -6 -70 -38 -45 -61 -11 0
88 17 79 97 4 1 73 18 8 6 21 44 68 91 65 47 71 46 31 72 36 95 23 86 38 40 54 15 69 28 81 64 5 37 66 27 90 -50 -82 -25 -85 -63 -94 -19 -77 -2 -93 -16 -58 -55 -51 -45 -11 -53 -43 -32 -7 -83 -20 -60 -49 -87 -48 -30 -56 -67 -52 -75 -76 -26 -33 -74 -57 -78 -42 -59 -70 -29 -62 -80 -41 -34 -22 -12 -35 -24 0
15 39 33 92 66 11 62 10 71 1 84 82 85 4 21 55 22 30 57 35 18 90 56 27 80 60 3 87 75 9 7 64 81 37 8 24 28 31 -42 -61 -19 -76 -93 -26 -40 -91 -44 -6 -67 -95 -25 -43 -96 -29 -48 -50 -63 -47 -5 -94 -59 0
65 51 77 83 60 54 58 71 13 18 75 44 45 -94 -4 -12 -96 -46 -29 -16 -32 -22 -40 -64 -11 -66 -28 -87 -23 -80 -24 -20 0
13 39 33 50 22 43 12 7 37 26 41 38 45 59 53 20 55 83 54 27 92 35 67 23 8 6 5 78 3 11 58 56 87 52 51 90 31 10 79 97 17 88 77 84 49 -44 -91 -64 -85 -15 -14 -75 -62 -74 -2 -94 -32 -19 -30 -63 -82 -46 -73 -66 -89 -81 -21 -34 -48 -40 -86 -28 -71 -1 -47 -93 -76 -68 -25 -9 -80 -16 -60 -96 -18 -24 -42 -29 -36 0
74 88 46 89 51 15 52 81 94 62 42 1 17 18 22 16 40 55 93 96 7 2 82 60 67 12 58 8 69 44 84 57 66 9 36 91 32 56 53 14 19 39 61 41 30 79 -38 -83 -78 -6 -75 -10 -29 -70 -92 -4 -80 -64 -26 -97 -76 -71 -11 -21 -49 -3 -68 -23 -13 -86 -35 -73 -27 -24 -47 -59 -77 -43 -25 -54 -50 -63 -95 -65 -33 -5 -87 -34 -37 -20 -48 0
66 40 69 85 33 21 59 71 60 14 32 65 44 91 35 77 23 49 41 39 94 80 72 42 6 22 4 63 -3 -83 -37 -45 -1 -8 -95 -2 -61 -93 -30 -90 -51 -55 -26 -58 -16 -43 -53 -81 -96 -64 -38 -17 -11 -82 0
33 24 36 74 64 13 5 80 68 52 77 44 54 94 25 51 62 30 3 23 47 78 17 50 53 88 18 70 67 69 -63 -84 -75 -49 -6 -7 -76 -65 -31 -16 -27 -46 -29 -89 -66 -20 -41 -59 -56 -28 -71 -86 -38 -32 -11 -35 -55 -93 -92 -19 -79 -43 -48 -1 -9 -22 -15 -45 0
63 26 82 93 88 68 20 4 86 52 87 91 15 40 59 -7 -54 -62 -48 -14 -41 -45 -27 -81 -69 -36 -31 -13 -84 -28 -96 -6 -24 -57 0
81 44 -53 -70 0
9 56 40 41 76 35 88 25 50 95 93 33 87 -37 -47 -7 -15 -4 -80 -12 -52 -49 -10 -70 -44 -1 -85 -74 -65 -43 -72 -97 -73 -36 -48 -78 -14 -28 -94 0
15 97 58 16 96 35 2 6 53 70 -74 -50 -3 -17 -33 -54 -78 -11 -28 -18 0
-15 -17 -42 0
79 76 30 19 75 34 73 43 6 61 64 68 48 52 89 97 1 32 29 53 25 33 12 85 91 37 44 18 46 71 82 27 65 63 50 24 55 17 95 -51 -72 -40 -81 -39 -67 -92 -59 -84 -10 -80 -94 -45 -86 -58 -96 -35 -54 -31 -8 -42 -26 -62 -15 -78 -88 0
66 35 48 86 23 70 82 57 63 11 15 85 79 92 44 17 12 13 42 38 28 10 16 -54 -76 -24 -5 -67 -73 -65 -36 -52 -26 -84 -64 -8 -87 -40 -4 -18 -74 0
18 39 92 38 90 13 29 5 64 65 77 85 70 42 24 43 46 53 17 83 11 14 59 15 47 54 45 10 72 35 9 73 89 75 23 91 78 2 76 96 -58 -30 -20 -61 -82 -40 -36 -7 -62 -69 -95 -12 -74 -3 -80 -56 -1 -81 -37 -26 -22 -16 -33 -25 -66 -50 -31 -21 -86 -51 -19 -6 -44 -97 0
87 83 11 12 59 17 27 74 48 80 81 60 25 96 5 51 97 29 -31 -91 -75 -77 -2 -89 -45 -58 -82 -50 -39 -3 -95 -36 -57 -4 0
85 96 37 23 93 19 77 -57 -87 -48 -71 -91 -26 -75 0
16 18 58 41 21 95 84 92 89 65 86 2 79 74 64 4 87 85 46 26 12 24 17 13 40 8 67 10 52 27 55 7 94 -91 -42 -69 -83 -19 -62 -47 -71 -54 -53 -66 -93 -49 -9 -72 -32 -70 -82 -22 -43 -11 -25 -57 -23 -37 -1 -3 -36 -59 -6 -61 -35 -15 -76 -81 -51 -73 -44 -90 -28 -78 -30 -31 -39 -48 -45 -77 -97 -75 -96 -63 0
27 5 59 46 36 18 26 19 64 31 55 30 93 8 50 -29 -82 -20 -58 -61 0
76 42 27 47 75 13 54 38 -14 -28 -11 0
36 95 52 30 87 29 12 70 88 61 44 37 10 7 23 4 16 20 8 14 86 15 78 81 74 83 9 17 2 64 28 42 21 -56 -32 -79 -25 -71 -75 -45 -6 -11 -76 -66 -3 -41 -58 -18 -54 -59 -1 -50 -96 -67 -63 -35 -80 -39 -38 -47 -48 -92 -62 -91 -89 -31 -5 -46 -94 -84 -51 0
9 55 94 90 54 91 75 79 29 31 56 17 63 41 5 21 26 82 39 34 37 1 87 62 44 42 65 53 12 7 52 64 96 32 3 4 20 85 38 73 51 84 8 74 59 10 -76 -43 -89 -78 -92 -22 -28 -49 -45 -83 -2 -67 -40 -6 -48 -88 -15 -69 -19 -97 -71 -35 -33 -16 -23 -72 -46 -95 -50 -60 -57 -66 -13 -11 -70 -61 -93 -80 -68 -24 -27 -14 -81 -77 -25 -58 0
26 20 42 1 3 82 57 -21 -32 -70 -25 -54 -14 -46 0
82 71 -24 -77 -59 0
12 58 62 55 19 42 34 68 24 91 82 16 38 57 26 83 43 13 6 77 88 -72 -50 -89 -73 -36 -61 -71 -59 -30 -23 -10 -47 -74 -41 -33 -97 -96 -64 -8 -25 -69 -66 -85 -90 -3 -4 0
54 74 48 32 10 95 76 40 31 42 91 66 15 43 19 69 23 83 44 85 11 64 37 88 21 25 -9 -58 -14 -71 -3 -55 -97 -1 -20 -13 -45 -27 -26 -6 -41 -8 -86 -77 -56 -81 -33 -80 -28 -47 -39 -53 -65 -38 -73 -89 -60 -94 0
12 70 -56 -14 -62 -18 0
42 64 21 54 31 86 95 24 87 97 12 92 37 -84 -79 -34 -44 -46 -53 -20 -27 0
32 9 44 47 54 60 77 8 68 6 75 55 41 63 53 84 46 73 31 -83 -82 -95 -1 -97 -45 -35 -52 -40 -10 -15 -5 -78 -67 -76 -91 -81 -93 -24 -89 -23 0
82 48 57 12 6 25 77 94 2 84 72 -59 -83 -9 -71 -20 -49 -79 -66 -93 -32 -15 -96 -29 0
40 90 74 55 77 49 39 32 21 38 2 59 62 85 72 65 10 15 37 18 9 94 51 84 30 31 88 34 79 54 70 35 44 78 36 3 17 46 86 29 75 19 26 66 27 6 -71 -4 -82 -45 -12 -63 -93 -60 -20 -64 -56 -16 -28 -57 -43 -47 -25 -91 -89 -5 -83 -73 -95 -7 -87 -14 -69 -41 0
65 70 62 71 44 85 4 73 31 34 64 88 20 54 84 89 96 41 29 76 37 22 35 58 80 49 13 61 52 7 47 74 8 9 63 28 81 69 50 75 92 18 15 19 -16 -93 -27 -1 -95 -53 -94 -10 -57 -21 -39 -83 -97 -14 -46 -56 -3 -25 -66 -51 -17 -82 -38 -12 -90 -91 -32 -36 -78 -77 -86 -5 -87 -59 -68 -79 -40 -6 -72 -43 0
44 93 82 24 88 64 -87 -67 0
63 90 5 69 55 60 53 28 83 45 2 64 94 -70 -85 -58 -19 -77 -68 -92 -31 0
26 24 49 45 27 76 46 2 41 33 16 92 37 77 44 48 11 30 88 -13 -85 -89 -66 -57 -15 -95 -90 -5 -55 -63 -64 -12 -60 -1 -81 -25 0
81 92 32 37 94 97 22 71 27 93 14 85 11 8 68 82 12 56 78 -25 -45 -83 -64 -26 -19 -62 -96 -74 -43 -55 -87 -6 -47 -28 -35 -70 -41 -79 -65 -63 -84 -18 -33 -50 -58 -90 -2 -76 -75 -46 0
87 56 15 58 61 11 32 59 83 91 75 53 86 92 52 79 9 67 13 26 36 41 82 95 16 63 17 81 30 7 78 22 44 60 66 25 43 14 70 28 97 -12 -84 -8 -20 -68 -31 -27 -1 -65 -57 -37 -96 -19 -54 -5 -94 -55 -73 -42 -29 -71 -18 -88 -24 -50 -10 -23 -76 -4 -64 -38 -34 -62 -90 -49 -85 -89 -40 -77 -51 -21 -33 -69 -46 -48 -3 -93 -35 0
30 97 29 13 43 79 86 62 75 84 34 71 89 95 -22 -87 -59 -28 -83 -88 -48 -32 -93 -17 -19 -64 -61 -72 0
56 10 42 30 68 34 44 65 89 66 67 72 18 14 70 -80 -60 -74 -31 -54 -76 -11 -83 0
3 68 97 53 12 16 44 29 54 30 73 26 11 9 15 34 42 84 7 85 49 59 4 65 50 92 5 63 95 90 -41 -55 -62 -78 -24 -71 -81 -10 -39 -19 -52 -21 -93 -70 -31 -86 -47 -14 -2 -28 -8 -69 -27 -20 -96 -89 -13 -67 -83 -72 0
62 39 44 32 42 18 71 54 19 24 83 63 1 41 46 87 21 5 7 93 17 37 70 66 95 47 9 26 89 22 74 28 13 49 76 78 12 -48 -58 -65 -20 -94 -36 -14 -29 -6 -61 -72 -23 -30 -57 -2 -53 -50 -79 -34 -96 -51 -45 -69 -82 -67 -11 -80 -10 -97 -75 -68 -90 -88 -56 -85 -35 -84 -8 -43 -3 -38 -77 0
90 20 57 9 81 54 5 35 43 96 17 79 38 97 26 3 47 75 63 7 13 23 4 42 71 10 86 41 22 31 77 83 34 67 70 27 82 30 94 -61 -29 -52 -91 -32 -64 -95 -11 -6 -55 -66 -68 -25 -69 -92 -65 -44 -40 -1 -18 -74 -46 -50 -15 -80 -36 -48 -84 -93 -85 -24 -21 -12 -62 -51 -16 -53 -56 -2 -45 -37 -8 -19 -89 -73 -58 -28 -72 -88 0
14 25 20 41 46 23 89 18 88 65 44 9 21 5 92 26 19 55 11 84 47 2 -28 -79 -51 -96 -45 -32 -7 -76 -36 -59 -33 -29 -31 -78 -68 -90 -87 -6 -61 -10 -81 -38 -22 -80 -75 -53 -70 -91 -17 -69 -82 -42 0
90 19 6 23 15 26 47 81 71 17 64 94 86 74 44 61 7 48 20 80 43 84 4 11 8 45 25 5 41 68 85 92 63 77 18 91 29 70 3 12 50 10 -79 -96 -67 -52 -72 -55 -78 -49 -36 -30 -35 -16 -59 -54 -42 -82 -31 -34 -22 -27 -33 -69 -28 -38 -87 -89 -65 -1 -76 -97 -24 -2 -40 -32 -93 -95 -53 -39 -83 -37 -88 0
81 72 67 30 40 31 36 59 21 73 69 77 74 2 50 42 58 60 94 25 97 75 86 41 16 52 10 62 71 64 87 48 7 -3 -1 -17 -79 -39 -38 -89 -6 -43 -47 -11 -83 -91 -24 -4 -9 -63 -66 -78 -80 -37 -65 -85 -12 -14 -92 -54 -82 -26 -22 -19 -96 -61 -35 -49 0
14 25 28 82 94 44 18 29 85 50 4 74 7 10 3 77 33 5 88 84 38 30 59 -97 -65 -19 -66 -69 -52 -61 -81 -58 -56 -49 -26 -62 -93 -64 -36 -34 -39 -95 -42 -1 -13 -40 0
16 9 44 79 27 8 83 18 88 15 61 32 86 78 58 75 60 97 23 28 11 40 55 85 84 41 34 1 52 45 92 43 64 21 69 6 39 68 47 95 90 31 38 2 3 -82 -50 -30 -70 -93 -13 -35 -5 -10 -63 -59 -22 -37 -65 -74 -20 -94 -33 -77 -7 -67 -14 -62 -57 -36 -19 -46 -56 -87 -73 -26 -54 -71 -29 -49 -72 -89 -80 -91 -24 -51 0
35 21 9 67 1 90 78 13 43 71 84 22 37 39 58 12 46 75 16 89 7 29 96 -33 -45 -59 -94 -81 -77 -82 -27 -74 -54 -70 -51 -18 -4 -6 -55 -68 -83 -8 -42 -66 -86 -69 0
22 2 96 75 45 38 14 9 7 88 23 -62 -79 -92 -30 -4 -1 -19 -36 -31 0
71 65 21 22 86 31 26 34 8 4 20 5 29 17 53 74 45 78 18 1 59 36 12 15 46 35 27 -42 -82 -87 -50 -9 -93 -89 -79 -84 -63 -47 -49 -97 -13 -81 -88 -68 -40 -96 -67 -85 -75 -76 -94 -6 -10 -64 -32 -23 -30 -80 0
7 16 1 79 39 46 62 38 4 71 90 54 18 12 19 44 52 61 37 15 69 97 32 89 22 83 73 34 88 82 35 92 59 94 86 64 80 65 76 43 -30 -33 -85 -91 -57 -93 -11 -75 -50 -25 -55 -67 -78 -36 -3 -87 -31 -6 -41 -2 -48 -40 -84 -45 -42 -63 -9 -26 -60 -29 -8 -58 -13 -96 -14 -66 -24 -17 -20 -10 -56 -21 -77 -27 -72 -23 -74 -49 -47 -81 0
68 28 7 1 16 3 83 59 35 47 66 54 30 -29 -17 -69 -23 -64 -76 -56 -10 -41 -53 -94 -39 -48 -96 -8 0
58 18 71 16 47 49 36 94 -57 -40 -38 -50 -2 -90 -23 -67 -51 -45 -86 -69 -93 0
94 23 95 5 90 14 76 22 71 68 32 34 11 77 53 40 24 33 35 61 63 8 83 81 20 65 82 92 25 10 48 36 3 -84 -73 -52 -1 -41 -45 -21 -85 -17 -18 -19 -4 -28 -64 -51 -72 -86 -78 -60 -56 -30 -93 -74 -49 -13 -27 -50 -55 -47 -58 -26 -39 0
26 44 49 2 24 63 58 52 66 75 67 29 64 35 54 15 56 16 51 77 84 3 45 31 72 59 -1 -28 -39 -5 -55 -48 -50 -95 -62 -20 -69 -18 -60 -68 -65 -9 -33 -81 -73 -93 -88 0
95 42 29 73 85 19 79 72 12 91 58 71 27 26 23 62 21 15 64 89 82 83 63 81 92 4 48 2 20 69 80 8 53 70 60 30 47 39 90 49 55 6 74 -43 -16 -9 -18 -24 -86 -37 -35 -40 -59 -68 -25 -7 -1 -41 -44 -13 -32 -67 -93 -31 -97 -87 -56 -57 -88 -96 -11 -51 -66 -77 -75 -5 -46 -17 -28 -34 -76 -10 -54 -14 0
1 13 82 44 25 77 4 29 68 81 21 65 53 88 45 9 23 40 22 46 52 91 3 36 20 72 55 39 80 79 89 -51 -33 -83 -17 -42 -61 -85 -94 -57 -8 -38 -97 -49 -24 -15 -59 -31 -32 -76 -74 -54 0
35 31 56 39 14 95 94 74 1 81 49 78 -23 -96 -82 -92 -46 -91 -22 -36 -34 -85 -6 -17 -97 -26 -27 -87 0
90 68 91 34 48 42 96 80 47 26 21 35 58 8 52 39 76 62 85 88 -5 -2 -71 -75 -31 -77 -7 -66 -84 -29 -54 -33 -79 -83 -9 0
36 3 43 83 76 12 23 69 38 48 93 58 -88 -54 -6 -74 -80 -85 -70 -34 -77 -40 -66 -94 -41 -28 -9 -62 -50 -10 -75 0
63 95 91 5 44 65 35 36 58 4 59 52 1 9 68 88 69 75 6 2 55 33 10 27 61 16 46 96 29 71 82 31 24 93 11 92 38 84 45 -20 -18 -72 -32 -77 -97 -21 -50 -30 -74 -23 -62 -67 -7 -66 -40 -83 -15 -19 -48 -8 -12 -25 -54 -14 -86 -85 0
20 11 7 88 -3 -28 -24 -45 -12 -81 -41 0
42 54 47 11 26 85 80 35 92 78 79 74 96 48 91 18 46 49 68 -37 -52 -1 -43 -16 -61 -31 -71 -82 -41 -15 -95 -44 -50 -14 -34 -53 -45 0
19 69 71 42 65 62 45 41 11 10 52 59 82 56 33 60 38 26 77 68 73 46 16 12 -97 -22 -63 -75 -72 -83 -96 -92 -23 -64 -91 -55 -35 -93 -78 -86 -58 -51 -2 -29 -85 -61 -84 -80 -89 -21 -50 -94 -70 -13 0
11 65 4 76 26 36 62 19 15 22 31 23 78 67 91 50 56 12 37 10 2 90 39 3 64 1 41 27 24 52 53 95 92 89 25 51 86 35 82 9 6 42 83 -18 -85 -40 -74 -63 -55 -97 -34 -84 -79 -73 -17 -33 -29 -72 -14 -77 -13 -49 -93 -68 -30 -32 -58 -46 -16 -44 -88 -7 -43 -94 -96 -21 -80 -60 -8 -75 -59 -45 -81 -48 -71 -57 -5 -70 -69 -47 -28 -20 0
15 40 22 97 1 66 33 64 82 71 55 75 68 23 32 67 56 95 86 61 29 3 62 44 54 30 5 9 41 24 63 12 79 27 49 37 43 -89 -77 -93 -57 -91 -70 -58 -21 -73 -76 -7 -83 -4 -80 -92 -48 -45 -96 -59 -13 -42 -72 -19 -18 -94 -2 -90 -53 -16 -52 -34 -78 -81 -51 -60 -8 -88 -14 -17 0
63 40 55 24 64 34 25 13 75 18 54 79 78 6 91 60 33 49 23 37 66 8 -52 -7 -87 -56 -73 -74 -81 -82 -88 -22 -92 -70 -35 -83 -86 0
70 85 48 82 66 5 43 11 21 36 78 94 56 77 42 65 -25 -15 -14 -35 -59 -31 -40 -79 -22 -19 -26 -44 -18 -49 -55 -72 -29 -2 0
8 96 56 28 77 13 84 -34 -23 -37 -6 -15 -16 -61 -78 -79 -42 -63 -89 -4 0
31 95 19 1 85 69 58 76 91 78 33 16 18 8 55 86 97 2 50 92 17 84 -15 -24 -68 -45 -12 -20 -48 -80 -30 -96 -93 -75 -23 -47 -22 -79 -46 -6 -36 -67 -44 -5 0
72 89 49 26 33 7 65 12 35 39 62 8 32 28 36 75 83 63 66 34 95 55 64 2 -88 -70 -47 -11 -23 -15 -56 -3 -86 -82 -97 -17 -68 -21 -91 -74 -1 -29 -4 -79 -38 -9 -85 -60 -5 -24 -87 -96 -52 -48 -53 -94 -42 -14 -10 -20 -45 -54 0
69 67 2 9 14 28 50 1 32 17 78 63 76 77 -49 -56 -90 -81 -62 -23 -57 -22 -88 -4 -42 -25 -58 -84 -59 -29 -94 -74 -82 -54 -19 0
66 56 20 43 47 81 36 71 97 50 -14 -29 -15 -16 -85 -83 -63 -11 -25 -17 -88 -73 -67 -7 -78 0
65 81 89 77 12 61 19 71 33 26 25 57 63 93 74 62 41 1 60 72 91 43 96 3 21 86 8 23 69 49 13 85 90 56 36 47 9 76 -50 -58 -53 -39 -78 -48 -37 -6 -54 -70 -94 -92 -30 -4 -17 -24 -66 -22 -68 -95 -45 -34 -87 -18 -14 -79 -29 -11 -97 -35 -84 -2 0
93 16 87 10 64 70 83 77 76 63 84 11 49 81 32 59 75 80 42 26 86 -65 -9 -96 -15 -7 -73 -36 -43 -21 -30 -58 -45 -92 -48 -82 -39 -13 -94 -60 -47 -97 -4 -91 -8 0
7 49 28 54 66 96 83 95 71 57 13 5 35 64 38 65 47 1 22 14 39 25 94 67 91 90 43 15 -41 -2 -62 -12 -78 -84 -93 -32 -69 -33 -74 -27 -26 -3 -24 -87 -63 -86 -20 -40 -77 -97 -58 -60 -19 -72 -51 -46 -53 0
40 37 63 33 2 12 54 38 67 60 91 94 46 76 14 66 51 64 58 13 25 43 82 35 4 6 65 96 27 48 22 -17 -28 -84 -26 -57 -39 -77 -81 -78 -21 -55 -45 -42 -29 -20 -15 -5 -62 -71 -89 -30 -79 -10 -73 -8 -53 -41 -18 -11 -32 -56 -3 -97 -34 -86 -70 -16 -31 -49 -59 0
62 5 54 43 38 96 29 92 90 28 86 53 -64 -82 -93 -57 -16 -2 -63 -13 -12 -89 -42 -56 -73 -49 -19 -74 -81 -6 -27 0
5 37 94 54 44 41 64 75 17 -8 -61 -19 -14 -7 -13 -70 -4 -10 -93 -60 -15 -20 -50 -2 -42 -1 0
23 24 31 59 62 84 47 17 1 37 42 22 80 39 36 54 -3 -69 -81 -97 -21 -40 -18 -26 -48 -68 -65 -11 -15 -9 -85 -44 -50 -74 -66 -35 -7 0
10 29 63 51 30 9 41 58 16 90 5 8 37 92 33 59 84 11 55 12 88 67 45 28 22 -26 -25 -53 -18 -66 -40 -94 -32 -49 -75 -74 -87 -54 -79 -95 -39 -80 -17 -4 -91 -97 -73 -61 -86 -46 0
80 68 86 32 89 41 23 82 75 95 97 18 78 85 81 92 40 13 33 39 28 56 96 15 76 2 20 59 35 51 47 87 19 55 61 17 30 91 31 64 94 9 11 50 58 16 71 5 -10 -36 -34 -44 -90 -63 -37 -43 -54 -65 -38 -6 -24 -29 -22 -49 -3 -69 -8 -77 -14 -48 -26 -25 -12 -52 -72 -67 -88 -45 -66 -4 -93 -21 -70 -57 -42 -46 -60 -27 -84 -83 -7 -79 -62 0
80 64 35 7 93 12 34 65 62 83 -92 -48 -75 -85 -45 -53 -31 -2 -29 -87 -14 -82 -20 -16 -42 0
74 59 50 15 91 9 64 53 57 27 35 28 45 19 81 30 84 39 21 34 95 72 -76 -56 -80 -93 -49 -69 -68 -17 -89 -46 -29 -33 -67 -16 -79 -10 -3 0
90 86 41 39 42 71 8 30 76 37 -26 -43 -13 -60 -4 -82 -21 0
31 5 42 16 73 4 88 57 18 56 19 11 67 59 63 78 34 12 54 21 80 66 87 35 70 49 96 -30 -23 -7 -10 -89 -85 -58 -51 -91 -25 -3 -75 -77 -84 -48 -97 -74 -45 -64 -41 -37 -32 -69 -82 -46 -39 -90 -36 -81 -40 -13 -29 -27 -83 -55 -43 -61 -52 -17 -24 -20 -68 0
91 67 33 8 41 16 18 31 68 30 86 46 66 45 17 77 10 40 44 96 28 35 87 12 4 51 95 59 70 56 23 13 88 3 43 32 14 36 60 73 1 34 25 26 97 39 -50 -64 -93 -29 -82 -52 -85 -27 -9 -62 -92 -19 -61 -6 -15 -65 -90 -48 -47 -58 -89 -42 -57 -37 -69 -80 -71 -78 -84 -2 -74 -75 -5 -22 0
46 25 60 73 37 55 28 84 70 41 8 33 15 -74 -16 -85 -53 -35 -82 -68 -94 -20 -48 -14 -79 -50 -81 -61 -91 0
22 42 64 11 69 40 96 79 90 94 38 55 95 87 59 66 67 19 70 10 26 12 41 74 25 31 97 71 92 47 81 18 4 27 85 34 62 21 15 83 89 78 24 8 54 1 86 76 14 -28 -52 -80 -13 -56 -17 -49 -39 -63 -16 -58 -51 -9 -2 -6 -45 -23 -7 -36 -33 -91 -44 -72 -77 -57 -32 -82 -37 -65 -5 -88 -53 -30 -46 -93 -50 -68 -84 -3 0
2 76 83 71 90 35 50 51 66 16 22 14 41 -39 -6 -75 -49 -15 -68 -44 -36 -63 -11 -27 -72 -94 -85 -3 -29 -46 0
30 52 45 37 78 5 86 19 4 -48 -17 -74 -20 -38 -21 -65 -12 -79 -2 -93 -11 -94 -85 -26 -54 -55 0
19 80 93 61 66 78 65 28 58 74 24 46 16 21 29 83 3 43 37 33 60 35 77 12 7 45 17 96 68 -6 -72 -11 -4 -95 -47 -57 -84 -22 -63 -10 -32 -26 -41 -52 -36 -67 -31 -71 -89 -2 -79 -64 -87 -91 -49 -42 0
11 73 71 63 10 89 92 77 50 95 85 56 79 76 48 80 93 58 27 39 -32 -49 -5 -9 -65 -22 -29 -38 -66 -83 -68 -61 -82 -97 -17 -35 -41 -6 -51 -54 -53 -20 -69 -60 -74 -4 -15 -40 0
-25 -33 -74 0
24 70 95 72 79 56 3 58 78 74 28 90 64 80 30 68 13 47 93 66 97 50 32 92 23 18 49 62 31 34 20 39 73 89 42 15 67 7 48 16 81 26 38 -36 -17 -21 -55 -1 -59 -43 -29 -87 -46 -53 -63 -85 -69 -86 -91 -57 -25 -41 -96 -83 -65 -52 -84 -94 -61 -60 0
74 21 15 27 37 92 82 33 88 70 61 44 53 54 10 3 52 58 46 51 91 6 14 36 19 47 43 95 39 2 96 86 73 66 25 42 -79 -24 -64 -69 -83 -1 -77 -57 -50 -75 -12 -20 -85 -17 -68 -97 -63 -89 -81 -35 -4 -29 -7 -94 -48 -41 -45 -31 -32 -71 -23 -56 -59 -34 -9 -38 -93 -13 -5 -18 -30 -49 -76 -90 -87 -78 -26 -62 -60 -40 -72 0
31 82 8 97 38 22 10 16 17 41 76 1 67 89 57 79 9 42 78 2 44 12 88 18 51 69 37 53 40 32 80 39 35 30 43 62 28 74 84 96 48 83 60 -54 -33 -15 -6 -66 -77 -7 -25 -3 -4 -72 -68 -70 -94 -29 -23 -26 -27 -59 -36 -21 -47 -20 -92 -63 -52 -45 -81 -87 -73 -50 -65 -49 -61 -71 -5 -14 0
25 65 94 2 74 -41 -44 -66 -77 -7 -34 -85 -55 -17 0
92 40 54 88 48 93 94 75 51 43 67 59 14 15 60 79 19 -89 -49 -68 -36 -3 -91 -52 -1 -24 -69 -8 -27 -22 -25 -66 -44 -45 -56 -78 -28 0
23 71 53 36 48 89 56 15 2 16 33 43 82 68 94 3 29 26 69 95 50 46 90 76 -62 -5 -80 -73 -97 -12 -9 -57 -81 -31 -14 -79 -38 -58 -11 -32 -74 -13 -30 -55 -39 -60 -70 -72 0
76 86 41 4 70 58 14 2 64 37 74 30 90 45 24 77 88 91 50 16 81 28 22 78 79 21 84 8 59 44 47 9 65 6 60 63 35 71 97 12 69 36 25 39 -52 -10 -61 -49 -80 -87 -96 -57 -15 -93 -95 -32 -19 -17 -7 -85 -34 -29 -83 -53 -5 -3 -67 -20 -38 -1 -82 -13 -55 -51 -26 -46 -92 -54 -23 -72 -73 -68 -40 -94 -56 -31 -89 -48 -43 -42 -11 -27 0
96 6 86 31 90 85 24 23 11 70 25 69 43 26 36 34 42 78 44 40 27 66 62 16 71 -63 -55 -83 -67 -28 -33 -56 -89 -76 -61 -82 -97 -41 -73 -91 -87 -8 -22 -58 -54 -77 -45 -94 -64 -51 -74 -30 -3 -80 0
52 2 46 84 6 80 68 18 61 44 42 95 1 89 96 55 32 23 34 -4 -36 -25 -66 -3 -75 -26 -93 -73 -15 -31 -50 -16 -28 -43 -70 -22 -20 -97 -5 -19 -83 -24 -56 -48 -92 -63 0
21 86 54 93 37 53 13 9 24 23 56 -19 -4 -11 -1 -22 -43 -60 -83 -69 -17 -50 -81 -85 -45 -63 -74 0
35 36 69 6 85 87 37 9 77 66 42 56 81 52 60 -72 -39 -49 -97 -41 -67 -70 -51 -22 -79 -33 -27 -95 -13 -43 0
24 41 11 79 33 97 32 53 62 60 25 9 67 35 48 18 47 66 94 20 63 68 31 59 95 1 55 28 43 13 74 8 58 3 83 82 42 64 38 45 21 -65 -69 -80 -52 -23 -12 -96 -40 -86 -56 -89 -14 -54 -51 -84 -72 -36 -15 -29 -39 -2 -6 -16 -61 -46 -91 -26 -87 -78 -22 -5 -77 -19 -71 -92 -75 -27 0
35 60 8 24 55 37 23 70 7 4 28 19 34 25 80 79 59 42 33 66 14 15 89 84 10 43 -72 -2 -32 -74 -17 -29 -52 -49 -31 -91 -61 -93 -38 -13 -69 -85 -16 -96 -27 -11 -51 -21 -41 -88 -82 -63 -68 -5 -75 -81 -94 -54 -90 0
48 13 38 47 18 69 64 61 4 94 15 55 11 26 37 70 78 28 79 32 40 41 10 83 42 43 51 65 17 81 50 60 22 5 9 88 75 31 30 44 87 62 -74 -77 -56 -45 -95 -90 -19 -52 -2 -93 -53 -57 -27 -1 -35 -20 -36 -12 -24 -6 -21 -29 -54 -63 -68 -96 -16 -92 -71 -49 -23 -46 -76 -25 -80 -34 -33 -97 -58 -3 -72 -82 -84 -73 -7 -66 -59 -67 -91 -85 -89 -14 -86 0
85 40 0
22 56 8 88 85 29 96 76 78 77 80 72 23 18 54 27 83 25 46 90 20 55 24 9 63 37 69 75 64 60 65 3 31 47 51 79 42 40 38 32 5 19 2 36 49 48 -82 -61 -14 -11 -66 -71 -87 -57 -52 -45 -16 -93 -89 -73 -68 -26 -6 -10 -28 -67 -15 -41 -92 -1 -81 -50 -58 -34 -43 -7 -70 -62 -74 -95 -84 -17 -35 0
44 67 11 46 4 49 71 8 19 73 34 54 70 -6 -27 -76 -47 -64 -93 -58 -25 -21 -83 -68 -42 -40 -2 -89 -97 -77 -63 -26 -18 0
78 94 20 46 70 3 93 35 1 7 87 12 88 89 69 54 26 43 6 66 8 77 19 82 21 48 2 45 49 28 95 25 53 34 85 15 4 30 55 39 60 -62 -47 -75 -14 -74 -58 -41 -32 -76 -9 -11 -61 -16 -80 -29 -42 -5 -92 -24 -17 -72 -91 -52 -86 -23 -40 -33 -59 -36 -27 -83 -50 -22 -13 -56 -65 -96 -84 -67 -10 -37 0
37 84 70 83 78 11 16 30 20 63 92 1 14 19 60 89 4 8 73 43 82 72 46 62 7 2 42 69 53 88 54 36 33 52 25 66 97 77 91 81 39 26 40 15 -18 -64 -74 -5 -22 -28 -76 -50 -94 -29 -48 -61 -21 -86 -41 -9 -96 -45 -90 -13 -95 -35 -85 -87 -34 -57 -59 -3 -47 0
13 75 41 11 32 48 2 5 19 29 23 1 44 14 4 88 94 66 52 46 68 25 27 16 72 50 3 31 21 51 69 78 58 82 62 74 93 89 71 -28 -54 -24 -61 -80 -53 -9 -91 -70 -67 -65 -83 -79 -97 -55 -87 -10 -77 -40 -22 -7 -45 -39 -35 -30 -34 -56 -12 -85 -17 -26 -73 -92 -57 -47 -64 -95 -43 -37 -38 -20 0
80 42 65 86 40 3 72 73 71 31 48 47 18 33 26 7 23 63 57 9 53 61 21 79 -49 -35 -69 -2 -85 -8 -70 -16 -27 -24 -36 -90 -97 -59 -30 -46 -88 -77 -76 -19 -91 -37 -78 -51 -94 -17 0
94 67 73 47 76 69 79 90 10 18 44 61 85 29 21 7 42 54 24 43 80 -17 -27 -74 -55 -3 -16 -11 -71 -72 -39 -96 -63 -12 -6 -26 -36 -77 -93 -83 -68 -51 -50 -53 -20 -1 -62 -33 0
87 8 82 55 44 70 3 24 62 71 48 29 12 39 25 2 37 85 66 36 68 89 50 73 6 38 64 18 95 13 56 20 69 80 -94 -63 -16 -57 -58 -93 -92 -41 -15 -27 -75 -14 -65 -81 -17 -31 -4 -54 -9 -21 -22 -84 -74 -10 -33 -19 -46 -88 -59 -7 -1 -49 -97 -83 -43 -30 -60 -78 -77 -23 0
33 47 93 36 54 86 56 90 19 78 71 6 83 3 72 -94 -62 -37 -35 -26 -91 -13 -28 -74 -11 -87 -84 -69 -51 -55 -10 -80 -2 -30 -88 -77 -67 -92 -49 -17 -16 -5 -15 -12 -82 -68 -31 0
27 65 29 86 83 9 7 49 41 2 11 92 84 59 25 20 47 4 56 14 40 76 70 36 19 94 22 75 -31 -51 -46 -73 -15 -64 -63 -66 -52 -57 -97 -96 -43 -44 -90 -21 -53 -54 -6 -85 -5 0
60 91 38 75 2 47 3 97 95 68 43 27 28 4 40 76 88 7 94 30 42 26 49 6 18 16 82 71 52 8 -36 -81 -1 -12 -63 -59 -21 -45 -32 -73 -79 -83 -29 -51 -31 -50 -56 -85 -84 -61 -39 -10 -35 -5 -22 -54 -86 -57 -13 -74 -93 -48 0
82 96 25 0
82 29 25 81 40 45 33 68 95 49 50 87 18 41 31 96 79 32 80 67 8 56 83 84 70 63 75 37 93 78 46 64 21 59 16 36 11 65 -89 -24 -23 -7 -54 -76 -42 -73 -58 -85 -9 -43 -28 -47 -14 -2 -77 -22 -62 -27 -1 -60 -97 -71 -4 -3 -88 -66 -35 -94 -57 -55 -72 -90 -20 -44 -91 0
75 47 29 42 80 35 49 51 62 93 7 12 86 79 84 59 58 53 48 11 39 1 54 46 -92 -57 -73 -55 -30 -56 -31 -67 -97 -21 -91 -81 -22 -26 -10 -6 -25 -4 -78 -82 -83 -77 -17 -60 -72 -95 -32 -8 -94 0
7 3 62 84 26 45 14 92 18 5 -77 -52 -20 -85 -49 -2 -32 -68 -44 -87 -81 0
80 8 83 52 38 37 41 56 51 28 94 46 9 77 -11 -36 -44 -97 -2 -25 -20 -5 -13 -85 -76 -82 -24 -22 -59 -62 -78 -93 -68 -58 -86 0
21 89 93 65 79 73 56 60 31 61 52 66 -81 -10 -44 -94 -12 -24 -84 -91 -69 -35 -80 -72 -70 -47 -16 -96 -97 -9 -13 -95 -46 -23 -85 0
2 31 20 95 55 60 70 41 51 18 -12 -93 -21 -79 -37 -52 -84 -19 -10 -71 -90 0
74 61 86 50 96 28 64 84 32 15 65 33 82 81 54 38 31 83 57 95 4 78 22 44 76 51 2 -67 -62 -5 -40 -10 -60 -72 -36 -30 -77 -6 -52 -41 -35 -91 -49 -53 -63 -23 -17 -79 -87 -92 -3 -69 -18 0
47 15 33 16 35 13 20 39 17 1 50 -38 -31 -81 -4 -30 -36 -95 -27 -78 -48 -51 -92 -59 -6 -11 -44 -55 -56 0
16 23 74 61 33 49 24 83 21 17 47 18 58 66 94 59 79 92 30 8 48 73 12 81 20 72 29 80 93 78 4 36 3 85 38 97 77 88 28 13 31 1 60 41 67 -42 -34 -70 -87 -54 -7 -51 -5 -32 -2 -14 -11 -63 -56 -52 -96 -91 -39 -19 -22 -6 -10 -35 -75 -50 -40 -45 -90 -9 -15 -53 -46 -62 -71 -84 -69 -25 -55 -43 -26 -64 -86 -44 -57 -68 -76 -65 -82 -27 0
77 93 84 30 80 32 -57 -76 -8 -14 -52 -22 -81 0
85 65 12 46 63 5 70 44 62 68 38 71 87 21 26 20 73 40 -32 -78 -14 -33 -72 -19 -54 -18 -64 -89 -48 -45 -84 -22 -25 0
60 28 23 75 79 65 24 15 26 8 38 48 47 21 10 94 27 11 92 40 74 84 63 70 77 43 17 13 67 61 52 12 93 73 69 56 -51 -86 -81 -54 -42 -36 -96 -87 -5 -64 -31 -2 -58 -78 -88 -20 -1 -7 -46 -37 -32 -68 -49 -50 -22 -57 -62 -76 -35 -34 -45 -4 -41 -29 -82 -18 -72 -71 -33 -16 -80 -97 -30 -90 -19 0
93 32 74 52 84 13 79 67 44 -97 -54 -77 -14 -7 -60 -87 -72 -35 -18 -28 -43 -46 -59 -88 -3 0
34 60 19 80 46 32 20 66 15 58 92 75 27 43 89 8 61 95 35 6 70 12 78 -73 -64 -31 -54 -69 -72 -84 -9 -55 -16 -90 -76 -62 -37 -91 -11 -10 -53 -59 -33 -77 -82 -23 -22 -14 -86 -42 -39 -2 -71 -88 -38 -68 -56 0
94 11 67 95 45 76 75 40 56 90 42 97 74 31 83 44 38 25 82 50 12 91 26 61 21 46 54 73 47 65 53 3 4 15 37 66 20 79 81 34 16 51 36 93 43 80 57 22 6 84 -17 -78 -18 -10 -87 -58 -32 -88 -35 -55 -85 -77 -64 -69 -2 -60 -48 -23 -39 -24 -7 -89 -28 -52 -49 -5 -30 -86 -71 -68 -72 -19 -59 -33 -62 -63 -27 -9 -8 -29 -13 -1 -41 -70 0
7 57 68 65 12 9 92 64 94 45 58 73 89 86 14 33 96 51 20 67 88 8 75 90 74 44 26 66 5 13 46 79 27 -50 -36 -43 -19 -34 -28 -39 -53 -85 -38 -81 -31 -22 -70 -2 -21 -82 -42 -78 -72 -80 -71 -62 -35 -77 -47 -41 -84 -76 -61 0
29 13 48 66 86 76 51 1 39 74 61 58 62 82 80 47 45 -32 -56 -70 -60 -38 -25 -71 -63 -15 -35 -94 -65 -4 -42 -68 -24 -6 -33 -78 0
79 96 63 4 5 69 52 85 61 86 89 77 81 38 3 58 94 10 72 92 76 54 9 33 44 64 49 13 23 2 68 -70 -51 -60 -87 -80 -24 -66 -11 -27 -67 -73 -41 -31 -55 -34 -97 -91 -93 -14 -35 -84 -40 -62 -53 -18 -30 -83 -16 -88 -21 -39 -1 -48 -19 -29 0
54 19 44 90 3 45 72 35 21 18 36 29 17 76 6 77 86 79 32 55 56 88 62 42 83 49 30 23 78 31 70 25 24 59 20 46 67 5 22 -47 -81 -26 -16 -38 -92 -51 -12 -10 -33 -9 -69 -7 -43 -14 -15 -41 -87 -27 -63 -68 -84 -52 -58 -50 -74 -80 -60 -93 -8 -11 -73 -48 -95 0
15 19 55 79 41 49 36 46 44 96 10 92 74 6 84 28 35 77 9 34 59 73 81 91 66 -71 -27 -48 -38 -51 -4 -61 -69 -1 -75 -76 -23 -25 -64 -21 -7 -42 -53 -33 -97 -88 -11 -2 -94 -56 -60 0
71 73 75 81 60 76 54 56 44 69 26 49 93 72 10 20 36 78 70 -42 -92 -48 -58 -31 -59 -32 -21 -12 -9 -7 -15 -19 -68 -62 -96 -43 -89 -94 0
84 5 65 39 15 91 32 69 16 60 77 34 53 13 85 74 50 40 37 96 35 92 9 43 72 41 54 -56 -59 -94 -7 -88 -67 -93 -22 -25 -79 -3 -82 -73 -28 -81 -27 -51 -4 -31 -90 -86 -64 -11 -57 -68 -63 -30 -75 -46 -87 -26 -89 -48 -10 0
97 42 12 26 20 41 47 84 82 40 86 54 62 75 11 14 58 1 71 63 23 56 96 45 50 87 37 93 92 15 51 64 4 3 5 16 -60 -68 -44 -32 -53 -18 -65 -88 -59 -34 -61 -48 -27 -8 -74 -81 -73 -76 -10 -72 -91 -52 -90 -49 -7 -77 -22 -94 -57 -55 -13 -95 -35 -33 -38 -83 -79 -17 -6 -85 -19 -66 -67 -28 -89 -9 -2 -31 -80 0
57 12 94 36 64 83 37 75 9 58 7 87 25 10 65 80 21 67 14 90 91 82 16 38 63 59 71 6 26 55 -78 -54 -93 -53 -77 -31 -52 -30 -48 -88 -34 -40 -4 -17 -79 -70 -23 -81 -84 -27 -32 -89 -74 -72 -35 -28 -33 -20 -8 -24 -29 -76 -1 -46 0
78 6 97 5 23 44 19 8 9 64 89 34 21 48 45 14 84 50 77 94 80 32 2 72 16 68 95 62 75 27 71 93 82 49 59 -76 -4 -31 -18 -12 -54 -39 -47 -3 -20 -51 -52 -69 -28 -90 -74 -55 -30 -15 -29 -41 -56 -33 -40 -38 -36 -86 -66 -61 -81 -65 -42 -46 -43 -26 -92 -73 -10 0
67 32 43 83 65 21 68 59 93 60 51 66 47 6 86 40 89 -55 -19 -53 -94 -33 -90 -11 -88 -1 -13 -87 -2 -8 -97 -20 -76 -85 -64 0
67 1 7 -11 -30 0
75 39 20 16 95 73 78 28 21 70 35 41 50 17 68 34 1 14 72 11 44 91 4 24 9 10 83 19 63 76 56 3 43 26 58 57 82 81 46 -80 -18 -48 -47 -87 -69 -22 -6 -29 -66 -40 -93 -54 -36 -90 -64 -62 -8 -94 -52 -84 -15 -65 -7 -31 -79 -38 -77 -51 -92 -45 -42 -71 -96 -86 -49 0
90 68 13 9 8 -3 -81 -83 -24 -71 0
40 65 81 54 5 53 64 3 44 77 94 62 33 34 8 82 36 76 49 10 27 39 13 26 31 52 72 57 21 14 38 68 97 6 63 55 -84 -4 -18 -61 -17 -16 -41 -78 -86 -29 -37 -60 -45 -70 -32 -56 -58 -66 -2 -88 -96 -74 -1 -48 -47 -19 -92 -23 -51 -71 -69 -28 -93 -83 -79 -35 -42 -90 0
83 75 28 17 74 22 31 5 36 90 89 -88 -9 -40 -25 -76 -30 -71 -68 -10 -67 -80 -39 -94 -32 -41 -86 -62 0
22 2 18 76 90 68 25 23 54 35 43 89 74 12 36 57 55 45 27 60 13 15 56 81 79 19 70 91 31 95 32 33 28 7 61 41 86 85 5 84 49 47 21 96 59 4 9 -53 -64 -37 -93 -46 -11 -92 -87 -88 -97 -16 -39 -1 -40 -73 -10 -29 -8 -66 -94 -58 -62 -67 -3 -30 -38 -42 -6 0
26 16 15 -14 0
30 83 37 21 85 95 31 67 51 53 57 26 60 35 18 32 33 12 77 -94 -49 -15 -87 -2 -52 -91 -41 -66 -46 -39 -80 -61 -38 -17 -4 -59 -62 -20 0
-14 0
91 39 45 67 86 58 16 73 76 23 32 52 22 1 20 82 55 8 97 10 14 36 44 24 26 64 62 56 71 54 21 65 87 53 40 50 18 -92 -66 -46 -60 -15 -79 -37 -74 -84 -77 -95 -38 -72 -89 -70 -85 -13 -93 -17 -6 -63 -80 -88 -19 -4 -2 -34 -7 -25 -35 -83 -12 -81 -51 -68 -75 -48 -30 -49 -9 -57 -29 0
12 -77 -85 -22 -2 -69 0
73 90 94 20 86 19 6 45 92 11 32 78 35 68 39 13 83 48 26 76 27 37 -16 -67 -53 -75 -82 -2 -40 -79 -38 -97 -47 -42 -28 -36 -93 -87 0
12 67 58 96 18 79 60 21 83 34 19 53 4 28 17 65 69 71 6 36 37 11 30 95 33 26 -13 -50 -72 -1 -56 -31 -74 -25 -27 -8 -62 -55 -70 -39 -64 -5 -35 -97 -14 -3 -93 -89 -49 -90 -32 -45 -75 -66 -68 -84 0
42 84 91 57 85 70 38 19 39 64 56 32 50 43 76 5 78 3 49 44 97 48 33 58 -94 -67 -31 -90 -86 -23 -62 -72 -54 -21 -92 -73 -77 -93 -52 -89 -61 -30 -25 0
12 92 61 72 18 46 77 1 58 93 79 73 60 26 78 42 70 32 19 10 80 54 86 31 16 4 48 24 44 43 17 59 88 14 21 49 62 7 97 85 63 94 30 67 66 35 -52 -28 -40 -29 -34 -65 -84 -5 -56 -91 -74 -11 -51 -81 -37 -69 -2 -27 -96 -33 -38 -22 -39 -13 -50 -3 -36 -82 -15 -75 -6 -41 -9 -90 -53 -76 -57 -83 -45 -8 -25 -68 -55 -95 -87 -23 -89 -47 0
29 68 1 71 34 41 32 92 82 95 36 14 51 61 6 88 72 18 33 62 12 96 21 10 83 37 24 84 70 64 25 59 4 22 -78 -30 -13 -19 -20 -7 -89 -35 -53 -47 -38 -8 -52 -87 -11 -45 -46 -65 -55 -86 -39 -60 -16 -93 -73 -57 -23 -48 -9 -2 -79 -94 -63 -97 -42 -44 -76 -69 -50 -17 -27 -31 -54 -28 -15 -67 -66 -85 -49 -81 0
83 84 80 -46 0
61 69 80 42 78 39 26 67 -29 -19 -51 -45 -36 -44 -49 -47 -53 -38 -46 -32 -82 -72 0
37 82 33 74 32 41 27 38 8 76 61 66 17 35 11 78 40 49 84 5 39 69 81 21 83 42 16 25 34 3 4 68 90 47 56 72 96 22 77 24 91 31 2 86 94 30 10 63 9 44 20 51 28 79 1 -12 -58 -55 -43 -97 -92 -75 -13 -89 -59 -14 -19 -23 -50 -93 -45 -57 -80 -62 -29 -60 -70 -53 -88 -26 -67 -36 -87 -18 -85 -71 -6 -73 -48 -7 -65 -52 -15 -46 -64 0
36 91 93 76 74 23 20 32 3 62 22 35 4 9 68 85 70 11 57 37 31 95 29 92 47 81 71 45 82 88 61 63 94 50 17 42 72 75 69 33 30 1 64 6 90 19 86 28 97 -54 -55 -34 -40 -8 -15 -53 -52 -83 -96 -59 -48 -79 -56 -13 -46 -18 -21 -24 -73 -89 -84 -14 -51 -5 -78 -87 -16 -58 -41 -26 -27 -38 -39 -7 -65 -67 -80 -66 -60 -77 -43 -2 0
8 56 33 63 90 95 70 45 15 67 92 -59 -77 -52 -80 -86 -36 -55 -61 0
75 9 84 2 38 87 77 52 44 33 90 25 73 14 -56 -74 -55 -26 -48 -60 -16 -93 -96 -83 -19 -32 -54 -12 0
48 57 84 42 61 18 75 55 44 65 6 97 70 30 80 59 64 13 66 91 34 50 63 35 23 28 9 36 90 56 94 -52 -77 -27 -86 -29 -39 -71 -19 -46 -3 -12 -93 -31 -15 -88 -54 -96 -68 -1 -78 -92 -79 -95 -60 -76 -25 -43 -51 -73 -32 -33 0
36 88 95 75 57 59 27 44 10 46 48 65 21 81 42 89 17 53 70 63 4 67 97 61 26 82 86 29 54 38 22 47 58 3 31 -30 -56 -77 -41 -68 -51 -71 -60 -13 -93 -96 -92 -6 -73 -11 -1 -64 -94 -2 -7 -18 -35 -52 -9 -37 -33 -84 -45 -32 -55 -90 -12 -49 -87 -69 -78 -39 -15 -85 -14 -76 -8 -28 0
12 65 59 13 29 -7 -48 -91 -58 -73 -76 -4 -67 -87 -47 -21 -60 0
65 83 66 4 76 70 84 86 97 12 45 21 57 5 74 39 77 49 64 7 18 61 41 24 -40 -53 -2 -91 -42 -6 -56 -78 -92 -88 -34 -17 -95 -26 -11 -69 -50 -72 -94 -10 -28 -32 -85 -9 0
66 35 82 28 89 3 -44 -86 -93 -58 -63 -67 -39 -4 -75 -49 -95 -54 0
10 54 47 2 80 77 36 51 35 8 87 1 82 -96 -45 -49 -74 -21 -40 -30 -89 -25 -43 -46 -52 -59 -5 -83 -48 -33 0
53 40 60 20 42 12 95 45 -19 -8 -87 -86 0
96 15 32 39 40 55 6 90 56 36 60 75 34 72 2 33 13 26 88 23 67 18 92 94 7 87 47 -89 -61 -21 -57 -78 -59 -74 -49 -85 -66 -62 -41 -58 -10 -71 -19 -14 -52 -83 -27 -46 -38 -29 -53 -20 -28 -76 -73 -93 -1 0
97 91 66 24 58 -62 -51 -55 -61 -23 -57 -41 -87 -37 -65 -84 0
16 19 42 94 56 32 2 95 51 33 50 84 62 29 93 77 52 18 71 23 39 9 72 -1 -54 -97 -68 -60 -87 -27 -35 -4 -28 -65 -66 -8 -30 -63 -64 -55 -83 -92 -38 -80 0
85 47 14 -37 -28 -13 0
78 2 23 84 49 43 30 37 75 20 76 7 65 3 6 5 86 72 89 82 15 19 39 18 8 47 55 1 26 87 77 33 32 88 64 41 34 68 56 35 -48 -94 -85 -11 -4 -79 -28 -83 -14 -52 -63 -54 -62 -90 -66 -10 -96 -21 -81 -25 -22 -74 -45 -27 -97 -31 -80 -12 -69 -16 -13 -93 -29 -61 -70 -57 -46 -40 -92 -44 -36 -60 -53 -38 -51 0
21 42 -58 0
13 40 24 59 4 37 17 80 30 89 81 74 47 97 95 66 75 55 90 16 49 48 33 83 69 56 50 25 39 61 18 77 51 34 7 -38 -78 -36 -28 -1 -84 -22 -85 -64 -21 -29 -82 -73 -45 -68 -54 -53 -27 -2 -91 -67 -23 -3 -11 -41 -93 -87 -57 -88 0
73 62 -52 -10 -70 -75 0
1 11 83 7 86 76 29 50 87 6 40 68 20 39 49 43 42 82 28 89 90 24 17 38 62 97 63 91 5 79 61 35 8 56 66 65 2 48 27 33 18 19 45 15 22 54 77 59 -92 -30 -13 -10 -73 -32 -71 -60 -31 -95 -84 -37 -25 -88 -14 -58 -85 -94 -57 -21 -78 -41 -3 -9 -4 -34 -81 -80 -53 -47 -12 -46 -23 -52 -55 0
12 31 17 87 29 89 56 55 58 38 85 3 44 66 20 94 52 26 37 81 -92 -7 -54 -83 -71 -18 -35 -73 -45 -21 -63 -91 -64 -70 -46 -72 -22 -88 -36 -14 -6 -43 -95 -32 -5 -42 -69 0
82 61 12 59 80 13 47 21 26 77 42 96 9 51 74 85 86 14 2 43 81 55 39 41 57 66 15 71 78 46 64 33 58 31 38 29 27 25 90 70 89 23 88 49 -54 -4 -56 -92 -45 -36 -97 -10 -63 -53 -65 -62 -60 -17 -83 -18 -95 -35 -67 -20 -30 -52 -72 -50 -44 -5 -7 -94 -8 -84 -68 -32 -28 -11 -19 -40 -16 -3 -76 -91 -73 -22 -48 -79 -34 -87 -93 -37 -69 -75 -1 0
53 21 26 6 45 52 16 86 74 42 12 25 82 73 35 15 60 65 95 62 91 37 19 41 39 33 24 17 49 58 18 32 83 29 76 78 94 44 11 57 3 36 90 -93 -70 -9 -67 -75 -51 -40 -2 -80 -48 -79 -4 -23 -77 -84 -96 -50 -43 -56 -97 -27 -14 -87 -34 -92 -69 -10 -22 -81 -71 -38 0
85 61 5 17 62 47 66 67 95 56 75 58 84 73 -9 -1 -12 -54 -36 -80 -38 -89 -79 -7 -15 -87 -13 -49 -60 0
40 3 71 20 52 70 49 4 33 64 44 92 19 77 41 81 51 25 79 45 36 10 73 34 55 1 48 -65 -39 -27 -50 -22 -61 -75 -8 -13 -66 -47 -83 -9 -93 -94 -69 -30 -26 -16 -7 -12 -53 -38 0
95 23 40 77 16 78 58 60 69 10 30 93 79 1 96 3 64 41 80 45 57 44 88 2 84 92 24 4 73 17 35 81 82 37 51 68 63 18 5 7 -90 -61 -91 -74 -53 -42 -70 -86 -65 -33 -32 -85 -94 -39 -29 -67 -11 -47 -72 -52 -31 -21 -15 -49 -43 -48 -25 -71 -13 -27 -56 -19 -50 -9 -36 -66 -8 -22 -20 -54 -59 -6 -46 -55 -75 -89 -26 -38 -83 -76 -34 -28 -62 -87 -12 0
80 60 10 85 54 11 64 13 7 77 17 30 83 79 73 38 55 31 12 40 24 89 75 28 20 41 34 18 36 86 66 39 72 49 97 74 84 61 92 93 5 35 -44 -88 -2 -67 -76 -32 -82 -62 -21 -94 -4 -9 -23 -81 -19 -37 -25 -53 -8 -52 -14 -96 -78 -95 -58 -27 -63 -90 -69 -65 -70 -47 -1 -15 -46 -57 -51 -71 -43 -50 -3 -56 -33 -26 -68 -59 -45 -22 -42 0
8 84 46 58 91 27 48 97 74 53 1 83 33 19 52 62 82 10 26 39 63 64 9 42 69 57 59 25 60 2 66 22 55 65 28 72 5 7 -67 -80 -85 -78 -16 -34 -61 -51 -94 -11 -54 -4 -43 -36 -24 -21 -15 -35 -32 -87 -95 -13 -23 -14 -77 -18 -3 -68 -17 -93 -70 -49 -20 0
92 65 10 82 91 89 69 -21 -90 -40 -16 -20 -30 -39 -75 -42 -67 0
96 53 78 -34 -94 -61 -26 0
38 82 5 65 11 2 48 57 7 79 45 1 77 49 15 60 6 87 26 39 36 51 80 53 27 50 35 66 -4 -18 -64 -24 -95 -47 -74 -34 -94 -33 -85 -14 -46 -28 -76 -20 -17 -12 -93 -69 -61 -90 -67 -40 0
76 40 33 94 19 18 85 28 61 12 65 6 70 35 15 66 29 37 81 93 4 83 22 13 -92 -16 -79 -78 -36 -30 -23 -69 -50 -5 -41 -80 -64 -2 -24 -74 -38 -25 -52 -68 -10 -31 -42 -45 0
95 14 30 58 28 25 69 88 20 11 67 41 15 53 6 29 85 59 33 91 80 35 51 43 71 77 61 44 2 -46 -23 -4 -66 -10 -74 -1 -48 -12 -81 -78 -87 -36 -62 -92 -55 -54 -21 -65 -9 -75 -17 -86 -49 -68 -3 -94 -24 -84 -79 0
34 60 52 25 75 22 72 40 24 83 11 43 21 20 56 16 47 10 26 51 91 89 66 7 58 46 81 69 82 67 14 39 15 13 57 61 3 54 -78 -48 -96 -90 -44 -9 -79 -28 -32 -33 -80 -74 -8 -97 -31 -19 -87 -6 -93 -63 -84 -76 -37 -5 -85 -70 -23 -1 -50 -71 -55 -27 -42 -94 -45 -68 -92 -30 -73 -12 0
4 22 2 90 59 74 32 27 19 6 63 17 48 -79 -45 -13 -58 -26 -49 -39 -35 -95 -9 -77 -20 0
44 18 81 80 47 34 16 62 11 59 35 90 51 40 53 3 74 82 12 32 28 -22 -76 -43 -23 -54 -36 -9 -39 -88 -73 -33 -24 -75 -56 -68 -79 -65 -69 0
38 60 72 84 52 58 32 -94 -59 -4 -97 -74 -89 -30 -43 0
78 53 43 38 75 67 66 34 4 26 91 2 63 37 49 69 83 79 51 62 50 29 55 21 45 95 74 42 12 -80 -81 -47 -40 -44 -68 -57 -76 -9 -77 -22 -8 -97 -16 -14 -70 -10 -20 -23 -54 -64 -41 -65 -11 -89 -72 0
35 54 44 7 79 81 31 18 33 13 75 12 22 70 76 49 37 29 97 87 83 86 53 88 73 8 16 69 41 51 -82 -9 -63 -46 -43 -93 -80 -1 -23 -11 -58 -4 -24 -42 -78 -64 -10 -2 -17 -96 -61 -6 -84 -39 -5 -14 -77 -55 -48 -28 -30 -74 0
43 54 95 30 25 88 65 5 90 6 34 24 49 87 52 86 77 62 21 78 51 42 75 40 50 33 46 36 56 -48 -15 -69 -93 -94 -27 -20 -70 -47 -53 -84 -41 -17 -85 -11 -91 -72 -19 -8 -67 -60 -45 -9 -44 -31 -82 -29 -63 -26 -16 -89 -83 -38 -28 -1 -97 -80 0
93 83 28 22 25 90 58 40 75 39 60 44 96 26 7 32 17 3 19 6 84 23 14 -35 -56 -67 -97 -16 -66 -13 -63 -88 -53 -49 -12 -80 -33 -64 -82 -51 -45 -94 -41 0
31 41 74 77 1 61 62 79 19 8 75 70 56 4 64 36 97 23 91 71 47 94 92 68 44 37 22 13 93 18 34 65 50 33 89 51 86 88 3 43 53 26 54 57 25 30 12 -72 -32 -7 -46 -81 -59 -17 -2 -9 -85 -45 -29 -35 -16 -76 -82 -48 -63 -11 -38 -83 -40 -58 -10 -28 -67 -6 -78 -5 -87 -20 -95 -27 -52 -73 -42 -39 -84 -14 -69 -15 -21 -55 -90 -66 -24 -60 0
12 23 6 38 69 96 84 81 37 61 72 11 41 52 88 66 50 27 40 3 65 4 42 89 91 68 36 21 77 58 78 -97 -76 -86 -73 -87 -47 -60 -59 -57 -32 -54 -71 -79 -22 -56 -9 -20 -93 -51 -16 -62 -44 -29 -46 -49 -53 -34 -82 -33 -64 0
41 25 51 16 13 11 10 61 79 92 68 96 64 76 45 46 56 24 91 1 -20 -52 -77 -22 -38 -75 -82 -35 -60 -48 -40 -32 -19 -54 0
23 94 37 8 10 22 45 50 20 7 69 56 52 87 33 42 82 44 46 70 53 60 59 39 76 78 1 90 65 72 43 75 83 64 41 35 86 80 27 18 29 81 57 58 9 3 -38 -95 -19 -40 -66 -79 -67 -28 -14 -24 -4 -63 -26 -32 -88 -21 -6 -36 -91 -97 -68 -92 -16 -34 -62 -12 -30 -47 -61 -54 -48 -89 -49 -73 -31 -2 -77 -15 -85 -71 -84 -51 -55 -93 -5 -11 -17 -96 -74 -13 0
51 91 84 37 88 46 70 12 9 45 55 2 83 23 31 14 87 41 86 4 75 80 96 32 82 3 38 19 20 66 11 57 17 -48 -76 -95 -35 -6 -44 -30 -61 -15 -81 -69 -10 -68 -25 -56 -40 -53 -60 -1 -34 -92 -58 -79 -67 -42 -39 -5 -16 -49 -94 -90 -7 -74 -54 -28 -22 -21 -93 -85 0
38 74 29 5 58 93 52 36 49 10 50 73 69 92 66 87 82 24 18 -79 -11 -8 -13 -59 -7 -86 -96 -62 -71 -97 -16 0
18 48 -49 -83 -11 -39 -23 0
92 44 67 24 42 91 52 87 96 9 54 47 84 18 45 22 10 93 43 36 59 73 12 76 50 46 77 65 48 74 17 82 63 5 20 75 81 31 19 14 -95 -57 -51 -41 -38 -26 -28 -53 -80 -39 -2 -60 -90 -88 -30 -68 -23 -37 -32 -11 -15 -49 -8 -4 -25 -13 -70 -3 -85 0
81 92 34 83 23 4 52 2 61 32 89 25 8 47 29 36 60 9 45 75 77 -71 -68 -55 -76 -51 -20 -11 -5 -19 -28 -39 0
77 32 47 79 83 12 18 33 14 63 75 22 64 61 13 62 15 80 25 48 44 34 37 55 52 39 69 90 54 36 81 4 43 16 2 78 66 97 96 65 -53 -60 -58 -5 -35 -92 -23 -76 -85 -89 -82 -72 -9 -7 -73 -45 -1 -71 -70 -86 -95 -68 -88 -8 -11 -49 -20 -50 -19 -84 -28 -21 -6 -42 -67 -94 -51 -87 -56 -26 -91 -24 -17 -31 -29 -3 -30 -41 -40 0
53 58 20 46 24 60 27 7 43 57 -11 -92 -49 -31 -84 -29 -2 -59 -81 -54 0
22 45 19 74 83 71 78 65 91 67 57 23 69 -93 -81 -96 -30 -49 -2 -64 -82 -15 -42 -8 -80 -63 -31 -6 -7 -33 0
25 34 40 8 93 83 47 65 32 63 58 80 29 41 89 88 -77 -1 -49 -14 -95 -96 -37 -69 -36 -17 -78 -97 -50 -39 -75 -72 -43 -13 -66 -44 -48 -15 -59 -4 -2 -6 -57 -5 -52 0
44 93 55 69 -74 -85 -63 -76 -96 0
91 3 9 61 54 75 74 38 -58 -57 -90 -93 -47 -28 -18 0
1 84 60 18 24 15 82 8 20 51 11 54 80 49 28 91 61 86 7 64 26 95 66 29 23 -71 -97 -81 -67 -63 -72 -14 -48 -62 -9 -52 -47 -31 -55 -85 -33 -76 -88 -2 -5 -53 -79 -19 -44 -37 -25 -93 -21 -3 -77 -6 -70 -17 -16 -38 -39 -89 -96 -43 -46 -27 -94 0
27 40 57 52 51 84 95 88 89 3 92 43 20 83 61 18 15 14 46 91 77 96 66 80 62 86 90 12 63 41 55 30 11 35 28 36 21 39 9 23 17 97 5 76 47 54 38 59 44 1 74 -48 -64 -31 -60 -26 -8 -58 -49 -94 -93 -79 -34 -37 -25 -33 -82 -2 -16 -70 -73 -6 -22 -24 -19 -67 -75 -87 -53 -32 -85 0
94 30 35 43 79 44 88 62 17 64 81 9 40 59 73 55 60 47 66 23 4 46 71 11 28 26 65 74 67 68 52 69 53 78 -45 -80 -15 -48 -10 -61 -16 -41 -87 -39 -83 -51 -96 -72 -90 -84 -42 -24 -95 -97 -89 -27 -85 -86 -63 -33 -1 -29 -54 -82 -75 -57 -14 -76 -18 -2 0
94 77 69 64 20 34 5 67 33 53 96 81 10 40 37 84 78 14 54 73 75 30 28 13 43 48 23 26 59 46 87 15 12 24 83 91 17 22 -2 -95 -49 -89 -76 -58 -18 -74 -79 -36 -71 -70 -8 -45 -29 -80 -56 -72 -3 -44 -25 -52 -39 -62 -61 -51 -82 -38 -19 -57 0
96 63 38 3 35 27 44 25 13 37 45 -58 -30 -77 -40 -49 -16 -93 -15 -54 -55 -39 -53 -66 -46 0
22 45 12 71 61 80 5 36 64 42 -88 -40 -6 -73 -43 -78 -38 0
8 77 91 27 33 92 31 26 53 15 80 23 69 1 39 82 50 42 81 30 22 64 68 36 45 62 78 44 40 -24 -74 -49 -17 -20 -76 -96 -25 -79 -84 -2 -43 -4 -35 -86 -14 -71 -19 -52 -93 -5 -54 -83 -6 -9 -70 -28 -85 -34 -41 -94 -57 -51 -32 -88 -48 -60 -72 -89 -7 -37 -59 -56 -95 0
1 28 82 20 43 23 93 9 7 63 24 -19 -55 -8 -11 -5 -41 -54 -32 -10 -65 0
29 67 54 11 8 76 3 90 39 27 89 14 91 -79 -37 -15 -40 -94 -63 -47 -7 -48 -41 -74 -68 -96 -83 0
11 21 46 77 70 24 19 7 53 50 63 68 41 94 52 69 61 17 31 97 29 30 67 56 64 80 73 96 65 12 10 5 -72 -48 -43 -35 -28 -27 -23 -82 -95 -55 -76 -89 -22 -45 -62 -86 -51 -40 -74 -84 -4 -57 -13 -47 -78 -54 -38 -90 -14 -59 0
44 86 29 3 50 89 97 33 57 94 83 84 91 30 93 43 28 5 69 75 60 76 71 40 24 96 18 25 1 81 67 53 4 66 -35 -56 -54 -63 -23 -90 -80 -87 -95 -32 -6 -74 -48 -9 -58 -92 -52 -20 -15 -85 -7 -22 -8 -12 -21 -61 -42 -62 -34 -68 -47 -55 -73 -70 -49 -37 -72 0
66 16 68 13 31 15 44 59 49 88 32 47 40 36 41 52 26 75 7 17 4 51 48 83 93 10 74 97 8 37 35 46 29 82 -85 -95 -72 -5 -1 -38 -62 -3 -94 -53 -24 -84 -33 -78 -69 -34 -12 -92 -45 -50 -58 -22 -96 -43 -77 -56 -28 -63 -64 -9 -39 -57 -23 -71 -86 0
10 64 76 25 69 88 2 95 14 71 27 51 34 72 45 18 85 83 63 47 24 31 46 32 66 -43 -6 -61 -96 -4 -77 -92 -21 -57 -29 -37 -50 -20 -52 -19 -87 -74 -8 -73 -11 -91 -38 -22 -86 -58 0
62 32 78 1 69 26 38 41 60 94 21 8 64 43 23 58 5 17 96 90 11 67 68 28 31 57 54 33 36 40 20 15 63 59 91 2 71 81 53 47 52 48 92 44 10 49 7 9 88 89 37 -61 -74 -72 -30 -70 -65 -29 -19 -22 -25 -45 -56 -87 -82 -86 -34 -42 -73 -4 -18 -14 -16 -79 -39 -66 -24 -27 -80 0
79 2 65 83 29 18 45 68 20 22 42 13 10 14 82 93 81 41 97 84 70 69 35 76 88 37 63 5 94 61 -91 -9 -60 -58 -72 -55 -71 -89 -27 -85 -44 -95 -96 -50 -15 -3 -40 -17 -33 0
29 73 27 16 84 61 54 43 26 15 87 79 97 25 51 63 53 71 42 77 3 11 37 64 89 93 76 91 41 28 36 7 38 5 85 59 70 35 -47 -55 -66 -45 -4 -6 -74 -62 -57 -94 -58 -18 -19 -96 -8 -23 -80 -39 -21 -30 -56 -88 -82 -10 -83 -75 -12 -14 -95 -9 -24 -40 -20 -65 -86 -22 -49 -81 -67 -33 0
62 83 86 84 10 5 93 37 31 23 72 46 91 77 3 57 87 88 30 63 27 35 19 24 2 90 82 42 45 11 95 43 66 89 79 -75 -65 -34 -97 -4 -54 -7 -55 -92 -70 -64 -50 -51 -61 -52 -41 -60 -40 -58 -33 -71 -69 -49 0
28 25 60 13 93 81 72 22 69 42 14 45 73 46 6 35 90 12 36 33 61 32 88 39 26 80 -5 -15 -23 -27 -21 -83 -59 -34 -87 -49 -53 -94 -66 -78 -51 -68 -38 -44 -50 -62 -29 -43 0
33 37 83 88 53 97 68 17 40 18 36 7 84 -95 -87 -51 -41 -66 -50 -30 -86 -8 -25 -6 -92 -82 -96 -76 -22 0
51 1 -45 -22 0
16 29 88 11 62 71 35 86 -70 -54 -27 -69 -65 -57 -46 -22 -74 -84 0
74 48 59 45 52 23 82 1 11 85 12 18 44 94 81 40 63 39 28 41 80 87 21 61 47 66 53 17 76 73 7 71 93 33 49 35 51 69 34 36 90 42 31 -72 -14 -20 -5 -70 -19 -97 -6 -91 -8 -10 -79 -54 -15 -27 -16 -26 -37 -64 -95 -55 -24 -13 -77 -96 -78 -83 -22 -32 -4 -29 -38 -67 -68 -60 -50 -9 -84 -3 -89 -56 -46 -92 -58 -2 -62 -57 -86 -25 -30 -65 -43 -88 0
72 46 2 85 24 -64 -57 -54 -35 -33 -92 -83 0
67 20 41 49 48 7 10 4 54 96 18 79 90 33 63 81 69 84 86 23 52 25 13 58 -50 -55 -11 -93 -80 -5 -17 -59 -65 -40 -43 -46 -8 -92 -87 -72 -15 -12 -71 -30 -26 -74 -38 -83 -56 0
18 69 32 20 47 59 87 7 91 34 9 52 -5 -11 -3 -66 -80 -81 -56 -83 -30 0
24 84 85 -65 -74 -39 -80 -62 0
29 82 51 6 92 19 80 56 34 1 17 71 70 23 42 30 87 21 37 39 44 18 8 26 89 2 20 65 25 93 13 57 38 76 32 48 7 59 5 15 81 33 3 16 36 45 72 -83 -86 -47 -53 -84 -41 -60 -91 -35 -66 -9 -27 -79 -64 -95 -68 -77 -75 -62 -40 -43 -90 -63 -61 -78 -69 -52 -97 -74 -55 -49 -54 -73 -94 -46 -96 -50 -14 -67 -31 -4 -12 -85 -24 -88 -11 -22 -28 -10 0
9 59 36 60 54 87 65 94 -2 -75 -29 -43 0
33 89 35 37 94 7 61 72 38 78 80 76 6 62 93 23 25 16 64 18 -97 -58 -41 -53 -59 -28 -15 -24 -17 -70 -67 -71 -79 -82 -13 -68 -83 -21 -14 -27 -54 -85 -3 -32 -10 -57 -92 -66 -47 -52 -44 -26 0
12 72 83 55 18 -68 -23 -30 -93 -52 -38 -24 -39 -65 -60 -64 -80 0
9 21 11 34 42 65 38 63 7 13 58 90 5 51 18 82 50 40 91 97 84 10 39 45 61 64 -32 -57 -27 -30 -68 -93 -6 -59 -29 -33 -35 -44 -17 -52 -75 -22 -86 -72 -60 -95 -19 -28 -69 -76 -53 -67 -89 -31 0
5 29 24 31 69 44 11 59 36 9 54 2 85 73 8 47 43 22 10 48 82 88 12 33 83 84 4 15 56 20 19 63 26 74 3 7 55 90 50 96 68 92 -49 -40 -64 -14 -77 -93 -91 -17 -80 -62 -16 -65 -25 -51 -38 -34 -6 -37 -21 -67 -87 -42 -45 -94 -81 -28 -75 -39 -66 -95 -89 -78 -72 -97 0
51 24 29 71 8 20 86 -18 -97 -79 -91 -93 -81 -76 0
3 44 57 64 28 68 20 67 12 77 25 26 70 11 87 46 88 97 53 71 2 82 74 -59 -19 -17 -90 -23 -29 -76 -32 -1 -5 -94 -10 -34 -52 -60 -38 -42 -83 0
47 3 59 35 96 48 81 -38 -31 -18 -23 -27 -26 -13 -49 -11 -36 -89 -95 -61 0
3 78 56 24 77 23 61 33 8 92 97 52 87 12 66 76 83 13 29 69 59 53 17 90 72 18 58 73 71 80 74 28 95 1 47 55 86 2 36 34 43 60 9 7 67 64 82 -62 -41 -22 -65 -15 -46 -70 -38 -63 -10 -21 -5 -19 -93 -30 -54 -94 -96 -40 -14 -4 -79 -75 -44 -91 -25 -37 -6 -26 -39 -81 -32 -16 -11 -50 -68 -49 -31 -45 -48 -27 -89 -51 -35 0
77 80 61 42 97 13 37 19 69 26 29 88 33 12 82 87 78 31 15 63 95 38 50 60 74 39 7 17 94 4 35 85 73 -93 -14 -47 -43 -30 -48 -57 -52 -10 -89 -81 -71 -68 -53 -54 -72 -6 -91 -70 -36 -20 -18 -66 -67 -86 -11 -45 0
82 83 80 77 94 55 79 1 26 93 30 47 52 72 86 4 71 85 44 90 60 18 46 27 66 92 -12 -6 -75 -73 -14 -22 -96 -61 -68 -59 -37 -20 -58 -40 -89 -10 -56 -32 -17 -41 -53 -36 0
50 38 76 80 41 9 60 95 96 53 68 43 81 32 25 52 86 29 21 71 78 94 65 6 83 66 47 92 49 91 79 54 57 3 5 10 18 34 93 90 82 85 11 62 48 4 -45 -77 -67 -73 -39 -40 -27 -59 -63 -64 -33 -56 -84 -19 -70 -61 -44 -15 -28 -12 -46 -13 -89 -1 -8 -72 0
87 53 71 -5 -33 -39 -49 0
89 57 93 28 86 17 62 45 71 74 15 -32 -91 -50 -16 -3 -61 -69 -4 -53 -76 -88 -9 -30 -18 -46 0
50 8 84 90 69 37 31 66 91 81 18 5 2 33 87 95 77 24 47 23 58 92 63 27 82 72 65 94 48 21 35 70 83 54 20 10 12 73 9 39 -60 -13 -11 -36 -43 -96 -38 -44 -59 -64 -29 -80 -28 -97 -71 -61 -55 -76 -41 -4 -74 -26 -57 -25 -17 -93 -30 -89 -52 -78 -46 -19 -1 -53 -22 -56 -88 -34 -68 0
6 49 42 1 88 10 7 50 62 39 71 30 70 93 3 59 79 36 40 64 20 92 14 45 34 77 84 63 89 60 82 2 27 68 54 46 -76 -96 -26 -11 -41 -69 -5 -80 -75 -95 -16 -65 -53 -51 -29 -83 -91 -74 -35 -4 -8 -31 -44 -58 -47 -97 -66 -25 -13 -67 -24 -73 -33 -86 -21 -22 -43 -72 -48 -28 -94 -17 -61 -78 -15 -19 0
73 89 15 10 5 11 42 79 62 90 70 43 84 16 52 -87 -34 -77 -6 -82 -95 -29 -75 -66 -59 -36 -18 -44 -53 -21 0
80 9 88 93 34 71 28 35 3 58 91 40 79 74 17 53 60 86 47 41 96 7 81 43 83 76 14 38 24 -29 -70 -18 -65 -57 -85 -69 -1 -90 -56 -45 -12 -6 -4 -33 -30 -27 -26 -19 -75 -73 -21 -15 -2 -68 -72 0
41 -17 -34 -95 -63 -33 -13 -12 -14 -36 0
28 76 52 78 71 31 37 49 61 -42 -26 -35 -72 -45 -88 -69 -94 -40 -75 -47 -89 -33 -55 -64 0
37 -52 0
86 60 10 17 28 58 38 45 56 7 49 13 30 69 57 89 18 4 63 74 27 33 39 84 77 51 -67 -47 -71 -15 -95 -92 -54 -5 -37 -85 -41 -75 -12 -81 -42 -97 0
43 57 87 74 95 33 77 22 24 63 65 89 40 7 44 5 13 86 52 46 50 37 15 45 42 26 2 80 21 51 8 71 64 34 18 58 66 14 -72 -53 -47 -70 -6 -29 -82 -90 -10 -20 -32 -97 -96 -59 -94 -41 -17 -56 -31 -4 -60 -23 -68 -84 -35 -67 -54 -78 -79 -3 -36 -85 -28 -48 -27 -93 -91 -38 -25 -16 -69 -49 -88 -9 -1 -19 -55 -30 -81 0
83 16 77 55 8 24 56 72 46 80 19 6 96 9 30 -93 -3 -78 -58 -64 -62 -2 -29 -42 -81 -51 -69 -95 -94 0
33 91 60 69 78 96 7 10 44 70 49 85 -6 -34 -63 -16 -45 -57 -40 -9 -3 -97 -39 0
64 66 12 79 93 11 60 45 40 2 27 41 5 21 51 26 22 72 92 56 18 76 91 54 32 77 25 17 82 10 29 35 86 43 50 52 37 13 30 97 95 -69 -9 -7 -94 -61 -57 -88 -14 -85 -65 -78 -28 -75 -44 -19 -33 -70 -42 -39 -16 -23 -90 -74 -63 -38 -87 -59 -34 -71 -62 -84 -31 -89 -80 -1 -24 -6 -46 -15 -67 -55 -68 0
65 52 68 27 5 13 25 6 54 93 89 77 60 50 61 90 34 95 -38 -23 -56 -48 -42 -62 -12 -29 -88 -32 -21 -19 -15 -9 -16 -33 -10 -36 -11 -14 -47 -28 -72 -87 -76 -91 -18 -1 -24 0
21 54 64 -22 -59 -76 -28 -58 -17 -36 -25 -15 -95 0
25 54 67 73 31 6 17 3 34 69 51 82 96 83 39 7 15 78 68 49 28 86 74 92 20 -42 -32 -48 -46 -1 -23 -97 -24 -90 -44 -22 -80 -16 -71 -21 -38 -37 -59 -81 -91 -4 -93 -9 -5 -52 -95 -63 -27 -40 -87 0
37 6 26 96 -52 -73 -49 0
8 54 84 25 9 34 86 82 64 39 29 48 97 95 37 36 55 28 38 45 90 22 7 -74 -62 -5 -71 -30 -35 -1 -46 -68 -94 -24 -21 -16 -43 -56 -70 -50 0
61 87 88 64 66 62 51 90 79 58 71 43 46 22 50 47 35 94 3 10 29 24 34 75 42 25 12 7 -39 -56 -92 -81 -23 -55 -9 -60 -91 -2 -32 -52 -38 -45 -54 -44 -30 -80 -83 -31 -86 -26 -49 -89 -36 -65 -59 -96 -11 -84 -17 -76 -4 -1 -67 -78 -85 -15 0
79 31 59 55 51 14 96 35 66 78 -29 -34 -6 -38 -73 -39 -82 0
89 53 26 47 29 24 32 60 36 88 52 46 56 54 37 67 55 4 30 23 70 51 -83 -93 -5 -84 -3 -31 -77 -11 -8 -91 -7 -66 -21 -61 -20 -43 -6 -58 0
83 90 23 70 92 97 53 84 87 8 65 22 61 95 7 1 56 93 80 24 50 25 2 71 20 81 89 85 68 62 32 49 58 52 94 16 46 26 54 96 88 18 63 75 36 14 73 13 86 3 28 9 33 34 12 -59 -79 -64 -57 -35 -6 -72 -17 -37 -10 -21 -43 -44 -5 -11 -76 -27 -29 -42 -39 -67 -41 -19 -82 -31 -78 -74 -30 -69 -91 -38 -48 -45 0
44 97 50 -22 0
78 34 49 97 22 16 15 42 66 92 61 17 3 76 55 48 51 71 25 -83 -53 -72 -77 -44 -26 -79 -45 -63 -20 -43 -47 -33 -4 -57 -37 -8 -96 -2 -5 -93 -74 -52 -14 -29 -90 -89 -67 -84 -21 -35 -10 0
12 43 73 86 14 33 3 70 15 25 53 65 21 29 68 45 6 80 35 84 22 19 54 87 91 93 79 18 41 56 83 62 24 46 48 95 40 8 67 49 10 27 96 55 52 47 -90 -72 -97 -71 -5 -69 -59 -34 -92 -44 -28 -2 -60 -82 -30 -4 -39 -51 -75 -17 -81 -36 -50 -88 -16 -23 -74 -42 -58 -7 -38 -76 -66 -1 -57 -94 -32 -89 -9 -61 -26 0
87 53 20 84 9 61 18 55 43 40 94 73 72 71 27 38 88 82 59 89 32 97 -35 -34 -41 -64 -92 -54 -5 -50 -62 -63 -80 -30 -21 -95 -47 -67 0
16 42 3 90 77 19 62 -80 -32 -59 -49 -51 -52 -64 -45 -30 -8 -83 -14 0
84 24 61 16 50 47 60 -37 -89 -19 -72 -25 -79 -55 -63 -93 -18 0
85 20 89 93 21 -59 -54 -53 -50 -92 -8 0
43 14 46 54 24 45 40 4 68 86 69 26 49 85 51 77 20 44 70 1 57 67 89 88 34 32 47 37 91 29 93 53 39 65 10 3 82 42 62 11 59 41 -25 -30 -19 -63 -31 -97 -60 -5 -16 -73 -27 -28 -22 -48 -7 -21 -8 -96 -13 -72 -78 -55 -18 -80 -6 -66 -84 -36 -2 -52 -35 -17 -61 -87 -94 -74 -15 -58 -38 -64 -12 -71 -33 -50 -79 -83 0
83 28 73 64 27 41 29 75 32 52 44 34 15 18 53 95 85 71 81 67 76 1 6 82 79 8 -50 -74 -47 -33 -7 -25 -56 -69 -10 -54 -3 -46 -22 -70 -96 -80 -31 -60 -42 -65 -4 -36 -9 -21 -90 -55 0
46 28 14 34 25 73 15 94 18 54 20 61 56 31 3 62 52 51 82 75 92 22 47 17 64 87 88 74 32 36 50 21 77 59 41 -35 -13 -91 -6 -16 -96 -70 -39 -9 -44 -53 -86 -37 -71 -19 -83 -5 -85 -90 -43 -23 -78 -72 -89 -65 -24 -7 -27 -95 -40 -80 -58 -11 -97 -93 -2 -30 -68 -26 -12 -33 -79 -45 -49 -4 -67 -8 -42 0
63 29 72 55 91 1 36 18 8 -42 -35 -80 0
72 30 60 65 91 18 53 9 48 15 96 10 54 75 89 39 45 80 70 57 13 19 37 40 44 83 81 84 29 46 85 88 -32 -78 -23 -2 -27 -51 -76 -31 -90 -28 -35 -62 -17 -6 -42 -64 -25 -97 -5 -58 -61 -52 -41 -67 -86 -1 -56 -82 -34 -26 -16 -49 -14 -73 -79 -95 -92 -59 0
-34 0
10 83 71 69 56 66 20 81 52 89 41 6 49 19 11 76 34 39 86 16 4 93 18 95 -13 -68 -91 -44 -33 -67 -88 -22 -38 -28 -96 -24 -79 0
27 89 63 85 91 48 -3 -11 -38 -83 -31 -81 -54 0
19 34 8 54 76 89 63 28 12 37 5 57 70 2 88 47 3 46 40 -18 -73 -91 -51 -21 -75 -22 -36 -64 -74 -79 -6 -77 -60 -56 -38 -45 -53 -44 -81 0
63 78 47 44 45 60 62 10 11 48 73 90 49 19 76 69 5 93 70 87 96 40 65 97 74 68 7 89 77 26 2 81 88 21 64 -53 -30 -85 -79 -51 -95 -9 -50 -72 -66 -31 -22 -25 -67 -42 -12 -71 -24 -82 -86 -27 -28 -80 -58 0
50 75 94 82 67 76 21 71 18 43 38 7 19 32 37 58 65 39 14 79 60 54 80 2 61 25 -9 -31 -40 -78 -12 -22 -10 -63 -89 -57 -17 -90 -27 -28 -66 -41 -24 -93 -97 -35 0
83 55 56 9 93 30 40 8 84 89 10 52 82 97 45 96 4 57 87 92 90 70 21 42 48 80 86 13 15 66 41 20 59 76 17 94 69 26 18 61 81 -65 -47 -22 -72 -31 -63 -1 -85 -74 -24 -23 -60 -7 -3 -49 -50 -51 -16 -44 -68 -95 -75 -73 -53 -34 -64 -43 -32 -27 0
90 96 43 18 11 29 45 25 28 95 91 58 41 50 81 67 8 9 83 97 40 1 85 51 52 27 74 -93 -39 -69 -30 -55 -70 -86 -82 -46 -47 -48 -84 -63 -72 -79 -62 -15 -78 -44 -56 -76 0
17 64 92 36 14 55 81 2 57 83 26 94 48 60 82 21 41 50 61 12 85 25 77 66 65 5 74 80 54 -37 -6 -88 -40 -67 -29 -84 -76 -43 -31 -39 -95 -19 -30 -32 -18 -62 -89 -15 -56 -96 -59 -9 -79 -7 -16 -46 -3 -73 -33 -91 -93 -1 -58 -68 -63 -22 0
36 76 45 83 71 24 38 89 23 18 31 -77 -63 -1 -60 -40 -96 -8 -43 -7 -10 -95 -6 -79 -67 -82 -41 0
15 68 19 93 55 64 86 6 81 91 32 10 48 52 70 49 53 62 35 23 72 54 4 47 36 42 13 63 26 1 28 27 88 46 16 -43 -60 -9 -41 -18 -40 -44 -21 -2 -85 -74 -31 -73 -5 -3 -83 -8 -59 -50 -57 -61 -89 -75 -20 -65 -34 -22 -38 -17 -66 -11 -87 -80 -77 -51 -45 -78 -92 -84 -67 -71 -37 -58 -7 0
74 20 30 22 44 70 18 71 19 72 94 2 16 15 64 79 95 56 34 37 43 61 65 91 53 54 28 11 42 48 96 27 85 7 33 80 32 83 31 51 66 24 78 10 38 87 93 35 -36 -49 -52 -50 -47 -4 -76 -46 -81 -88 -82 -17 -29 -68 -45 -1 -6 -73 -14 -86 -25 -84 -97 -90 -58 -59 -62 -63 -3 -23 -92 -55 -9 -8 -89 -5 -67 -60 -69 -40 -77 -13 -12 -39 -26 -41 0
32 37 6 15 22 75 9 10 23 88 95 73 4 16 93 11 62 55 29 63 44 7 80 97 85 78 39 36 79 8 48 84 -70 -21 -92 -34 -68 -45 -14 -26 -38 -18 -25 -31 -51 -91 -89 -86 -30 -12 -20 -17 -52 -59 -40 -69 -41 -60 -76 -13 -57 -56 -83 -2 -43 0
49 5 81 23 24 57 47 63 7 16 62 94 83 85 84 43 44 18 1 54 69 41 73 96 97 36 3 82 61 22 26 30 72 27 15 20 52 -53 -6 -79 -88 -90 -8 -66 -25 -10 -35 -65 -95 -74 -86 -91 -46 -71 -9 -51 -55 -32 -80 -76 -21 -87 -58 -92 -2 -78 -11 -59 -48 -31 -19 -89 -45 -13 -70 -77 -29 -37 -75 -56 -67 -64 -60 -4 -93 0
91 72 16 33 14 94 49 -78 -57 -18 -61 -23 -40 -74 -51 -38 -64 0
55 82 86 73 35 84 20 12 23 74 -62 -92 -47 -81 -91 -9 -3 -78 0
58 18 -76 -69 -42 -46 -12 -14 0
-20 -74 -47 -64 0
46 86 71 73 -67 -42 -23 -21 0
81 80 93 36 73 3 53 55 14 16 22 34 44 60 8 27 42 51 57 84 6 32 94 19 24 72 20 25 89 79 39 61 83 23 29 91 69 21 49 -68 -71 -38 -48 -50 -87 -77 -1 -43 -78 -67 -63 -82 -70 -54 -9 -26 -64 -13 -56 -75 -59 -7 -96 -11 -37 -52 -58 -47 -65 -2 -86 -4 -5 -95 -46 -31 -18 -45 -74 -35 -41 -76 0
83 10 97 19 3 16 49 38 85 55 87 84 65 24 48 9 22 82 25 44 1 36 41 57 58 28 39 12 77 94 17 70 43 5 86 32 89 33 88 35 7 20 80 62 42 64 52 71 50 66 78 -69 -37 -91 -51 -81 -40 -56 -30 -47 -93 -92 -61 -26 -27 -14 -73 -90 -23 -74 -95 -45 -18 -6 -15 -79 -96 -53 -76 -75 -29 -2 -68 -72 -59 -46 -60 0
76 68 24 67 7 40 34 54 33 97 72 53 11 82 20 28 55 96 83 79 4 14 9 42 41 64 2 27 3 52 10 66 15 60 78 36 73 -91 -29 -37 -18 -51 -8 -16 -62 -89 -74 -19 -88 -5 -56 -50 -44 -43 -71 -31 -45 -48 -47 -80 -65 -23 -94 -70 -59 -77 -46 -93 -22 -86 -25 -87 -17 -63 -58 -21 -81 -57 -84 -95 -6 -61 -69 -90 -39 0
11 38 22 57 54 31 7 88 97 -33 -60 -29 -26 -41 -87 -80 -79 -93 0
4 72 -9 -88 0
81 29 32 11 20 56 12 83 60 24 46 35 8 71 23 57 63 39 34 3 78 44 67 42 25 49 64 -15 -87 -85 -17 -86 -18 -61 -93 -54 -31 -16 -21 -94 -48 -74 -5 -68 -79 -89 -9 -52 -97 -14 -91 -80 -75 -47 0
83 45 56 82 36 48 29 88 70 11 31 50 85 41 38 40 7 64 78 39 -65 -32 -21 -35 -46 -51 -6 -49 -71 -16 0
75 39 10 66 53 35 7 93 28 15 61 52 78 55 1 41 73 54 76 2 16 25 17 29 62 67 42 31 32 45 4 34 21 44 64 5 3 26 27 38 70 6 24 51 68 84 90 69 -80 -82 -50 -65 -77 -63 -74 -79 -86 -43 -23 -96 -36 -60 -89 -12 -95 -94 -9 -48 -92 -40 -56 -11 -20 -58 -18 -13 -87 -30 -46 -88 -49 -97 -14 -22 -8 0
26 49 10 9 53 13 28 -30 -70 -54 -36 -71 -41 -46 0
93 43 54 38 49 55 78 60 37 3 83 87 47 52 61 59 2 69 68 42 77 89 46 4 14 30 41 76 64 45 96 70 23 1 31 85 5 12 34 26 79 62 82 -63 -88 -81 -56 -22 -33 -11 -75 -27 -25 -51 -17 -15 -20 -18 -66 -65 -21 -67 -57 -73 -16 -9 -71 -7 -97 -13 -58 -90 -95 -35 -39 -40 -6 -74 -10 -53 -91 -44 -29 -28 -50 -84 -8 -72 -92 -36 -24 -86 -94 -19 -80 0
32 68 67 8 27 81 56 65 46 52 22 70 35 41 4 23 87 82 51 94 14 55 7 72 26 61 1 88 90 53 74 30 89 18 -21 -42 -62 -20 -92 -95 -36 -9 -13 -48 -25 -5 -24 -75 -71 -43 -2 -69 -31 -66 -15 -96 -86 -10 0
60 83 7 10 76 20 55 32 84 4 29 90 25 1 95 59 31 75 44 88 18 65 8 70 27 78 -73 -58 -91 -19 -37 -69 -33 -24 -63 -36 -26 -15 -41 -16 -93 -14 -54 -50 -45 0
26 10 47 20 9 14 45 57 80 32 90 31 94 52 75 6 55 18 77 78 34 15 67 72 83 28 85 38 30 -87 -36 -82 -24 -49 -58 -46 -70 -44 -43 -97 -88 -17 -89 -61 -73 -51 -95 -63 -48 -42 -12 -69 -86 -2 -41 -16 0
86 12 4 15 47 82 78 41 13 96 2 7 80 43 69 -77 -50 -56 -35 -59 -30 -24 -6 -17 -39 0
56 84 52 40 75 31 66 78 12 53 41 4 59 43 18 14 39 62 47 8 60 97 19 93 21 -26 -71 -25 -55 -15 -34 -64 -9 -77 -87 -2 -37 -44 -83 -17 -10 -95 -94 -51 -74 -35 -63 -3 -82 -49 0
30 20 92 57 28 26 37 81 35 90 40 56 69 85 73 36 84 4 41 8 46 51 61 60 14 49 7 34 65 89 87 72 17 -11 -76 -19 -3 -32 -50 -95 -91 -52 -22 -88 -54 -6 -93 -66 -16 -39 -2 -27 -9 -15 -59 -43 -13 -94 -44 -80 -1 -47 -74 -31 0
95 48 75 51 84 31 93 82 77 73 15 68 5 59 21 97 94 24 46 87 13 45 62 38 50 16 36 1 65 7 34 67 57 74 85 19 -66 -42 -90 -49 -89 -29 -35 -88 -4 -78 -9 -83 -25 -40 -54 -70 -41 -63 -53 -55 -30 -64 -22 -47 -20 -28 -52 -44 -2 -10 -96 -58 -92 -11 -86 -32 -76 0
11 14 87 21 86 38 29 77 27 10 67 34 58 7 40 1 17 90 4 2 28 46 24 65 80 92 25 37 30 47 61 -84 -12 -91 -81 -54 -18 -82 -83 -75 -23 -48 -50 -79 -39 -70 -78 -22 -9 -51 -8 -49 -42 -26 -59 -13 -85 -64 -96 -74 -5 -35 -73 -31 -44 0
14 66 46 77 94 75 97 15 33 41 35 44 55 19 85 43 72 68 5 79 63 95 92 53 67 17 91 29 87 58 65 83 18 9 51 49 86 23 21 78 30 32 47 37 10 70 61 13 48 -22 -76 -82 -56 -54 -24 -71 -80 -2 -88 -89 -42 -93 -1 -26 -74 -8 -64 -34 -3 -90 -39 -59 -57 -45 -96 -28 -11 -7 -84 -20 -38 -6 -25 -69 -4 -16 -52 -27 -40 0
30 36 39 1 35 16 9 5 73 58 67 27 24 14 74 59 -82 -57 -51 -69 -28 -21 -86 -34 -66 -46 -44 -26 -13 -84 -10 -72 -2 -49 -80 -12 -88 0
54 74 83 27 13 39 1 59 78 -65 -62 -33 -60 -4 -53 -67 -55 -34 -23 -72 -61 0
62 94 80 75 47 77 4 39 46 12 65 17 41 79 5 92 88 73 93 84 38 67 90 22 55 78 32 28 85 3 15 86 89 50 60 61 63 7 74 25 56 2 83 34 -44 -9 -91 -70 -37 -23 -42 -53 -64 -36 -58 -82 -10 -40 -6 -18 -33 -27 -21 -45 -29 -54 -66 -76 -49 -8 -72 -13 -35 -51 -95 -30 -16 -68 -81 -69 -57 -1 -59 -52 -71 -11 -26 -20 -19 -43 0
52 42 18 78 13 89 83 36 12 57 38 30 67 45 11 51 65 47 10 44 14 16 70 -80 -90 -29 -56 -60 -26 -19 -86 -68 -73 -95 -91 -62 -54 -33 -34 -55 -15 -37 -27 -66 -85 -79 -41 -50 -21 -23 -63 -97 -59 0
63 88 66 91 97 95 39 83 6 8 48 38 73 -60 -90 -33 -77 -71 -30 -24 -45 -53 -87 -81 -22 -35 -23 0
65 52 38 92 69 59 84 17 4 33 20 47 13 50 1 27 -74 -36 -81 -29 -73 -7 -64 -91 -67 -6 -35 -61 -22 -32 -49 -71 -31 -78 -24 -80 0
88 80 66 72 92 84 41 82 14 6 13 63 7 69 23 21 27 31 55 -59 -20 -87 -34 -44 -12 -40 -33 -90 -95 -86 -71 -54 -78 -43 -57 -91 -97 -74 -24 -2 -94 -22 -65 -70 -28 -32 0
84 23 83 21 17 8 18 6 4 61 88 2 20 73 36 34 78 64 58 28 49 45 16 72 71 90 24 40 89 81 91 -62 -29 -60 -63 -10 -48 -50 -37 -57 -92 -75 -12 -51 -79 -80 -11 -96 -56 -7 -31 -54 -5 -30 -26 -74 -25 -19 -1 -42 -55 -13 -87 -82 -52 -65 -22 -94 -35 -33 -41 -77 -66 -59 -3 -46 0
42 84 90 86 21 14 58 44 16 94 3 59 24 69 75 53 92 35 56 54 95 43 36 10 48 27 4 85 77 81 67 7 88 19 73 64 -79 -51 -91 -70 -96 -87 -93 -97 -28 -1 -40 -17 -45 -34 -89 -31 -63 -74 -82 -39 -6 -25 -37 -78 -23 -9 -57 -83 -46 -55 -30 -20 -38 -66 -33 -49 -47 0
71 91 34 57 94 97 36 90 45 18 86 84 35 16 87 55 63 40 4 21 60 56 8 88 73 30 68 22 23 37 65 3 69 96 61 70 32 -33 -66 -39 -6 -5 -46 -58 -81 -76 -95 -52 -1 -89 -19 -2 -25 -59 -51 -13 -42 -7 -93 -15 -74 -20 -54 -27 -92 -9 -43 -78 -48 -44 -62 -29 -28 -49 0
72 64 48 21 87 83 70 82 93 75 45 30 37 4 44 12 77 88 91 1 47 68 2 -34 -73 -55 -51 -13 -33 -25 -66 -29 -5 -81 -89 -18 -85 -8 -17 -32 -54 -65 -14 -60 0
81 58 46 29 -63 -9 -79 -64 -2 -56 -86 0
66 69 91 77 60 76 10 96 95 37 49 3 97 58 -89 -71 -48 -84 -72 -33 0
67 58 26 36 66 15 71 19 3 8 51 27 31 59 18 70 14 25 42 64 63 39 22 49 92 54 73 50 2 47 72 33 65 30 46 43 83 75 -17 -12 -53 -52 -80 -28 -90 -77 -48 -60 -45 -91 -78 -86 -69 -34 -32 -62 -94 -9 -81 -82 -20 -13 -29 -88 -87 -68 -41 -35 -84 -5 -89 -1 -44 -16 -96 -11 -95 -40 -76 -10 -79 -74 0
86 6 83 79 34 82 70 65 1 71 19 -68 -80 -9 -60 -50 -97 -49 -72 -76 -74 -47 -31 -59 -14 -22 -27 -12 -13 -43 0
34 78 28 94 75 62 96 30 66 73 25 2 46 44 52 27 33 32 61 67 39 58 -90 -68 -89 -13 -47 -93 -24 -5 -95 -9 -31 -59 -63 -79 0
13 -25 -4 0
26 14 2 55 79 23 10 54 31 81 59 21 77 88 18 68 97 -42 -67 -66 -53 -45 -75 -28 -74 -8 -78 -83 -4 -92 -49 -86 0
18 8 43 17 44 37 4 46 83 6 64 75 10 54 32 -11 -69 -48 -16 -86 -3 -39 -95 -47 -63 -77 -70 -79 -58 -27 -34 -33 -24 0
21 59 16 38 52 60 41 18 30 57 40 51 74 73 63 68 83 39 70 93 15 45 86 36 53 72 87 79 67 48 43 44 28 33 23 11 85 22 3 49 77 64 17 97 14 80 -26 -50 -88 -75 -84 -62 -24 -66 -65 -78 -35 -29 -82 -95 -46 -56 -7 -76 -54 -81 -31 -10 -4 -55 -25 -12 -47 -20 -32 -61 0
47 21 94 9 19 -69 -66 -97 -34 -36 -6 0
49 41 53 58 26 39 -91 -90 -57 -15 -36 -29 -22 -31 -96 -66 -20 0
72 16 59 92 75 46 3 77 71 13 1 53 30 48 26 22 42 90 24 20 14 51 54 -70 -58 -66 -87 -2 -9 -68 -17 -89 -55 -88 -10 -69 -18 -37 0
68 25 49 61 34 74 71 90 67 9 66 97 11 44 10 48 38 -42 -7 -3 -57 -2 -81 -78 -59 -60 -15 -87 -32 -58 -88 -47 -95 -35 -8 -96 0
93 48 70 95 83 44 68 24 13 18 89 66 12 45 33 36 92 25 69 86 35 53 71 60 77 56 -19 -61 -8 -28 -16 -72 -87 -20 -78 -38 -94 -6 -34 -74 -59 -21 0
75 41 90 4 37 20 24 25 48 32 63 15 89 2 53 36 16 46 38 61 34 8 47 42 18 83 45 68 58 44 26 81 95 93 57 54 74 65 13 30 40 5 35 55 -3 -94 -50 -66 -23 -60 -19 -92 -21 -43 -56 -78 -28 -67 -91 -86 -49 -6 -69 -82 -7 -12 -73 -62 -80 -88 -31 -59 -17 -71 -14 -1 -77 -52 -10 -64 -22 0
72 57 26 41 94 14 46 31 17 8 33 76 -34 -11 -43 -75 -5 -87 -96 -49 -40 -66 -60 -59 -79 -63 -83 -15 -82 -91 0
30 43 72 19 51 11 44 42 -14 -79 -62 -97 0
66 67 88 19 55 -1 -45 -48 0
39 58 61 29 57 19 79 83 44 97 28 7 32 3 66 69 64 12 -27 -95 -68 -91 -56 -87 -9 -4 -67 -77 -78 -30 -16 -73 -89 -86 -60 -25 -59 -15 -2 -94 -49 -38 -37 -14 -26 -22 -6 -52 0
25 47 1 14 64 5 31 28 30 16 46 32 72 68 88 10 94 69 51 49 53 13 29 83 11 66 34 92 15 58 2 27 81 6 23 79 40 35 44 78 -19 -61 -82 -18 -36 -90 -55 -89 -20 -60 -67 -74 -17 -42 -70 -91 -21 -43 -12 -73 -54 -3 -97 -59 -87 -85 -45 -37 0
65 31 41 62 76 49 71 8 85 72 52 43 74 48 54 7 46 3 39 1 18 23 50 79 24 44 33 51 10 53 66 36 20 11 67 12 93 60 81 -73 -58 -91 -69 -29 -28 -35 -89 -17 -25 -22 -94 -26 -14 -68 -77 -61 -97 -40 -5 -92 -70 -83 -9 -78 -15 -95 -82 -55 -32 -34 -16 -30 -42 -96 0
81 89 28 86 24 8 11 34 53 13 76 64 45 12 27 22 92 -96 -60 -44 -19 -74 -21 -84 -18 -95 -66 -82 -90 -37 -58 0
20 78 47 13 54 5 39 32 28 96 52 -71 -45 -2 -22 -91 -74 -77 -38 -89 -88 -85 -56 -80 -21 -34 -9 -43 -92 0
6 15 66 57 73 92 31 -59 -77 -82 -13 -11 -47 -1 -39 -95 0
40 76 24 12 -88 -13 -71 -36 -30 0
25 94 74 61 65 67 22 95 81 53 93 29 71 38 -31 -21 -35 -75 -40 -85 -91 -68 -46 -36 -80 -60 0
63 66 64 26 70 40 47 33 68 7 34 8 62 16 88 21 6 43 3 85 54 80 -60 -94 -9 -13 -51 -39 -5 -1 -76 -27 -59 -96 -11 -73 -91 -56 -69 0
46 32 72 21 96 30 24 64 59 -13 -43 -33 -9 -55 -28 -17 -83 -93 -69 -27 -22 -80 -41 -78 0
65 28 48 96 45 44 82 47 6 76 7 40 94 68 63 9 39 43 88 80 46 71 16 52 85 50 83 37 66 78 33 17 4 25 81 79 93 54 26 19 73 5 34 -53 -91 -61 -14 -21 -24 -90 -57 -77 -89 -74 -38 -42 -70 -20 -51 -23 -87 -15 -59 -67 -29 -18 -13 0
13 20 29 22 27 85 72 45 49 94 64 39 77 -55 -50 -54 -24 -3 -6 -66 0
16 31 -29 -28 0
54 36 87 18 26 67 77 58 16 10 21 4 47 88 93 63 1 48 82 35 65 57 73 24 90 72 13 23 95 -70 -60 -46 -92 -19 -49 -97 -32 -5 -14 -40 -31 -91 -2 -39 -80 -84 -22 -17 -52 -50 -75 -94 -62 -66 -69 -25 -59 -37 -27 -43 -74 -96 -64 -29 -7 -12 -83 -11 -6 0
44 87 2 71 61 49 95 82 92 11 74 65 97 33 69 41 81 42 20 96 56 84 83 -31 -27 -90 -59 -38 -63 -51 -7 -68 -39 -46 -28 -70 -78 -48 -77 -17 -13 0
85 63 79 12 38 66 10 22 3 15 36 58 42 5 92 60 89 72 40 78 68 67 64 44 34 49 71 21 31 97 88 51 73 18 47 35 93 -39 -56 -16 -2 -32 -59 -26 -57 -75 -25 -4 -43 -45 -24 -27 -33 -20 -9 -90 -80 -91 -41 -95 -17 -77 -87 -62 -55 -30 -94 -81 -23 -53 -6 -48 -65 -76 -84 -69 -82 0
20 63 71 45 91 81 36 96 89 -29 -44 -53 -64 -97 -1 -74 -78 -9 -79 -76 0
93 9 73 15 97 53 96 41 7 18 95 45 40 11 89 42 76 34 77 79 46 91 59 33 67 92 83 22 17 6 4 88 74 65 8 24 60 39 43 54 2 29 68 49 52 90 64 12 84 48 26 66 -50 -70 -23 -69 -3 -71 -51 -58 -86 -85 -87 -80 -38 -75 -20 -82 -56 -30 -32 -81 -1 -28 -27 -36 -14 -16 -35 -94 -44 -13 -55 -21 -62 -5 -57 -25 -31 -61 -19 -47 -63 -10 0
58 14 7 73 43 50 20 48 93 96 60 66 90 37 64 21 81 65 17 9 46 62 36 63 18 25 44 61 86 4 89 95 77 57 34 19 78 92 47 31 22 -5 -53 -74 -54 -30 -32 -85 -35 -33 -29 -27 -38 -39 -55 -15 -11 -3 -49 -45 -16 -42 -97 -79 -82 -70 -94 -6 -75 -40 -13 -67 -91 -23 -69 -71 -2 -56 -41 -80 -68 -83 -24 -52 -84 -10 -1 -51 -87 -26 -76 -88 -72 -12 0
49 69 97 72 67 83 6 -87 -32 0
96 34 85 84 24 46 15 39 21 13 30 48 83 73 8 20 5 55 58 41 26 65 78 49 76 87 80 70 9 36 63 54 1 93 77 19 28 33 23 72 37 6 22 52 94 7 57 40 29 74 35 2 4 -68 -90 -51 -31 -82 -81 -64 -62 -45 -61 -50 -12 -17 -89 -92 -43 -25 -32 -47 -95 -16 -79 -59 -44 -42 -60 -14 -10 -75 -88 -56 -69 -67 -11 -86 -18 -71 -66 -27 -91 -53 -38 0
88 30 64 80 54 97 14 78 48 84 49 36 2 42 31 20 11 81 71 19 96 76 34 74 73 55 93 65 5 69 15 89 46 59 95 92 40 58 83 -61 -35 -87 -6 -4 -22 -50 -38 -57 -62 -82 -17 -28 -86 -45 -77 -75 -25 -37 -43 -66 -27 -26 -1 -94 -47 -60 -23 -21 -67 -44 -41 -33 -52 -51 -39 -18 -63 -9 -79 -13 -68 -91 -24 -32 -70 -85 -29 -72 -90 -12 -53 -10 -56 0
79 4 28 36 -42 -74 -48 -24 -51 -41 -14 0
82 10 29 21 25 70 91 69 55 27 35 88 89 58 50 6 28 51 73 34 85 23 43 65 64 -72 -78 -61 -75 -42 -53 -76 -59 -94 -14 -48 -49 -9 -63 -92 -56 -57 -95 0
9 6 81 75 33 54 52 82 11 20 10 51 8 94 50 22 87 32 16 -36 -86 -48 -19 -4 -44 -45 -29 -49 -70 -41 -56 -23 -88 -64 -96 -65 -46 -2 0
65 78 94 40 53 41 74 79 3 38 48 71 95 37 90 17 36 91 5 68 24 16 83 10 80 35 70 87 39 43 82 59 19 72 55 58 96 27 31 62 30 49 61 8 56 29 28 21 11 20 76 -50 -6 -64 -44 -57 -66 -22 -2 -77 -7 -86 -25 -45 -69 -33 -84 -18 -67 -97 -12 -54 -9 -93 -34 -32 -73 -89 -42 -26 -1 -81 -85 -63 -23 -4 -13 -88 -14 -15 -60 -75 -51 -46 0
56 85 65 5 59 94 74 81 35 53 92 27 21 16 47 18 69 -50 -52 -61 -30 -62 -66 -97 -20 -38 -25 -19 -17 -46 -95 -1 -75 -13 0
91 60 38 62 13 7 1 55 50 87 28 73 49 41 88 97 33 10 -30 -26 -92 -52 -36 -21 -29 -68 -57 -51 -42 -11 -71 -16 -56 -47 -74 0
12 78 95 85 17 72 54 97 14 4 81 36 10 28 64 20 47 69 35 30 9 63 83 60 25 80 66 7 82 74 58 73 5 93 43 32 41 -39 -65 -94 -70 -16 -59 -75 -76 -84 -45 -31 -37 -33 -62 -86 -2 -49 -19 -1 -92 -87 -3 -40 -6 -48 -67 -61 -51 -34 -13 -18 -21 -11 -96 -50 0
92 36 30 90 76 31 43 97 45 3 2 70 9 20 79 22 53 73 56 69 4 17 19 65 75 49 -16 -38 -47 -7 -39 -5 -32 -63 -57 -34 -1 -66 -40 -77 -62 -52 -78 -23 -28 -64 -13 -60 -88 -80 -41 -44 -84 -67 -85 0
2 83 16 12 91 37 54 -38 -11 -95 -48 -82 -20 -69 -88 -10 0
93 44 72 48 58 51 40 52 15 7 79 27 86 92 4 77 30 74 68 54 61 1 95 5 91 50 66 20 2 9 63 -3 -17 -90 -46 -35 -70 -37 -18 -94 -11 -67 -59 -53 -45 -31 -39 -88 -81 -23 -41 -42 -84 -24 -32 -12 -26 -10 -73 -28 -13 -89 0
9 32 11 72 22 81 66 15 53 21 19 91 90 28 37 48 74 58 88 97 70 14 5 54 44 69 71 41 31 52 80 1 29 65 94 95 34 89 17 36 87 47 61 92 75 68 27 79 60 -13 -46 -39 -2 -33 -83 -59 -43 -45 -96 -63 -93 -26 -20 -16 -18 -8 -55 -23 -57 -77 -38 -24 -3 -35 -84 -82 -51 -85 -56 -30 -49 -10 -76 -40 -78 -6 -62 -50 -42 -73 0
9 56 90 23 95 8 47 4 11 32 39 38 29 53 18 36 44 -97 -64 -82 -42 -27 0
2 -48 0
78 13 37 44 24 66 51 18 59 73 46 81 16 83 50 96 17 89 86 41 95 53 57 92 72 48 75 87 12 80 9 -7 -52 -10 -34 -68 -2 -56 -21 -54 -61 -94 -45 -8 -26 -49 -3 0
94 83 62 58 68 46 76 70 36 78 45 57 44 51 56 22 28 92 52 31 -16 -67 -53 -15 -21 -9 -96 -64 -12 -26 -65 -11 -14 -82 -7 -18 -39 -72 -80 -38 -35 -77 -90 -42 -1 -5 0
89 26 79 52 19 12 47 63 5 4 39 56 45 76 23 9 34 96 11 18 50 48 2 73 70 53 97 80 35 86 69 81 10 78 60 55 3 25 30 84 43 15 13 14 -75 -6 -82 -68 -20 -71 -22 -88 -27 -38 -32 -62 -58 -65 -28 -93 -40 -66 -37 -91 -8 -83 -24 -17 -21 -59 -36 -85 -95 -44 -77 -49 0
17 41 19 89 63 97 -32 -85 -95 -45 -67 -14 -54 -80 -92 -58 -79 -37 -47 0
25 7 2 88 44 48 50 60 92 66 11 23 70 18 75 30 64 67 16 91 59 32 36 41 13 -19 -27 -47 -8 -84 -65 -97 -1 -90 -12 -80 -45 -62 -58 -85 -43 -69 -86 -35 -15 -31 -95 -73 -24 -3 -5 -14 -34 0
42 83 24 57 97 90 59 16 75 11 87 26 34 38 36 80 33 10 9 2 53 14 12 21 23 69 30 41 3 13 92 72 32 70 -37 -48 -17 -44 -25 -60 -94 -78 -18 -88 -51 -27 -86 -62 -29 -64 -67 -95 -15 -39 -40 -74 0
61 23 34 46 13 73 64 60 87 14 53 83 6 82 69 1 20 95 88 40 86 91 -29 -10 -2 -54 -56 -30 -70 -84 -21 -42 -24 -75 -19 -3 -92 -57 -67 -9 -15 -16 -7 0
75 27 52 85 70 22 78 54 38 48 61 91 88 23 41 21 16 4 97 65 76 8 94 15 64 37 1 36 73 42 89 96 30 45 32 24 -12 -90 -34 -49 -67 -71 -25 -69 -55 -5 -33 -3 -51 -95 -87 -20 -93 -56 -7 -26 -84 -66 -63 -60 -68 -72 -31 -14 -57 -11 -10 -13 -35 0
65 16 13 59 77 40 89 76 49 6 48 91 82 27 78 31 3 24 41 -50 -21 -1 -42 -18 -17 -68 -26 -54 -2 -90 -44 -7 -66 -60 -69 -61 -39 -81 0
20 96 33 50 16 13 81 4 35 38 37 3 91 70 34 17 89 80 65 9 90 58 66 73 62 11 52 43 53 67 29 19 1 -46 -60 -76 -56 -41 -83 -54 -47 -23 -77 -21 -5 -88 -72 -18 -10 -82 -59 -75 -69 -25 -64 -39 -32 -26 -27 -86 -61 -92 -79 -7 -28 -95 -63 -15 -68 0
44 82 65 18 28 6 84 87 78 96 55 9 95 54 11 26 81 49 35 24 33 10 94 97 20 31 21 47 -83 -13 -40 -56 -72 -42 -62 -27 -80 -16 -25 -92 -39 -70 -34 -63 -91 -1 -2 -90 -46 -88 -32 -66 0
7 4 79 36 60 78 34 28 27 58 43 -23 -24 -29 -44 -42 -32 -49 -85 -94 -3 -5 -39 -77 -67 0
44 13 31 23 35 56 -81 -34 -69 -9 -85 -51 -62 -65 -90 -2 -48 0
53 76 46 36 91 29 17 38 6 88 10 59 87 33 27 68 75 69 8 15 82 42 40 11 3 95 86 34 41 22 47 31 44 -21 -79 -57 -9 -65 -50 -48 -51 -18 -43 -97 -7 -67 -78 -54 -26 -35 -14 -2 -13 -92 -85 -37 -96 -25 -63 -28 -24 -77 -90 -16 -4 -23 -1 -66 -20 -84 -19 -60 -72 -71 -52 -64 -30 -39 -94 -62 0
54 13 37 75 67 24 94 66 28 89 77 72 73 2 93 74 31 36 47 85 45 -7 -14 -83 -80 -25 -61 -17 -18 -5 -56 -3 -69 -87 -44 -63 -10 -21 -84 -58 -16 0
12 94 69 24 56 6 25 75 33 68 34 43 48 17 32 83 16 23 49 40 93 81 14 85 42 79 65 44 74 86 82 90 3 51 28 -38 -62 -46 -45 -8 -31 -70 -27 -58 -77 -37 -91 -53 -2 -71 -95 -97 -41 -11 -50 -57 -60 -84 -29 -1 -21 -88 -66 -19 -72 -96 -20 -13 -7 -61 -10 -36 -22 -30 -76 -9 -55 0
33 94 92 43 2 74 44 16 10 89 47 70 36 66 14 34 57 46 52 90 93 79 58 55 23 97 61 88 -64 -19 -59 -24 -86 -22 -71 -83 -1 -49 -28 -68 -7 -20 -41 -95 -67 -6 -30 -17 -11 -4 -72 -27 -40 0
