c NeuroCodeBench 2.0 CNF formula with verdict Sat
p cnf 61 587
28 33 29 11 22 51 15 17 50 12 60 37 46 8 40 58 10 57 55 13 43 20 49 34 -19 -48 -44 -1 -16 -41 -14 -24 -7 -27 -53 -36 -39 -2 -54 -21 -61 -30 -18 -52 -9 -25 -45 -56 -59 -3 -38 -4 -35 0
18 55 50 13 59 33 43 4 41 15 17 20 35 44 56 11 57 45 29 19 38 48 8 1 -9 -49 -37 -31 -6 -22 -52 -24 -40 -60 -53 -3 -46 -54 -21 -2 -30 -5 -58 -36 -25 -10 -32 -34 -12 -47 -39 0
22 60 46 40 44 42 30 31 57 -55 -36 -17 -53 -34 -38 -7 -51 0
18 21 23 19 25 59 14 51 22 60 43 58 28 49 -44 -13 -53 -36 -47 -1 -45 -48 -41 -32 -9 -15 -12 -52 -46 -39 -17 -3 -7 -57 -42 -4 -38 -8 -29 -30 -10 -24 -55 -6 -34 -5 -56 0
45 47 61 37 26 6 11 30 59 21 16 33 24 28 29 60 12 15 -55 -1 -35 -8 -34 -48 -40 -44 -39 -17 -25 -36 -43 -38 -54 -10 -50 -51 0
59 55 41 27 16 32 -18 -61 0
22 36 19 33 47 26 34 15 30 17 53 -45 -59 -13 -37 -48 -9 -23 -18 -43 -42 -2 -11 -27 -14 0
33 52 21 2 47 20 40 55 43 10 30 13 36 23 38 -6 -48 -29 -51 -8 -46 -15 -24 -35 -14 -58 -18 -53 -9 -39 -7 -59 -4 0
2 20 23 24 49 45 1 53 12 -6 -60 -41 -9 -25 -56 -17 -44 -33 -8 -26 -28 0
37 17 -44 -60 0
12 22 30 5 4 42 9 14 31 7 23 15 10 13 35 55 32 11 54 27 45 33 51 57 25 29 49 61 -17 -56 -28 -46 -52 -3 -41 -48 -37 -6 -26 -60 -38 -34 -47 -39 -36 -21 -1 -53 -16 -40 -18 -44 -58 -24 -2 -59 -19 -43 0
27 9 44 7 24 55 58 3 13 53 -37 -10 -1 -50 -8 -57 -42 -48 0
47 41 53 34 15 29 12 10 2 13 39 25 35 23 8 54 -51 -43 -24 -6 -33 -60 -46 -56 -20 -30 -16 -18 -9 -32 -26 0
24 8 31 -14 -54 0
50 23 29 44 25 5 32 8 49 4 41 -48 -38 -51 -37 -16 -43 -1 0
40 0
-13 -59 -19 -34 0
59 11 43 32 16 38 33 50 37 51 35 45 55 28 60 20 58 8 21 18 14 40 9 48 -53 -27 -57 -41 -3 -54 -46 -5 -1 -25 -22 -39 -31 -47 -10 -13 -24 -2 -61 -44 -29 -42 -6 -34 -4 -12 -36 -56 -26 -52 0
43 50 27 9 -39 -13 -30 -46 -38 -10 -51 -22 -19 -37 0
49 0
49 61 55 53 46 38 36 40 60 18 11 34 26 12 39 50 3 37 43 41 5 23 51 59 13 7 19 16 27 6 33 25 -22 -57 -44 -8 -10 -29 -52 -42 -54 -21 -28 -2 -45 -31 -24 -35 -32 -56 -47 -15 0
32 29 43 55 22 -10 -38 -49 -27 -1 0
6 35 26 2 59 46 13 8 27 52 49 28 15 58 7 43 -30 -22 -21 -41 -23 -14 -24 -45 -20 -60 -48 -40 -33 -31 -1 -18 -3 -56 -34 -39 0
58 46 23 -5 0
24 34 7 14 48 46 53 29 8 55 49 51 9 32 5 60 59 31 44 -54 -50 -41 -4 -11 -21 -15 -17 -2 -16 -28 -39 -42 -12 -19 -43 -35 -1 0
9 35 48 50 5 56 16 36 22 34 61 55 10 42 47 17 18 2 44 3 33 60 23 43 31 46 12 41 15 40 52 49 45 27 58 -29 -38 -20 -54 -4 -8 -59 -14 -51 -24 -53 -11 -37 -1 -21 -13 -28 -6 -57 -39 -32 -26 -7 -25 -30 0
13 28 61 30 29 37 -20 -59 -58 -26 -3 -52 0
13 12 40 3 49 14 29 34 6 59 53 39 23 50 28 55 32 8 42 58 20 46 30 1 21 47 61 45 9 2 17 10 44 36 -57 -18 -56 -38 -43 -41 -51 -33 -24 -5 -35 -26 -60 -4 -19 -31 -54 -25 -52 -7 -37 -22 -48 -11 -16 0
33 56 42 15 25 58 53 44 19 21 41 59 11 30 40 51 3 37 17 22 60 1 43 -61 -52 -29 -5 -27 -4 -36 -24 -31 -26 -55 -57 -8 -23 -7 -6 -49 -34 -10 0
53 24 42 35 6 9 56 4 52 31 39 15 11 19 25 26 61 -23 -1 -58 -17 -57 -5 -51 -12 -54 -7 -3 -33 -22 -43 -32 -2 -13 -27 -10 0
4 50 33 35 17 31 32 29 8 44 28 57 15 11 9 13 38 1 42 18 49 7 61 16 23 10 59 47 -20 -6 -21 -5 -40 -3 -19 -14 -22 -27 -43 -25 -54 -55 -51 -45 -24 -39 -60 -53 -12 -41 -52 -36 -56 -48 -30 -37 0
20 28 44 19 13 51 50 36 16 58 26 9 31 29 57 10 54 8 -41 -12 -22 -40 -34 -7 -4 -23 -33 -39 -21 -11 -45 -6 -2 -52 0
58 22 31 12 41 56 27 53 17 28 3 44 43 16 23 8 19 20 13 -38 -18 -59 -36 -39 -21 -54 -46 -61 -14 -60 0
38 44 36 55 51 32 10 45 6 40 37 1 9 54 33 12 17 2 18 35 61 15 -52 -8 -39 -28 -13 -30 -41 -29 -57 -19 -25 -5 -43 -7 -23 -21 -48 -14 -16 -58 -50 -20 -53 -22 -4 -56 -47 -31 -3 0
53 16 38 3 33 50 61 32 40 45 44 12 42 21 34 8 25 -49 -28 -55 -10 -46 -11 -51 -7 -23 -13 -19 -54 -43 -24 -4 -15 -36 -47 -37 -31 -41 -17 -59 0
37 29 17 6 48 26 59 4 38 41 31 60 7 57 13 35 50 8 32 24 -15 -33 -20 -16 -21 -27 -19 -30 -18 -58 -34 -56 -53 -10 -22 -3 -42 -52 -55 0
58 16 28 22 49 25 17 7 56 9 57 39 13 3 15 5 12 21 30 53 37 11 -52 -2 -27 -38 -31 -59 -46 -61 -35 -36 -26 -40 -50 -19 -60 -32 -23 -55 -45 -6 -8 0
56 2 42 29 12 43 10 61 53 55 40 22 41 23 16 3 30 48 45 -32 -49 -7 -47 -9 -4 -44 -57 -1 -34 -46 -14 -52 -5 -20 -17 -38 -58 -35 -51 0
10 21 59 22 39 33 8 20 51 46 24 34 16 13 3 43 35 19 18 2 48 50 5 17 23 6 9 60 47 -14 -36 -31 -42 -4 -44 -1 -12 -37 -45 -30 -58 -32 -7 -41 -54 -57 -56 -49 -11 -26 -61 -53 -55 -28 -15 -25 -52 -27 0
27 40 -33 0
11 21 6 13 16 41 40 48 38 -29 -55 -53 -10 -43 -60 -20 -30 -5 -3 -22 -44 -37 0
47 30 20 10 25 23 49 18 33 15 41 12 54 3 35 48 38 1 57 61 44 51 58 9 45 52 14 11 -24 -28 -37 -5 -56 -59 -17 -6 -43 -13 -32 0
27 29 9 12 47 61 11 5 17 14 30 -58 -34 -55 -6 -4 -40 -45 -36 -60 -37 -39 -25 -35 -16 -43 0
1 32 61 50 43 54 31 46 -59 -42 -40 -18 -19 -45 -20 -22 -37 0
26 0
23 4 6 35 15 37 16 25 12 45 8 43 48 42 61 26 11 5 49 2 59 60 13 10 57 20 14 -27 -55 -28 -29 -34 -56 -47 -41 -3 -24 -58 -22 -19 -7 -50 -21 0
18 -11 0
21 7 58 48 3 43 42 6 45 34 40 32 56 24 46 31 36 38 4 -60 -44 -25 -49 -5 -18 -39 -8 0
22 52 44 21 12 31 27 54 6 8 14 4 36 -60 -55 -32 -34 -26 -37 -35 -40 -50 -13 -39 -30 -7 -11 -3 -23 0
49 52 33 22 21 51 38 19 53 59 23 45 7 -1 -2 -3 -8 -55 -41 -27 -13 -47 -30 -25 -17 -24 -5 0
33 60 34 23 35 61 53 16 2 4 48 52 29 28 1 41 54 24 38 9 47 31 32 45 30 36 21 -40 -5 -17 -22 -44 -13 -8 -46 -59 -18 -12 -51 -55 -49 -50 -43 -27 -11 -26 -15 -42 -19 -37 -10 -58 -39 -57 -56 0
18 52 28 56 3 24 21 57 15 7 61 2 -41 -17 -47 -48 -42 -49 -9 -60 -10 -11 -44 -27 -23 -30 0
53 59 12 51 52 47 36 13 26 8 50 37 9 23 46 -48 -35 -61 -25 -2 -33 -56 -19 0
6 27 47 58 48 50 30 43 5 22 23 56 57 10 40 19 41 55 7 45 35 54 44 4 51 53 42 14 25 36 -28 -33 -8 -2 -1 -32 -39 -21 -34 -20 -59 -9 -61 -15 -13 -11 -18 -16 -37 -3 -31 -46 -52 -38 -24 -49 -26 -12 -60 0
37 30 24 36 60 10 51 48 52 49 1 15 59 35 26 17 50 46 5 11 40 9 57 56 13 -3 -4 -20 -16 -55 -42 -33 -44 -19 -38 -7 -39 -28 -6 -58 -12 -22 -27 -53 -34 -47 -32 -14 -45 -23 -21 -61 -43 -29 0
59 52 4 28 9 55 15 56 61 23 37 7 22 13 29 42 38 -50 -18 -19 -6 -17 -16 -44 -47 -2 -14 -58 -43 -41 -39 -27 -21 -53 -10 -60 -25 -26 -11 -48 -46 -1 -34 -54 -36 -40 -31 -5 0
16 7 38 28 32 53 46 24 17 41 29 12 51 40 42 52 36 19 10 43 39 30 49 6 3 26 8 9 27 15 -13 -20 -25 -47 -58 -1 -50 -4 -60 -56 -23 -21 -61 -18 -55 -37 -33 -44 -14 -57 -2 -22 -11 -54 -59 -35 0
50 48 57 39 45 23 9 38 55 -59 -17 0
33 29 13 6 52 58 10 47 32 40 28 30 23 48 38 15 27 46 55 35 22 49 18 60 26 56 34 61 59 -44 -16 -41 -24 -17 -43 -11 -21 -53 -51 -19 -9 -42 -2 -25 -5 -1 -3 -45 -50 -57 -4 -14 -12 -39 -7 -37 -20 -54 -36 0
17 27 15 18 20 -42 -23 -3 -16 0
47 42 54 10 8 32 53 20 9 38 15 34 4 -43 -16 -17 -26 -33 -39 -3 -35 -44 -22 -37 -18 -14 -2 -36 -12 -13 -57 -23 -30 -27 -19 0
15 10 34 6 36 60 33 56 37 46 39 22 18 61 47 17 2 24 26 29 57 3 13 52 42 19 44 -31 -25 -23 -32 -21 -58 -45 -54 -16 -41 -43 -4 -30 -53 -50 -51 -7 -5 -27 -38 -40 -12 -8 -48 -1 -14 -59 -9 -11 -28 -49 -35 0
27 14 39 45 44 5 33 6 3 26 17 30 13 50 47 29 52 60 10 28 7 41 34 9 59 53 20 4 -32 -54 -40 -51 -58 -36 -15 -12 -21 -38 -22 -46 -61 -18 -2 -11 -48 -49 -16 -56 -35 -42 -31 -24 -57 -8 -37 -1 -43 0
53 14 32 28 25 43 19 12 -57 -21 -24 -61 -17 -45 -16 -60 -7 -30 -4 -31 -44 0
53 1 10 18 50 39 57 11 13 27 16 59 4 -52 -30 -43 -6 -8 -23 -5 0
11 47 17 61 27 19 9 12 14 42 39 50 44 -46 -7 -30 -28 -49 -59 -60 -26 -23 -38 -51 -58 -15 -36 -34 -1 -20 -25 -40 -35 0
12 21 49 58 25 34 24 29 32 59 48 39 27 8 54 61 38 36 46 -6 -3 -37 -2 -22 -30 -35 -44 -60 -5 -57 -52 -47 -55 -11 -4 -7 -28 -51 -16 -14 -17 -26 -56 -41 -42 -13 0
11 53 38 21 19 1 20 25 43 49 3 27 58 50 55 42 7 61 26 59 2 34 57 31 14 18 5 56 -22 -10 -29 -13 -4 -28 -47 -45 -6 -46 -23 -16 -15 -30 -24 -40 -54 -60 -32 -51 -17 -9 -36 -41 -35 -8 -48 -33 -37 0
24 26 22 53 13 61 37 1 51 45 47 35 34 40 48 30 15 18 6 55 39 19 59 60 5 4 57 -14 -43 -10 -25 -46 -52 -31 -8 -21 -23 -16 -41 -9 -42 -49 -17 -58 -44 -12 -7 -33 -29 -11 -38 -3 -28 0
12 0
34 3 18 5 42 29 55 21 36 2 35 4 9 20 39 7 37 58 60 17 50 51 45 -47 -38 -54 -12 -22 -33 -8 -28 -61 -19 -43 -31 -27 -57 -56 -10 -59 0
27 -47 0
42 43 2 1 51 39 27 8 61 3 35 9 38 54 37 18 33 56 15 46 14 25 10 24 59 53 12 44 -17 -28 -48 -55 -31 -36 -11 -57 -49 -7 -23 -29 -30 -32 -34 -21 -26 -58 -47 -45 -60 -41 -22 -40 -6 0
41 51 48 60 53 3 29 9 7 47 56 55 12 58 59 30 42 15 13 36 23 24 40 35 46 43 37 6 49 38 17 -50 -44 -20 -22 -33 -8 -19 -16 -25 -4 -21 -2 -5 -57 -18 -1 -26 -34 -27 -11 -45 -10 -39 0
8 36 38 10 49 37 55 -12 -40 -41 -47 -14 -23 -28 0
37 38 2 49 28 23 47 55 59 5 39 54 34 30 60 57 21 56 19 15 14 29 -46 -51 -50 -33 -8 -10 -13 -36 -18 -40 -41 -43 -17 -1 -35 -24 -44 -16 -9 -22 -27 -45 -3 -6 -31 -61 -7 -25 0
48 16 5 17 14 10 52 37 -9 -42 -38 -6 -12 -28 -39 -31 -29 -26 0
36 11 20 7 28 39 2 58 17 46 5 26 60 4 8 47 18 27 23 25 16 3 45 -30 -1 -50 -10 -29 -48 -34 -32 -40 -42 -41 -14 -13 -53 -59 -9 -38 -56 -37 -33 -57 -44 -52 -54 -51 -43 -55 -61 -22 -24 -19 0
54 19 20 10 32 18 42 3 50 1 49 11 33 41 7 45 15 56 37 16 58 59 17 -60 -4 -53 -6 -13 -28 -52 -31 -55 -61 -51 -2 -14 -34 -43 -26 0
46 5 21 12 14 10 53 40 22 43 29 54 -17 -32 -24 -39 -41 -35 -45 -37 0
13 14 8 43 20 50 23 47 25 5 10 28 32 16 27 22 -3 -60 -46 -21 -18 -19 0
60 50 41 6 9 18 57 42 13 22 52 14 29 23 7 1 49 59 31 27 56 19 39 28 33 16 40 61 11 -26 -2 -53 -47 -43 -37 -35 -30 -44 -55 -17 -3 -5 -46 -51 -32 -12 -54 -21 -15 -45 0
1 32 16 27 2 30 25 55 61 29 11 23 43 -54 -44 -53 -26 -12 -10 -13 -39 -8 -15 -3 -22 -4 0
11 17 3 40 7 52 14 22 27 -61 -59 -42 -30 -20 -55 -45 -34 -5 -50 -35 -28 0
12 7 33 45 1 23 29 49 44 13 61 34 55 9 60 22 41 6 16 47 17 25 -11 -35 -3 -24 -40 -28 -2 -5 -38 -27 -39 -53 -19 -43 0
36 29 12 49 7 50 5 59 3 17 43 16 1 9 52 13 46 27 47 61 58 24 57 14 19 4 -22 -53 -44 -55 -23 -2 -35 -48 -40 -42 -28 -18 -54 -20 -33 -11 -6 -39 -8 -51 -15 -21 -45 0
26 57 15 27 37 31 33 2 3 17 60 23 42 7 41 20 48 -28 -18 -52 -59 -25 -19 -8 -54 -12 -56 -46 -10 -38 -22 -34 -53 -61 -40 -30 -5 -21 -16 -55 -50 0
48 60 39 2 40 18 10 25 45 52 46 9 58 7 15 13 5 35 20 47 27 1 -51 -32 -11 -17 -24 -61 -34 -26 -53 -30 -12 -55 -23 -31 -22 -43 -16 -50 -56 -19 -6 -54 -42 -44 -33 -41 -36 -14 -49 -59 -57 -4 -28 0
44 5 35 12 7 13 61 42 39 40 59 6 56 4 46 8 11 10 52 18 28 55 16 50 1 51 22 38 -27 -24 -29 -34 -21 -53 -30 -20 -41 -49 -45 -47 -9 -33 -37 -25 -48 -26 -60 -14 -19 -58 -57 -54 -2 -32 -43 -31 -15 -17 -3 -23 0
23 10 55 4 54 29 22 14 50 18 59 40 43 41 7 34 12 24 6 53 27 37 20 35 38 -3 -31 -2 -30 -1 -33 -47 -52 -11 -19 -15 -45 -26 -28 -25 -51 -58 -61 -48 -21 -8 -16 -9 -60 -5 -46 -36 -13 -17 -39 -56 -42 -49 -44 -32 0
6 21 35 -51 -30 0
18 47 23 22 21 -50 -37 -2 -34 -9 -41 0
6 10 4 48 -24 -43 -60 -2 0
2 61 45 10 31 39 1 20 57 14 27 32 30 11 37 46 7 23 55 51 48 56 3 36 28 43 -50 -19 -53 -6 -9 -34 -22 -29 -58 -47 -21 -13 -38 -40 -59 -17 -26 -18 -8 -52 -35 -42 -4 -5 -49 -16 0
7 38 47 5 58 36 42 35 43 26 56 53 21 -57 -2 -16 -51 -15 -59 -9 -23 0
32 58 61 30 21 36 18 7 59 13 50 34 57 44 48 49 -26 -8 -28 -27 -10 -24 -42 -19 -29 -35 -53 0
46 19 9 61 27 30 7 49 56 41 60 51 48 26 50 10 1 18 39 33 6 21 -25 -35 -58 -31 -20 -23 -11 -59 -40 -36 -17 -34 -8 -15 -3 -28 -4 -37 -52 -53 -24 -12 -55 -47 -13 -16 -38 -14 -57 -29 -22 0
1 15 25 22 23 27 44 35 42 41 32 20 38 30 11 5 36 10 33 60 59 54 26 17 -28 -8 -2 -57 -18 -40 -39 -7 -37 -45 -16 -48 -47 -58 -24 0
5 27 60 48 22 31 59 43 47 16 36 29 40 38 15 30 -44 -9 -35 -26 -55 -53 -4 -12 -33 -6 -14 -52 -49 -24 -25 -21 -19 -50 -45 -57 -23 -34 -7 -8 -58 -2 -51 -1 0
22 5 13 40 20 14 18 2 57 4 46 17 44 30 23 7 58 -24 -28 -9 -8 -12 -52 -32 -59 -49 -54 -21 -61 -42 -55 -26 -48 -11 -25 -31 -6 -37 -60 -3 -35 -56 -39 0
10 42 13 48 -6 -16 -60 -43 -24 -11 -28 -14 -54 -21 -23 -20 0
11 49 37 20 7 9 32 36 16 6 35 38 8 23 2 40 24 19 48 15 10 55 30 60 31 51 52 33 28 27 -3 -43 -59 -46 -47 -18 -41 -1 -13 -45 -21 -14 -44 -61 -5 -4 -22 -58 -26 -25 -34 -12 -42 -57 -50 -54 0
16 27 -41 -9 0
35 41 39 57 31 10 21 6 51 42 33 40 13 22 23 49 58 56 38 -30 -8 -15 -54 -18 -2 -50 -17 -5 -59 -52 -47 -20 -25 -7 -26 -61 -4 -37 -48 -28 -27 -60 -46 -43 -9 0
8 46 32 53 2 20 42 3 60 49 13 6 22 7 17 33 31 41 37 43 57 48 30 39 58 56 1 -40 -16 -24 -10 -36 -28 -4 -19 -12 -15 -52 -29 -47 -54 -50 -23 -44 -55 -25 -61 0
6 35 9 40 47 33 38 46 22 20 61 13 -14 -16 -27 -24 -10 -18 -8 -53 -28 0
3 43 54 46 39 24 31 47 60 58 7 42 34 12 23 2 57 6 51 45 -14 -20 -8 -26 -25 -28 -17 -11 -9 -1 -5 -37 -52 -18 -50 -49 -40 -10 -48 -38 -15 -53 -19 0
61 51 55 20 7 -44 -33 -47 -6 -59 -50 -48 -43 -23 -8 -4 0
23 -18 -39 -61 0
52 12 55 42 6 21 16 38 8 9 43 57 10 20 56 2 49 -59 -46 -29 -27 -30 -45 -13 -5 -51 -44 -41 -11 -53 -35 -17 -24 -32 0
31 25 51 48 36 40 26 53 12 47 22 50 28 14 59 35 19 60 33 -37 -8 -43 -39 -18 -16 -1 -30 -41 -38 -17 -44 -52 -9 -4 -56 -27 -61 -11 0
7 8 14 10 6 31 40 -41 -34 -59 -17 -37 -15 -48 -21 -61 -44 -22 -54 -50 -16 0
19 32 48 55 53 27 24 7 16 -41 -13 -45 -42 -6 -38 -33 -56 -3 -23 -50 -61 0
28 6 58 51 9 30 12 16 24 35 7 25 18 2 14 4 32 57 31 43 34 13 3 33 39 47 23 60 55 36 -42 -44 -20 -54 -46 -5 -21 -52 -59 -49 -26 -48 -53 -56 -41 -45 -1 -11 -38 -19 -27 -50 -17 -37 -29 -8 -15 -10 0
1 24 41 57 50 6 46 30 2 10 48 34 35 18 15 31 12 37 51 21 42 54 7 32 49 45 23 25 13 22 44 39 33 55 4 20 38 -17 -27 -36 -59 -47 -11 -52 -28 -5 -53 -60 -19 -56 -29 -61 -26 -58 -14 -40 -8 -16 -9 0
32 19 39 33 24 34 50 31 47 7 44 21 8 54 3 13 51 20 5 26 17 35 22 57 14 11 25 53 52 1 45 -40 -15 -2 -29 -59 -42 -30 -38 -6 -43 -36 -12 -61 -23 -37 -58 -46 -4 -49 -10 -16 -28 -18 -60 -56 -55 0
32 30 47 21 41 7 -59 -42 -11 -2 -36 -20 -13 -17 -31 -46 0
61 9 53 8 5 36 45 57 18 30 33 13 10 44 48 34 -58 -22 -40 -21 -39 -37 0
27 49 19 9 43 44 34 56 25 11 28 23 29 26 18 15 48 57 35 20 4 46 38 24 13 41 32 -8 -1 -59 -42 -7 -17 -52 -31 -14 -61 -47 -36 -12 -39 -40 -50 -60 -6 -21 -55 -58 0
9 54 35 42 16 39 6 51 13 3 36 12 22 30 45 61 33 26 53 48 11 21 56 27 43 32 17 -5 -37 -31 -55 -14 -28 -18 -34 -52 -50 -20 -4 -29 -15 -10 -57 -60 -24 -59 -1 -49 -41 -58 -23 -47 -7 -46 0
21 53 31 56 28 49 23 7 38 41 12 37 18 40 2 33 48 24 60 52 25 11 44 5 39 -45 -50 -58 -4 -27 -1 -59 -17 -35 -9 -36 -10 -43 -14 -55 -54 -26 -61 -19 0
16 10 32 15 25 8 21 54 -30 -20 -26 -9 -12 -29 -60 -7 -28 -27 -22 -52 0
11 14 41 24 35 -19 -48 -23 -37 -47 0
23 20 -60 -1 -57 -24 -29 -5 -2 0
30 23 59 28 36 21 8 14 16 41 46 3 58 45 26 15 44 10 56 37 54 61 32 51 47 18 53 -25 -19 -43 -11 -48 -33 -20 -49 -52 -55 -17 -57 -31 -9 -12 -29 -27 -40 -6 -22 -38 -1 -34 -60 -7 -35 -39 -24 -5 0
8 23 10 54 14 13 37 5 18 24 33 55 2 16 41 15 35 61 45 38 32 11 1 58 40 12 52 51 -21 -27 -60 -57 -31 -48 -36 -7 -53 -46 -56 -25 -9 -28 -19 -47 -22 -42 -3 -34 -20 -17 -26 -50 -30 -49 -44 -4 -29 -6 -59 -39 0
48 60 3 -5 -49 -9 -6 -52 -8 0
30 15 48 45 57 -20 -50 -29 -10 -59 -34 -49 -43 0
55 38 53 27 13 5 57 44 8 30 34 39 46 19 28 -6 -29 -35 -37 -49 -10 -4 -32 -42 -54 -26 -15 -40 -59 -56 -18 -41 -31 -11 -36 -61 -9 -16 -51 -47 -48 0
7 54 13 19 3 33 24 48 6 50 -21 -4 -28 0
57 6 51 49 30 45 3 19 23 36 31 60 12 17 10 13 43 -38 -1 -42 -15 -46 -55 -14 -56 -27 -52 -8 -44 -61 -48 -37 -29 0
61 -31 -47 -20 0
13 4 41 53 35 -56 -57 -30 -59 -7 -58 0
53 56 34 46 16 7 50 40 45 54 44 38 42 33 37 13 1 60 39 17 43 10 22 41 25 32 26 -49 -51 -8 -21 -28 -24 -47 -18 -52 -57 -31 -48 -5 -55 -30 -19 -2 -9 -20 -6 -59 -27 -29 -15 -35 0
42 17 6 18 57 52 19 36 25 41 23 16 8 61 33 45 54 -21 -31 -34 -13 -46 -14 -24 -22 -49 -40 -47 -59 -7 -11 -56 -51 -60 -53 -2 -39 0
7 43 51 57 16 38 24 2 58 45 -1 -50 -19 -61 -60 -9 -28 -39 -49 -23 -27 -4 0
16 28 35 55 34 56 47 46 21 29 58 2 6 48 26 -59 -5 -18 -13 -41 -24 -52 -27 -49 -4 0
8 52 24 -59 -57 -15 -28 -1 0
1 38 0
37 20 15 43 58 40 5 16 -19 -57 -28 -22 -10 -35 -38 -54 -41 0
39 -49 -31 -13 0
29 9 51 18 54 32 5 41 46 33 14 42 -24 -39 -2 -53 -19 -11 -48 -58 -27 -23 -47 -8 -50 0
32 17 52 33 11 19 12 14 30 23 46 29 47 26 56 28 53 16 45 15 48 58 -40 -27 -24 -41 -25 -42 -2 -1 -5 -39 -44 -55 -7 -61 -8 -21 -59 0
33 25 50 26 1 54 10 12 51 21 -5 -3 -30 -7 -44 -52 -37 0
38 60 0
34 28 61 30 41 56 31 9 32 40 17 44 2 3 23 4 -58 -1 -42 -50 -52 -26 -60 -37 -18 -45 -53 -57 -15 -47 -27 -25 -33 -35 -19 -14 -36 -20 -12 -13 -11 -8 0
37 59 54 30 40 12 39 -33 -5 -51 -34 -29 -25 -27 -44 -35 -60 0
57 37 47 11 2 56 53 36 45 34 31 28 42 21 -17 -54 -44 -9 -40 -49 0
59 34 44 27 60 45 49 38 -61 -42 -33 -25 -20 -12 -17 -6 -22 -54 -1 -8 -51 0
45 20 16 4 38 25 10 39 11 49 42 31 26 36 51 29 37 8 44 15 24 32 35 52 7 -50 -48 -40 -12 -14 -43 -9 -27 -23 -5 -33 -18 -55 -30 -6 -57 -60 -46 -21 -28 -13 -3 -47 -56 -58 -17 -41 -22 -53 -34 -59 -2 0
16 28 42 52 4 13 41 -33 -36 -12 -14 -20 -59 -56 -50 0
29 26 3 37 38 45 36 60 57 35 22 17 34 30 24 10 28 -27 -41 -44 -56 -42 -21 -20 -54 -6 -11 -47 -52 -1 -43 -13 -32 -4 -58 -8 -61 -2 -15 -39 -50 -23 -16 -18 -31 0
55 38 61 16 56 33 11 45 24 50 27 51 -22 -36 -26 -17 -32 -25 -7 -54 -29 -3 -18 0
2 38 54 50 32 41 42 22 -45 -37 -8 -48 -4 -3 0
27 39 18 8 37 20 46 29 33 1 57 15 40 53 22 38 52 26 36 23 28 25 4 -41 -55 -17 -7 -13 -54 -10 -21 -48 -5 -31 -34 -3 -61 -45 -60 -30 -9 -59 -35 -12 -14 -49 -2 -32 -44 -24 -58 -56 -47 -11 -16 -19 -43 0
10 22 12 8 35 27 19 47 15 21 -40 -49 -4 -26 -6 -45 -54 -32 -39 -57 -1 -58 -33 0
21 52 46 20 14 33 24 4 39 31 19 38 60 5 28 27 56 9 29 -61 -7 -25 -2 -23 -35 -45 -40 -54 -59 -50 -57 -17 -8 0
21 -51 -5 -37 -15 -50 0
28 30 47 43 57 31 60 29 13 27 26 16 45 55 12 51 59 9 23 24 33 56 48 1 35 -46 -32 -7 -40 -18 -8 -14 -22 -17 -34 -15 -50 -61 -42 -49 -36 -6 -3 -39 -44 0
21 52 59 20 25 38 53 16 32 -3 -61 -18 -49 -36 0
17 35 24 39 18 38 6 7 23 52 26 44 10 -20 -37 -48 -15 -16 -46 -11 -33 -41 -12 0
49 43 15 56 1 61 7 14 50 -34 -38 -21 -22 -44 -26 -23 -60 -13 -53 -4 -10 -55 0
37 47 19 15 8 42 55 56 53 43 18 51 58 39 23 12 1 20 13 29 24 46 5 52 41 11 44 34 54 21 -7 -26 -33 -36 -28 -48 -60 -38 -25 -27 -6 -3 -50 -2 -45 -10 -49 -31 -4 -59 -57 -40 -35 -22 -30 -16 -9 0
22 3 39 58 46 51 17 26 35 18 9 54 13 55 59 24 29 47 -45 -33 -1 -6 -15 -14 -19 -44 -8 -41 -4 -28 -23 -5 -30 -52 -60 -2 -49 -57 -7 -12 0
28 15 24 47 22 19 44 33 23 53 29 35 16 48 26 9 8 10 6 20 18 34 21 49 -40 -57 -12 -55 -25 -60 -38 -17 -13 -58 -3 -32 -54 -31 -36 -59 -42 -2 -14 -30 -52 -11 -4 -27 -51 -61 -37 -56 0
53 39 -36 -47 -18 -46 -30 -59 -40 -41 -20 -16 0
42 34 15 29 19 50 44 -33 -43 -52 0
48 5 -11 -47 -16 -31 -1 0
23 47 1 17 38 21 30 49 42 28 31 5 7 6 52 8 22 20 59 56 34 45 35 51 33 -43 -12 -48 -25 -10 -18 -11 -3 -37 -54 -32 -61 -46 -27 -9 -50 -24 -16 -53 -40 -57 -13 -41 -29 -26 -58 0
29 45 37 21 46 51 55 34 7 18 61 11 3 59 50 19 1 8 32 39 4 53 22 -40 -43 -26 -5 -17 -58 -2 -56 -57 -41 -16 -20 -28 -60 -6 -49 -27 -30 -47 -48 0
56 15 48 44 40 11 20 55 -4 -22 -50 -14 -49 -46 -8 -59 -1 -30 -24 -13 -25 -17 -23 -43 -28 0
16 12 19 15 17 6 39 3 32 42 51 46 49 40 20 8 33 -44 -29 -25 -1 -36 -24 -18 -2 -7 -41 -61 -50 -4 -58 -48 -26 -52 0
25 51 49 4 61 17 44 36 19 37 12 53 18 46 57 20 48 23 39 34 28 15 16 26 56 -58 -7 -1 -40 -38 -14 -60 -6 -50 -32 -59 -22 -45 -33 -30 -29 -55 -9 -54 -43 -41 -5 -13 -11 -42 -21 -8 -2 -24 -52 0
61 38 0
13 52 34 54 9 23 57 4 30 61 58 55 27 28 18 14 21 -22 -49 -39 -7 -26 -41 -45 -38 -10 -5 -29 0
51 1 61 21 43 15 6 32 4 20 49 -25 -35 -29 -39 -53 -24 -23 -5 0
22 44 60 23 55 29 30 9 58 46 45 61 59 20 32 37 42 17 54 15 13 36 19 -16 -39 -47 -26 -41 -34 -53 -8 -11 -24 -51 -1 -31 -35 -21 -18 -3 -27 -40 -57 -14 0
50 -10 -54 0
13 48 30 56 53 39 14 19 33 5 25 -44 -27 -61 -22 -57 -35 -17 -43 -58 -37 -23 -20 -1 -9 0
31 46 59 -8 -11 0
22 54 4 18 46 28 31 41 49 8 6 -60 -5 -56 -23 -26 0
32 50 41 35 3 8 61 6 7 56 36 15 28 -14 -12 -4 -54 -5 -34 -9 -59 -40 -13 -27 -26 -58 0
41 27 52 9 24 20 15 6 34 40 35 33 25 4 59 -16 -54 -2 -32 -11 -13 -49 -47 -56 -18 -31 -55 -5 -51 -3 0
37 54 35 53 50 39 -57 -38 -11 -18 -10 -48 0
48 43 2 9 41 16 39 7 15 -40 -17 -59 -14 -47 -23 -61 -1 0
36 27 15 18 35 6 60 2 22 61 19 48 4 51 28 44 26 12 42 56 45 34 49 29 47 9 -31 -32 -57 -33 -52 -23 -21 -13 -5 -46 -24 -53 -8 -3 -55 -40 -1 -37 -38 -54 -16 -17 -59 -41 0
42 22 33 24 35 2 59 49 45 57 25 48 37 6 54 18 -53 -51 -50 -55 -41 -56 -60 -36 -21 -9 -29 -27 -61 -19 -23 0
45 35 15 40 43 41 54 4 27 60 46 24 50 59 34 5 48 49 55 33 2 36 51 22 30 21 53 17 9 52 12 -6 -31 -26 -44 -3 -28 -18 -39 -11 -38 -7 -20 -37 -47 -25 -23 0
57 52 37 4 1 43 32 51 27 55 48 42 11 36 46 31 9 47 58 17 7 54 45 21 35 3 19 24 61 40 6 -60 -38 -15 -16 -34 -41 -25 -5 -56 -28 -14 -26 -23 -33 -12 -59 -8 -29 -30 -44 -2 -39 -20 -22 0
-13 -32 0
49 5 7 44 23 60 58 33 43 50 36 47 56 40 39 37 38 52 -45 -1 -48 -28 -17 -35 -46 -9 -51 -55 -32 -29 -42 -12 -25 0
5 40 4 16 33 23 10 1 60 59 13 2 -7 -32 -47 -30 -56 -48 0
47 44 33 48 7 40 38 -41 -52 -34 -4 -57 -54 -6 0
15 46 7 6 3 20 14 34 30 -51 -23 -53 -39 -9 -5 -1 -54 -25 -26 -38 -33 -36 -35 -32 -29 -40 -42 -19 -61 -37 -44 -11 -57 -16 -41 -21 -2 -8 -56 -18 -59 -12 0
1 34 -32 -59 -60 0
40 22 15 14 34 57 16 60 45 50 44 12 6 29 48 5 20 32 18 21 19 52 9 7 23 47 -28 -27 -26 -33 -35 -25 -43 -46 -54 -49 -3 -8 -24 -37 -58 -53 -11 -13 -42 -4 -10 -41 -1 0
16 30 49 52 28 19 54 55 58 13 41 40 27 53 45 38 22 32 25 33 -9 -21 -8 -2 -4 -18 -61 -59 -60 -29 -17 -34 -5 -14 -36 -43 -37 -10 -46 -24 -12 -15 -39 -35 -23 -11 0
23 19 41 32 56 35 39 40 46 36 33 38 21 -2 -6 -29 -24 -9 -22 -27 -18 0
40 53 29 43 6 5 51 46 41 34 10 26 16 25 58 54 7 18 15 22 11 -24 -48 -61 -44 -30 -19 -23 -39 -36 -21 -52 -27 -50 -28 -37 -4 0
8 53 2 45 50 38 39 28 55 60 54 56 42 48 32 9 11 27 10 35 16 17 58 46 15 12 43 -57 -24 -61 -41 -23 -52 -13 -26 -7 -37 -22 -59 -19 -4 -47 -44 -30 -49 -6 -29 -25 -31 -3 -21 -34 0
51 -12 0
11 60 29 18 53 39 38 -8 -55 -58 -28 -50 0
17 51 7 45 19 61 31 3 15 12 34 41 55 57 13 -5 -30 -52 -46 -60 -24 -11 -42 -26 -40 0
33 46 42 28 18 35 39 21 52 54 -22 -47 -13 -44 -37 -41 -14 -7 -53 -9 -17 -36 0
9 49 37 15 24 43 23 60 44 1 54 22 11 5 38 4 34 2 52 7 10 16 46 50 61 -47 -31 -29 -35 -40 -57 -56 -48 -58 -6 0
47 56 51 49 38 35 37 26 54 19 20 1 33 12 6 42 41 53 59 9 32 7 25 55 -14 -11 -30 -45 -52 -16 -57 -46 -8 -23 -40 -28 -5 -61 -36 -34 -2 -22 -10 -43 -50 0
34 45 8 6 56 43 33 17 40 50 20 44 24 12 30 10 42 48 32 25 27 41 15 19 -29 -37 -60 -9 -21 -49 -61 -58 -18 -16 -39 -38 -47 -1 -31 -11 -7 -26 -46 -2 -54 -59 -36 -52 -5 0
30 7 55 5 9 10 -27 -8 -58 0
6 8 55 53 1 31 7 25 32 44 37 56 3 48 22 49 5 39 24 42 41 11 17 12 43 38 57 14 58 26 -9 -16 -21 -52 -29 -19 -15 -36 -50 -30 -59 -13 -10 -4 -23 -2 -27 -51 -35 0
2 51 4 10 37 56 30 8 19 20 14 21 36 42 6 58 23 49 7 43 24 11 3 -5 -26 -27 -35 -60 -1 -48 -57 -54 -47 -16 -12 -38 -28 -46 -22 -50 -18 -29 -13 -17 -33 -40 -25 -59 -34 -9 0
56 49 27 50 54 45 47 32 24 7 31 15 20 13 35 12 29 -40 -33 0
11 43 60 46 25 47 13 10 18 61 28 59 22 52 20 -50 -3 -27 -57 -24 -54 -21 -12 -17 -8 -36 -56 -19 0
45 20 1 55 47 61 25 15 17 36 12 43 51 41 -29 -4 -6 -8 -23 -13 -31 -59 -16 -11 -18 -54 -24 0
47 6 22 4 58 15 50 19 38 9 7 51 35 30 57 54 18 37 -26 -41 -48 -23 -49 -12 -42 -10 -33 -60 -59 -11 -3 -40 -16 -39 -56 -29 -21 -44 -55 -53 0
58 31 51 47 38 7 28 15 -25 -40 -49 -53 -57 -45 -16 0
4 25 31 28 24 29 44 -5 -57 -36 -54 -13 -10 -38 -18 -30 -51 -40 0
59 13 57 32 2 31 45 34 4 28 30 37 42 6 49 41 14 20 19 48 -18 -39 -5 -33 -29 -25 -26 -23 -50 -12 -3 -38 -9 -61 -36 -21 -35 0
53 20 13 50 37 18 33 57 61 6 5 25 -47 -23 -51 -49 -58 -42 -46 -16 -21 -59 -24 0
39 35 9 45 41 33 47 16 19 -44 -43 -3 -14 -15 -60 -31 -58 -11 -26 -40 -34 -1 -27 -18 -22 -25 -55 -21 -56 0
8 39 29 59 16 34 33 9 25 3 21 2 48 58 37 24 7 51 61 36 44 26 35 52 27 56 30 55 53 57 18 11 12 60 41 -46 -13 -20 -28 -15 -32 -54 -47 -1 -6 -49 -50 -45 -4 -5 -40 -14 -17 -10 0
9 27 40 7 49 52 32 19 48 60 51 5 20 6 36 56 23 -24 -31 -43 -54 -11 -55 -35 -47 -1 -15 -44 -16 -42 -17 -59 -50 0
16 52 60 53 -61 -19 -20 -7 0
5 8 26 -21 -2 -17 0
6 10 35 43 11 53 1 46 33 21 58 27 16 25 37 54 13 15 7 34 30 26 3 31 38 20 -19 -32 -40 -5 -57 -60 -56 -4 -24 -39 -44 -48 -41 -45 -42 -59 -36 -12 -28 -61 -2 -52 -51 -22 -55 -49 -14 -23 0
10 7 61 44 30 40 29 -21 -52 0
11 50 32 14 28 40 59 7 31 13 44 55 18 8 30 -58 -16 -53 -25 -27 -37 -54 -6 0
51 43 37 4 30 29 36 48 57 1 5 13 21 26 55 58 61 40 19 45 -46 -15 -32 -6 -28 -14 -60 -23 -17 -47 -44 -42 -31 -12 -49 -35 -18 0
34 37 49 26 19 35 39 16 18 57 4 59 56 15 44 55 40 25 3 2 53 1 61 38 20 -48 -50 -58 -45 -11 -13 -43 -32 -24 -21 -14 -22 -27 -54 -60 -31 0
37 6 56 10 46 40 51 29 59 54 17 55 7 49 4 30 12 47 9 -11 -28 -50 -19 -53 -32 -13 -24 -14 -3 -26 -57 -8 -27 -38 -48 -20 -31 -36 -45 0
18 3 37 8 20 41 38 39 55 31 36 30 10 53 42 -7 -56 -15 -46 -60 -23 -5 -25 -29 -34 -14 -28 -44 -27 -4 -19 -40 -6 -9 -2 0
5 51 10 24 38 58 60 42 19 29 31 35 12 30 33 32 23 26 27 -52 -48 -8 -40 -17 -53 -47 -21 -22 -59 -28 -9 -15 -57 -45 -4 -37 -36 0
35 2 25 56 31 -47 -43 -1 -12 -55 -11 0
26 49 10 51 35 47 31 1 38 25 58 34 52 7 32 60 59 42 16 6 39 27 41 9 11 20 -55 -50 -2 -48 -23 -14 -61 -24 -21 -36 -4 -45 -40 -46 -29 -8 -53 -44 -15 -3 -22 0
4 11 30 39 41 57 18 19 38 29 -55 -26 -48 -49 -58 -33 -54 -5 -12 -60 -40 -10 -31 -17 -36 -28 -8 -59 -3 -1 0
2 54 55 37 12 18 10 51 38 22 61 4 43 28 7 53 11 58 57 49 -1 -50 -27 -19 -9 -30 -3 -42 -14 -59 -36 -6 -31 -47 -46 -5 -34 -25 -45 -15 -23 -35 -41 -52 -13 -33 0
52 55 44 10 53 29 14 26 4 40 31 2 33 50 28 61 11 17 22 16 18 58 -38 -47 -9 -27 -51 -48 -35 -12 -8 -42 -3 -19 -24 -49 -60 -34 -36 -54 -6 -45 -25 -30 -7 -46 -56 -39 0
5 50 34 39 60 3 55 43 46 28 44 22 31 18 54 37 23 17 49 47 32 -27 -1 -53 -12 -29 -13 -45 -7 -51 -16 -24 -58 -41 -25 -10 -26 -11 -56 -52 -4 0
36 22 24 45 12 5 21 30 41 26 32 37 8 58 23 61 19 1 59 6 38 11 -55 -35 -13 -25 -3 -47 -29 -60 -54 -43 -15 -9 -33 -48 -50 -34 -44 -20 -18 -40 0
15 2 -13 -33 -39 -36 -54 -46 0
52 12 46 9 1 32 14 56 60 34 22 42 48 7 40 43 5 6 27 15 23 28 19 18 16 -36 -3 -55 -49 -31 -4 -61 -44 -57 -20 -53 -54 -30 -26 -24 -25 -13 -17 -38 -37 -2 -21 -8 -50 -47 -29 -45 -58 -10 0
55 59 54 2 51 30 52 27 44 41 61 45 13 3 14 24 35 -33 -4 -53 -36 -40 -10 -37 -50 -39 0
31 45 23 24 11 33 21 42 40 29 28 36 26 43 46 59 2 34 22 16 -50 -15 -49 -44 -12 -61 -56 -7 -6 -32 -54 -55 -53 0
46 16 15 35 8 42 24 36 1 41 21 7 59 45 37 17 57 11 9 44 -40 -28 -56 -54 -20 -26 -25 -33 -53 -2 -50 -52 -19 -39 -13 -55 -3 -23 -43 -49 -22 -61 -60 -14 0
50 49 53 60 38 35 34 51 58 18 28 23 10 15 52 46 24 61 39 40 4 6 25 57 48 43 -29 -9 -45 -27 -44 -12 -42 -19 -17 -30 -31 -47 -22 -3 -56 -20 -59 -36 -8 -1 0
61 44 20 43 19 17 58 34 57 59 38 41 3 23 16 -55 -15 -30 -9 -18 -28 -14 -45 -21 0
17 30 44 45 15 34 23 19 37 59 40 22 20 21 11 56 16 54 43 52 48 50 1 61 55 -18 -27 -29 -53 -5 -49 -51 -25 -9 -2 -31 -3 -47 -33 -12 -42 -46 -13 -35 -28 -41 -60 -32 -7 -57 -36 0
41 8 14 49 21 51 52 12 29 10 50 7 5 -35 -3 -26 -6 -33 -15 -36 -55 0
47 52 50 54 13 39 27 49 46 10 11 29 2 17 32 19 25 21 9 36 16 8 48 33 59 42 61 31 -28 -56 -4 -45 -51 -37 -24 -26 -44 -20 -30 -22 -18 -12 -58 -60 -43 -5 -7 -40 -53 -57 -3 -34 0
30 13 11 59 12 24 25 4 43 18 55 14 -46 -9 -57 -17 -29 -56 -26 -40 -47 -28 -61 -60 -53 -5 -49 -35 -23 -52 0
10 41 34 15 -24 -60 -2 0
-46 0
7 57 41 3 58 11 20 43 51 21 12 44 23 14 27 54 47 38 37 24 48 26 39 2 -45 -52 -5 -6 -30 -29 -60 -19 -28 -16 -46 -36 -55 -50 -56 -31 -32 -33 -4 -40 -59 -9 -18 0
28 30 60 25 16 37 17 14 47 57 6 59 -52 -61 -39 -32 -7 -18 -48 -50 -31 -29 -5 -36 -51 -38 0
56 57 41 13 61 1 37 43 21 12 36 33 58 30 15 14 60 47 44 11 6 5 24 29 55 26 3 42 -40 -16 -46 -59 -52 -50 -4 -10 -51 -2 -32 -45 -20 -54 -31 -48 -19 -23 -28 -34 -18 -38 -7 -25 -9 -53 -17 0
12 19 18 61 10 50 16 49 58 36 2 39 53 -7 -21 -22 -4 -59 -44 -20 -42 -40 -28 -24 -3 -6 -23 -45 -31 -60 -41 -51 -46 -43 -33 -55 -29 -37 -38 0
31 44 48 8 47 41 43 38 12 21 -4 -57 -22 -51 -15 -19 -30 -56 -28 -45 -10 -61 -42 0
15 10 31 11 44 40 51 25 4 43 48 38 52 49 53 13 28 6 42 29 20 -7 -8 -9 -33 -16 -47 -12 -32 -23 -37 -1 -54 -22 -58 -45 -36 -39 -21 -19 -56 -14 -46 -60 0
36 5 53 12 55 8 33 13 17 58 18 21 9 28 31 61 14 52 34 19 41 32 6 -54 -16 -38 -2 -29 -25 -30 -45 -7 -50 -60 -51 -46 -59 -47 0
23 55 9 45 3 35 27 37 14 39 41 5 40 36 17 6 30 57 -50 -15 -53 -58 -18 -21 -38 -34 -1 -56 -13 -43 -51 -48 -61 -10 -25 -60 -49 -26 -7 -46 0
13 60 39 29 25 15 44 46 61 1 58 47 18 34 26 57 48 31 6 19 10 12 14 -35 -2 -4 -9 -21 -36 -27 -16 -40 -42 -49 -7 -43 -28 -22 -41 -33 -52 -32 0
61 12 7 16 41 26 4 5 17 56 14 47 44 40 32 -2 -23 -60 -10 -30 -35 -19 -11 -45 -53 -22 -27 -18 -28 -58 -43 -3 -38 -33 -37 0
31 58 11 42 4 16 43 39 56 -48 -50 -21 -7 -61 -51 -18 -52 -37 0
31 51 23 16 52 56 53 43 37 -15 -61 -5 -30 -59 -47 -55 -49 0
32 21 5 51 16 28 -15 -38 -14 -41 -44 -36 0
54 60 46 16 1 9 32 7 12 -22 -3 -14 -49 -38 -47 0
30 40 6 38 59 52 57 21 36 2 19 14 53 1 24 -11 -27 -60 -7 -5 -23 0
6 7 40 5 4 26 32 49 14 27 55 24 25 8 16 28 59 -13 -44 -23 -51 -22 -53 -31 -34 -17 -41 -35 -9 -57 -12 -38 -2 -33 -42 0
38 52 50 30 32 9 35 48 28 1 26 19 5 10 22 39 56 58 42 18 -15 -7 -14 -16 -21 -2 -61 -12 -41 -44 -27 -4 -34 -24 -53 -43 -46 -29 -49 -60 -8 -31 -13 -57 -40 -47 0
9 55 11 16 19 5 26 24 48 52 34 35 21 59 2 47 14 -17 -40 -6 -25 -31 -12 -46 -8 -4 -43 -15 -37 -56 -10 -36 -20 -33 -18 -60 -7 -28 -51 -30 -45 0
57 21 -35 -33 -14 -30 -61 -60 -8 -13 -25 0
27 23 32 61 59 46 18 31 41 26 38 13 53 37 -35 -47 -44 -3 -15 -48 -19 -33 -40 -11 -30 -42 -7 -45 -5 -2 -21 -20 -22 -6 -9 0
21 10 6 17 23 45 11 22 46 40 48 42 53 55 29 37 7 60 33 41 61 1 31 52 2 14 12 20 35 5 26 51 44 57 -36 -15 -43 -58 -50 -8 -19 -30 -59 -24 -32 -28 -56 -25 -27 -3 -9 -54 -16 -18 -4 -13 -38 -39 -34 0
5 53 22 -6 -21 -20 0
53 28 37 52 17 48 50 42 40 18 58 27 13 23 56 61 45 43 -38 -33 -32 -2 -1 -35 -11 -10 -60 -57 -47 -26 -16 -55 -46 -9 -30 -20 -36 -7 -49 -25 -59 0
59 54 15 2 33 26 10 13 44 36 5 28 34 31 11 -43 -22 -27 -17 -25 -6 -12 -7 -4 -47 -37 -29 -50 0
59 50 1 -7 -17 -32 -45 -48 0
55 34 18 1 46 42 21 19 13 28 4 36 8 52 32 -40 -53 -3 -49 -16 -9 -11 -30 -51 -37 -57 -27 -31 -5 -59 0
30 25 7 53 31 34 52 41 35 3 21 28 13 57 60 6 15 50 19 59 -10 -38 -44 -33 -24 -26 -56 -58 -47 -14 -48 -17 -36 -1 -18 0
9 52 17 28 8 6 5 25 57 39 21 2 34 27 33 -42 -49 -43 -26 -45 -56 -54 -4 -1 -7 0
41 23 57 33 12 40 38 -15 -35 -28 0
56 41 53 54 45 43 52 5 22 2 15 3 13 38 12 59 6 17 10 33 18 51 7 37 58 -50 -31 -60 -42 -9 -61 -30 -14 -26 -47 -8 -40 -48 -4 -11 -39 -19 -35 -36 -23 -55 -27 -32 -29 -44 -46 -24 -20 -25 -49 -1 0
47 48 12 34 39 11 53 49 8 24 37 28 31 61 57 54 14 51 44 45 7 36 60 56 30 43 27 26 -38 -3 -18 -33 -6 -52 -13 -17 -22 -41 -5 -32 -42 -19 -55 0
41 46 28 32 60 48 58 40 8 3 51 -21 -5 -24 -4 -53 -18 0
54 26 48 52 47 10 -38 -43 -1 -30 -13 -18 0
37 52 26 39 2 33 7 45 35 19 -56 -24 -54 -34 -48 -44 -49 -36 -60 -21 -14 -43 -50 -11 -31 -10 -22 -57 0
46 21 8 30 31 29 52 48 51 33 45 53 50 54 5 32 28 34 55 17 36 -24 -25 -59 -9 -38 -35 -44 -43 -19 -1 -4 -7 -16 -11 -37 -6 -26 -40 -39 -58 -10 -20 -22 -42 -3 -12 -60 -27 0
23 31 56 42 17 7 52 1 54 6 35 48 37 32 -19 -20 -39 -25 -61 -33 -28 -50 -14 -57 -46 -12 0
39 47 49 30 18 21 57 60 29 53 55 35 6 9 16 25 14 20 5 13 31 3 32 -22 -37 -17 -2 -61 -24 -10 -12 -34 -38 -1 -8 -54 -4 -40 -45 -33 -11 -36 -50 -42 0
26 40 50 -42 -51 0
43 -45 0
26 6 52 38 27 13 12 46 49 48 35 20 55 32 5 58 61 8 10 56 42 41 15 44 57 53 33 22 3 11 60 23 18 -50 -37 -7 -51 -25 -31 -24 -9 -30 -29 -17 -47 -40 -1 -21 -59 -28 -45 0
1 7 42 24 3 57 26 23 36 2 50 12 5 59 60 52 25 -39 -9 -32 -35 -46 -34 -38 -31 -53 -56 -6 -19 -28 -4 -11 -17 -13 -30 -10 -61 -15 -49 -22 0
13 50 47 -36 -43 -10 -30 -27 -9 -2 -34 -45 0
17 8 23 10 3 13 25 43 56 22 54 48 57 29 24 49 2 1 45 38 46 39 59 34 42 37 7 31 27 -33 -60 -20 -35 -18 -12 -30 -41 -19 -6 -15 -40 -50 -5 -11 -28 -32 -4 -47 -52 -21 -44 -9 -36 -51 -16 -55 -26 -58 0
27 1 14 20 2 36 32 39 -48 -22 -40 -45 -8 -43 -38 -55 -42 0
59 26 51 47 42 37 17 8 60 19 16 35 28 24 36 -4 -32 -34 -53 -56 -29 -48 -18 -49 -39 -58 -31 -3 -55 0
16 12 41 14 59 27 32 21 30 29 44 42 53 -39 -11 -25 -40 -35 -34 -7 -1 0
26 12 11 48 1 42 53 40 24 37 25 8 3 59 9 17 52 51 14 -21 -46 -6 -15 -57 -19 -34 -45 -38 -41 -30 -20 -32 -54 -47 -18 -61 0
20 58 46 1 23 38 28 47 52 45 6 48 36 8 -18 -37 -7 -31 -59 -42 -50 -30 -54 -11 -22 -43 -56 -26 -9 -21 -15 0
20 26 3 8 50 30 48 24 49 11 52 33 37 60 16 29 53 4 13 43 51 59 39 54 28 17 36 56 23 -19 -32 -42 -21 -35 -41 -12 -46 -15 -40 -22 -10 -5 -6 -38 -7 -25 -18 -27 -44 -2 -31 -14 -34 -45 -1 0
28 24 7 -58 -2 -37 0
55 2 47 3 56 26 7 28 10 5 51 30 43 36 17 20 31 18 41 9 50 57 23 54 8 -14 -46 -34 -21 -6 -11 -1 -58 -15 -53 -12 -38 0
55 57 9 28 52 21 33 39 58 60 25 16 61 46 24 31 1 8 35 11 22 32 36 -37 -27 -13 -34 -44 -41 -7 -42 -3 -6 -2 -59 -49 -18 -20 -47 -19 -10 -17 -45 -38 -43 -50 0
8 40 10 30 52 56 58 37 59 -11 -4 -42 -55 -28 -53 -23 -17 -31 -14 -39 -38 -47 -19 0
26 35 58 48 45 28 55 11 22 34 3 47 25 60 54 32 12 16 9 29 24 41 53 4 19 1 46 6 -40 -52 -2 -37 -30 -5 -43 -13 -51 -57 -56 -42 -50 -33 -15 -61 -7 -10 -44 -17 -18 -59 -27 -14 -21 -23 -8 -31 0
14 16 59 39 12 7 21 10 32 24 11 43 18 34 23 51 45 41 17 48 47 37 6 57 46 38 27 25 -60 -49 -52 -28 -19 -9 -58 -5 -56 -15 -50 -20 -44 -53 -54 -29 -8 -36 -22 -13 -42 -61 -31 -55 -40 0
55 7 31 36 33 59 60 24 61 37 22 8 19 28 54 18 14 27 32 1 53 20 42 25 15 34 43 -16 -21 -10 -3 -57 -50 -41 -26 -58 -35 -39 -5 -46 -2 -52 -47 -29 -40 -12 -45 -49 -44 -6 -4 -13 -11 -30 -56 0
16 42 49 53 37 52 26 44 8 28 45 38 32 43 13 41 46 51 58 47 15 -54 -25 -36 -33 -14 -59 -2 -6 -56 -19 -23 -24 -50 -12 -35 -4 -22 -40 -27 -11 -31 -10 -57 -7 0
8 23 39 1 27 59 31 47 36 56 6 3 34 10 46 16 60 32 17 20 61 15 37 -13 -21 -7 -30 -4 -28 -40 -24 -48 -12 -38 -22 -50 -43 -19 -14 -25 0
10 51 9 40 60 36 3 4 38 54 27 5 7 16 46 47 57 44 -8 -32 -25 -43 -29 -14 -2 -52 -17 -11 -61 -42 -26 -24 -49 -55 -58 0
6 52 54 3 16 10 29 45 51 11 56 8 35 50 42 17 12 -2 -34 -36 -9 -23 -22 -5 -32 -13 -37 -15 -24 -49 -27 -7 -31 -55 -1 0
54 8 38 36 35 44 43 1 4 49 41 48 11 30 24 9 14 22 34 19 15 60 42 21 26 33 39 6 50 7 29 5 32 -57 -59 -45 -47 -55 -20 -31 -23 -16 -3 -52 -13 -58 -61 -17 -40 -12 -18 -37 -51 -10 -27 -28 -53 0
51 8 30 46 53 24 45 20 23 18 6 33 25 7 47 55 42 9 10 -13 -36 -60 -12 -22 -48 -54 -59 -38 -31 -39 -21 -29 -49 -56 -44 -37 -16 -41 0
18 6 41 30 43 53 40 48 60 50 14 20 10 36 56 51 44 29 57 54 16 3 25 -4 -46 -22 -27 -2 -15 -35 -59 -7 -42 -47 -8 -31 -32 -55 0
54 61 -37 -4 -28 -48 -36 -60 0
27 44 26 12 60 52 47 58 -36 -19 -24 -46 -35 -8 -2 -38 -61 -59 -13 -17 -14 0
46 3 23 16 13 5 32 6 49 42 30 54 19 25 14 43 52 -50 -1 -34 -26 -48 -7 -33 -40 -21 -58 -8 -47 -10 -39 -22 -28 0
7 10 29 47 9 53 35 32 39 12 16 -11 -36 -22 -44 -30 -37 -2 -5 0
2 46 43 27 15 -24 -35 -17 -16 -47 0
48 33 50 4 43 45 47 30 20 6 18 16 39 44 28 54 32 37 61 22 5 -2 -59 -3 -23 -41 -25 -19 -38 -17 -21 -53 -11 -42 -56 -29 -24 -58 -8 -51 -36 -35 -55 -34 -31 -27 -46 -49 0
31 49 10 20 22 33 14 51 1 59 28 44 16 45 7 19 -15 -50 -48 -4 -53 -46 -39 -26 -47 -29 -58 -11 -21 -8 -25 -23 -12 -18 -61 -6 -42 0
25 56 38 42 59 16 41 58 7 55 -14 -26 -23 -39 -22 -52 -40 -51 -1 -33 -5 -43 -13 -29 -61 -35 -46 -27 -24 0
11 58 2 49 30 35 10 3 34 13 36 20 17 48 54 59 -40 -25 -1 -53 -28 -51 -43 -57 -16 -21 -50 -52 -29 -44 -18 -19 -14 0
2 9 30 44 51 61 52 43 3 54 32 6 7 39 18 10 40 14 41 26 46 48 55 57 35 36 53 16 12 -20 -56 -13 -60 -21 -49 -11 -8 -50 -47 -58 -17 -28 -38 -1 -34 -31 -59 -29 -37 -33 -42 -4 -15 -5 -24 -23 0
55 20 59 41 52 11 44 61 32 19 10 27 15 33 43 50 2 14 3 42 22 45 31 5 4 60 -28 -13 -25 -36 -16 -26 -30 -39 -23 -47 -6 -49 -34 -8 -35 -9 -1 -18 -7 -51 -40 -58 -37 -38 -46 -54 0
19 1 45 33 44 46 48 13 55 4 17 29 49 40 35 57 34 61 16 30 -37 -60 -53 -18 -36 -56 -23 -39 -42 -27 -38 -11 -5 -2 -14 -6 -32 -8 -3 -22 -59 -20 -50 -7 -58 -28 0
32 54 25 6 22 60 44 -20 -2 -45 -55 -38 -42 -1 -51 -39 0
37 13 16 49 32 51 11 48 56 33 60 42 4 46 17 2 27 39 35 1 25 -50 -10 -57 -19 -9 -12 -18 -28 -53 -31 -38 -45 -34 -43 -30 -55 -26 -36 -44 -22 -14 -61 -59 -15 -23 0
35 61 56 30 41 40 3 51 47 49 19 29 28 58 46 15 27 36 8 38 53 -44 -42 -9 -43 -50 -20 -32 -31 -13 -57 -6 -52 -12 -5 -21 0
10 20 4 16 28 49 54 5 6 14 43 26 32 48 55 1 59 40 38 18 34 22 56 11 39 50 15 51 47 -46 -57 -8 -17 -31 -23 -7 -37 -30 -13 -2 -19 -3 -45 -27 -9 -61 -36 -60 -21 -42 0
8 14 26 3 5 49 6 46 16 19 13 31 2 55 -18 -22 -25 -4 -53 -17 -59 -29 -37 -56 -36 -50 -52 -35 -40 -39 -30 -38 0
39 45 1 37 50 32 -58 -21 -16 -31 -36 -11 -34 -19 0
11 14 36 35 9 31 42 1 57 -16 -32 -39 -13 0
16 10 36 57 11 49 58 22 54 1 50 34 29 61 9 -17 -28 -55 -59 -23 -52 -3 -42 -35 0
36 35 24 51 29 19 2 49 10 37 55 3 18 9 8 14 5 16 39 32 4 59 -57 -15 -38 -27 -48 -52 -11 -13 -34 -30 -28 -12 -47 -41 -46 -1 -6 -42 -26 -56 -45 -21 -17 -54 -31 -60 -33 -43 0
7 53 11 10 27 4 45 44 48 52 46 6 28 41 3 57 22 24 49 61 2 25 33 -36 -37 -30 -12 -43 -9 -47 -18 -26 -54 -55 -51 -5 -1 -29 -42 -32 -34 -17 -21 -8 -15 -14 -39 -16 -19 -38 -60 -20 -58 0
58 17 44 20 6 33 59 -40 -29 -10 -15 0
27 41 5 47 40 13 39 55 51 25 45 16 44 -59 -60 -20 -4 -7 -35 -22 0
45 25 46 -44 0
34 24 45 22 2 50 3 46 35 47 23 58 -60 -37 -6 -54 -5 -29 -61 -48 -42 0
6 25 42 60 41 34 35 52 20 51 10 22 14 -45 -2 -24 -27 -49 -26 -3 -44 -36 -11 -32 -19 -37 -12 0
10 14 57 45 18 19 24 51 50 34 44 55 42 28 36 13 -60 -5 -17 -48 -37 -6 -22 -20 -41 -8 -52 -16 -38 -25 -12 -61 -33 -35 0
1 2 6 38 30 28 54 11 15 20 59 5 32 40 3 61 41 10 52 9 58 -12 -16 -53 -27 -36 -25 -49 -7 -19 -39 -13 -33 -24 -4 -14 -21 -45 -26 -23 0
37 58 55 -31 -11 -13 0
29 31 28 23 7 54 19 51 1 35 37 61 33 12 13 43 8 -47 -42 -26 -40 -49 -48 -50 -20 -59 -44 -17 -60 -39 -30 -5 0
6 51 16 42 53 44 8 46 49 57 34 56 47 -13 -20 -23 -43 -26 -24 -30 -29 -28 -1 -54 -22 -31 -61 -17 -10 -55 -52 -14 0
3 28 48 1 56 29 53 -60 -31 -6 -41 -54 -59 -18 -34 -2 -4 0
17 13 15 56 1 14 20 18 12 2 47 35 27 43 -7 -28 -55 -9 -11 -37 -46 -19 -44 -53 -33 -36 -23 -58 -5 -22 -59 -61 -54 -51 -26 -45 -34 -6 -32 0
52 56 31 21 26 29 12 9 22 7 15 40 5 24 48 17 3 30 57 8 36 23 53 47 -28 -32 -4 -49 -19 -55 -2 -20 -27 -38 -34 -14 -60 -46 -18 -10 -45 0
56 29 -32 -1 -37 -10 0
3 37 18 61 57 31 41 48 59 23 16 51 27 47 36 52 15 43 20 33 26 5 8 -30 -1 -14 -17 -39 -60 -40 -44 -34 -45 -19 -12 -32 -21 -9 -24 -7 -13 -35 -50 -10 -4 0
9 41 24 13 3 36 40 46 23 59 15 32 60 7 34 54 19 4 38 55 48 53 47 29 8 -16 -35 -14 -11 -33 -5 -52 -58 -50 -42 -21 -31 -17 -57 -30 -1 -45 -22 -10 -37 -26 -2 0
47 50 13 18 16 60 54 20 48 36 3 34 11 -43 -6 -26 -22 -39 -61 -58 -38 -2 -8 -27 -40 0
27 47 34 46 36 0
60 38 27 43 30 42 33 12 46 16 44 40 58 32 59 6 4 34 5 23 -2 -53 -47 -45 -48 -21 -56 -18 -9 -52 -29 -7 -50 -8 -49 -54 -11 -20 -31 -35 -26 -24 0
61 25 51 5 55 52 53 57 22 34 39 56 -60 -40 -45 -44 -31 -36 -29 -58 -42 -20 -6 -24 -26 -54 -41 -7 -18 -14 -13 -12 -11 -8 -32 -50 -33 -28 -37 -9 0
42 36 52 51 5 50 16 23 61 12 27 14 7 40 59 37 48 58 6 35 31 8 3 30 9 38 10 29 54 1 -28 -47 -41 -49 -43 -45 -2 -44 -19 -32 -13 -57 -22 -26 -21 -53 -17 -55 -11 0
55 6 49 3 10 53 23 47 9 56 57 5 34 59 4 52 58 36 16 43 -48 -8 -29 -25 -12 -60 -26 -11 -33 -14 -1 -42 -45 -22 -13 -31 -17 -40 -54 -18 0
19 60 33 61 37 40 3 1 55 24 12 48 14 57 56 25 53 2 29 22 50 42 5 16 13 51 26 46 52 -47 -31 -59 -41 -35 -49 -6 -4 -32 -45 -43 -21 -20 -30 -27 -36 -10 -34 -7 -39 -58 0
20 11 1 48 19 50 -6 -5 -54 -28 -60 0
56 40 7 2 42 38 43 44 55 60 32 54 12 52 31 35 24 9 61 46 3 39 -34 -28 -13 -59 -23 -49 -36 -57 -27 -15 -22 -53 -19 -45 -58 -14 -50 -6 -10 -5 -33 -51 -30 -17 0
11 42 34 57 51 43 25 37 15 -26 -13 -35 -41 0
41 53 45 35 29 40 8 1 50 57 48 25 44 58 2 4 21 51 14 28 17 38 -5 -37 -36 -23 -49 -19 -3 -26 -61 -13 -7 -52 -15 -42 -47 -30 -59 -46 -34 -18 -16 -55 -27 -39 -10 -24 -6 -20 -56 -60 -32 -9 0
60 5 21 19 16 44 10 -23 -3 -15 -36 -51 -57 -35 0
26 19 52 33 16 22 20 31 58 7 41 46 37 27 3 8 48 1 12 36 51 42 9 14 2 44 17 -15 -10 -57 -43 -38 -32 -59 -11 -39 -30 -56 -53 -18 -55 -49 -6 -28 -60 -35 -34 -25 -13 -29 -24 0
29 12 18 52 50 51 53 57 1 17 2 38 42 61 16 34 44 28 21 10 49 26 59 23 15 13 39 41 11 -20 -22 -14 -45 -35 -40 -33 -24 -27 -55 -19 -4 -36 -46 -37 -56 -8 -32 -30 -31 -47 -7 -54 -25 -43 -3 -58 -60 0
60 -18 -37 -41 0
14 39 43 -4 -2 -16 -42 -28 0
23 55 3 27 50 25 29 53 37 -14 -49 -57 -1 -16 -18 -13 -38 0
18 14 54 46 28 33 -31 -45 -53 -48 -15 -57 -26 -7 -11 -34 -49 -19 -51 0
50 30 18 35 33 52 24 5 12 57 61 34 22 51 16 39 8 -21 -31 -29 -15 -3 -56 -43 -1 -55 -19 -7 -53 -54 -20 -26 -17 -59 0
37 15 24 29 21 6 48 39 47 27 35 49 11 46 12 22 17 3 9 45 44 26 60 41 55 10 36 38 -54 -7 -1 -19 -43 -34 -28 -2 -23 -61 -51 -42 -20 -50 -52 -30 -56 -31 -40 -13 -59 -4 -8 -5 -53 -32 -18 -14 -57 0
26 9 61 -49 -40 -19 -47 -34 -24 -57 0
7 58 13 55 32 53 24 31 48 45 25 -44 -18 -21 -56 -57 -4 -40 -51 -11 -59 -41 -52 -5 -39 -23 -26 -20 -16 -42 -49 0
5 35 34 27 36 42 61 45 8 56 38 40 7 31 51 37 14 30 33 15 23 46 60 25 -52 -21 -43 -44 -26 -12 -10 -39 -50 -22 -57 -48 -32 -6 -13 -49 -47 0
9 24 4 48 30 11 19 40 36 6 47 10 1 41 29 42 16 8 15 57 49 14 -27 -54 -12 -34 -37 -20 -5 -32 -44 -51 -22 -45 -43 -2 -46 -3 -25 -13 -58 -17 -7 -21 -56 -52 -53 -61 -38 -50 -18 -23 0
6 39 19 58 16 23 56 26 4 47 60 12 17 29 9 15 52 34 -22 -5 -11 -42 -37 -44 -24 -59 -31 -50 -10 -45 -51 -27 -57 -61 -55 -7 -36 0
50 56 12 8 36 46 49 18 1 41 34 59 60 28 48 40 27 58 47 23 19 -17 -22 -38 -26 -51 -52 -57 -43 -31 -10 -39 -55 -54 -33 -21 -13 -25 -35 -45 -5 -3 -53 -42 -2 -11 -7 0
7 1 61 33 50 47 53 32 36 22 9 16 8 48 27 31 13 15 21 -49 -26 -28 -29 -35 -40 -44 -58 -20 -19 -39 -11 -24 -43 -12 -57 -45 -18 -2 -30 0
16 20 40 41 43 42 25 11 51 4 23 1 8 57 50 60 58 30 12 53 6 38 28 56 59 32 44 -37 -14 -15 -26 -22 -33 -48 -2 -35 -31 -49 -18 -13 -7 -5 -46 -45 -19 -39 -10 0
12 20 2 56 8 35 58 47 32 40 43 41 3 38 61 33 29 54 24 37 -19 -34 -46 -51 -5 -27 -25 -48 -6 -55 -9 -50 -1 -18 -31 -45 -23 -36 -28 -26 -22 -21 -39 -4 -57 0
13 5 14 29 26 51 37 27 57 49 2 23 42 21 12 4 36 19 31 3 47 39 34 10 9 41 50 55 -44 -43 -15 -18 -16 -35 -59 -6 -8 -53 -20 -28 -61 -46 -52 -25 -33 -38 -32 -22 -1 -48 -54 -24 -45 -58 -56 -40 -30 0
33 14 30 37 49 10 2 6 9 41 38 36 27 60 29 -48 -20 -17 -11 -28 -45 -44 -18 -58 -47 -35 -8 -57 -25 0
37 46 51 22 5 19 41 2 31 12 15 17 60 13 25 55 50 4 54 7 9 44 24 26 11 30 14 42 29 18 34 -1 -57 -52 -3 -20 -43 -53 -40 -56 -47 -59 -21 -10 -23 -16 -28 -58 -35 -8 -61 -45 -27 -48 -6 -39 -38 -33 -49 -36 0
10 41 61 9 38 22 59 55 11 57 33 4 -50 -53 -47 -16 -20 -29 -21 -39 -18 -27 -52 -17 -19 -45 -1 -54 0
54 11 21 29 7 30 28 58 19 10 51 40 1 2 -43 -17 -25 -12 -8 -39 -26 -6 -5 -59 -22 -16 0
24 34 50 27 23 60 29 25 44 39 13 42 28 45 21 40 48 58 56 55 36 37 14 1 7 -19 -32 -8 -6 -20 -47 -16 -12 -53 -43 -10 -3 -26 -33 -52 -18 -5 -17 -22 -4 -59 -54 -61 -49 -2 -51 -31 -41 -30 -15 -57 -9 -38 -46 0
42 27 31 29 51 13 15 58 23 59 22 10 36 35 57 14 12 -48 -2 -20 -43 -50 -53 -24 -11 -3 -38 -1 -60 -19 0
42 43 30 34 21 59 33 45 38 26 7 18 17 25 4 6 39 23 27 22 44 60 12 55 37 57 -40 -14 -20 -1 -32 -47 -36 -46 -35 -11 -15 -8 -61 -2 -10 -5 -28 -58 -54 -13 -51 -3 -9 -50 -29 -56 -48 -52 -41 -24 -53 -19 0
14 40 50 49 58 31 12 37 16 42 41 -23 -17 -38 -60 -5 -59 -19 -29 -43 -45 -35 -30 -32 0
15 16 30 37 -36 -5 -47 0
54 10 25 16 50 42 45 60 -48 -1 -43 -44 -41 -20 0
37 22 32 30 43 27 5 55 28 -25 -56 -48 -26 -31 0
37 6 38 23 54 18 43 20 42 11 55 50 19 33 31 46 39 2 4 26 25 48 40 16 -12 -44 -17 -29 -51 -8 -52 -21 -59 -53 -24 -56 -41 -22 -7 -1 -47 -27 -9 -34 -10 -58 -13 -36 -5 -32 -49 -61 -35 0
12 7 2 9 37 1 11 31 47 58 55 44 22 4 50 -48 -30 -56 -18 -57 -32 -41 -6 -51 -21 -13 -14 -45 -40 -39 -28 -3 -16 -54 -23 -38 -43 0
-60 -7 -3 0
52 48 32 60 7 30 28 8 43 1 51 39 47 3 12 4 25 6 21 53 10 -59 -13 -35 -33 -45 -9 -50 -2 -24 -42 -5 -22 -36 -46 -41 -44 -34 -23 -61 -27 -18 0
45 16 7 27 37 28 1 57 23 15 26 35 17 -46 -24 -58 -25 -60 -12 -36 -44 -20 -33 -3 -50 -49 -5 -6 -40 -11 -52 0
57 61 50 56 21 1 5 15 31 46 11 -52 -35 -12 -23 -30 -48 -39 -33 -19 -44 -6 0
23 38 10 -56 -36 -4 -52 -41 -49 -30 -39 0
42 25 45 21 -61 0
24 19 11 61 57 18 51 3 5 25 35 28 37 59 17 42 23 6 12 32 7 44 30 34 39 33 53 45 52 -14 -47 -9 -48 -38 -21 -4 -13 -55 -26 -58 -27 -22 -56 -60 -16 0
33 22 20 57 58 5 48 8 2 16 7 41 44 45 19 27 54 32 3 6 13 21 4 39 1 11 -17 -56 -40 -46 -42 -34 -31 -60 -23 -38 -59 -24 -43 -36 -61 -26 -50 -30 -15 -28 -18 -53 -35 -14 -55 0
31 28 18 60 43 27 40 24 4 -59 -3 -41 -42 0
29 54 23 9 58 59 20 44 55 -5 -45 -42 -34 -6 -61 -32 -41 -27 0
50 37 10 -11 -39 0
53 11 56 3 5 18 44 34 26 8 1 49 17 28 2 -33 -45 -39 -15 -25 -21 -24 -19 -6 -59 -13 -52 -57 -36 -12 -55 0
42 58 1 41 59 14 4 20 27 37 -52 -54 -7 -34 -40 -11 -25 -32 -43 -15 -50 -12 -35 -51 -53 -36 0
20 60 26 33 25 -51 -55 -6 -59 0
54 34 31 32 30 40 22 41 7 51 29 56 47 57 38 12 49 9 -45 -35 -10 -59 -3 -4 -36 -43 -8 -24 -50 -6 -44 -48 -61 -55 -13 0
26 32 54 -21 -37 -55 -11 -24 -60 0
6 39 46 2 13 12 14 35 22 58 44 18 3 61 50 37 15 26 28 5 16 -23 -20 -10 -45 -60 -52 -8 -1 -33 -34 -36 -41 -25 -40 0
13 33 55 41 54 6 48 4 37 31 16 9 15 10 57 56 -5 -22 -3 -11 -42 -1 -30 -35 0
5 31 44 40 8 41 42 -9 -2 -48 -24 -49 -13 -33 0
10 8 39 44 58 37 47 54 27 55 56 16 26 29 14 32 49 -4 -23 -2 -38 -24 -13 -33 -48 -17 -43 -60 -42 -15 -50 -57 -20 -52 -19 -3 -28 -53 -45 -36 -9 -25 0
12 16 40 36 49 28 38 59 15 -50 -5 -53 -7 -60 -30 -11 -8 -57 -24 0
13 27 10 52 33 28 19 55 -24 -38 -11 -51 -9 -56 -43 -53 0
43 27 56 44 46 5 17 53 33 55 39 60 40 6 35 51 18 52 38 34 23 24 54 -13 -61 -3 -32 -28 -22 -47 -58 -31 -16 -45 -57 -42 -4 0
2 20 21 55 52 5 16 36 41 54 45 56 -32 -24 -23 -33 -30 -37 -27 -22 -11 -18 -26 -25 -7 -43 -29 -49 -28 -17 0
13 6 48 39 47 2 34 32 21 33 41 14 4 46 30 19 49 31 53 51 57 42 -5 -18 -36 -9 -1 -61 -11 -50 -27 -3 -38 -16 -60 -52 -29 -44 -25 0
26 32 12 18 61 50 29 33 28 47 45 48 27 44 35 -53 -40 -56 -24 -34 -25 -22 -13 -2 -36 -38 0
16 10 33 43 41 23 47 2 44 1 20 21 18 52 13 42 31 14 59 46 11 58 -45 -5 -49 -26 -56 -48 -28 -25 -53 -27 -34 -60 -15 -19 -9 -54 -8 -51 -12 -22 -17 -30 -40 -29 -50 -38 -61 -3 0
13 50 45 55 19 46 41 1 4 27 25 51 28 29 16 24 -34 -58 -20 -15 -54 -23 -36 -30 -37 -12 -21 -3 -40 -48 -52 -7 -2 0
17 41 56 44 24 43 42 45 36 6 39 10 21 -55 -50 -26 -22 -14 -53 0
29 45 18 56 15 60 12 24 37 53 5 31 21 61 -11 -8 -44 -6 -25 -55 -10 -34 -59 -51 -28 -30 -42 -32 -4 -2 -17 0
33 12 19 26 30 21 61 48 9 36 55 4 51 18 44 10 24 49 34 40 16 20 17 -5 -3 -7 -29 -56 -6 -39 -37 -28 -50 -38 -13 -42 -45 -46 -15 -25 -41 -23 -47 -53 0
48 12 20 38 13 3 18 29 44 31 33 34 32 42 56 53 22 8 37 21 57 54 51 16 -61 -7 -36 -24 -6 -55 -26 -1 -27 -10 -58 -5 -39 -60 -30 -23 -35 -40 0
6 46 14 22 50 61 55 24 34 10 41 38 59 54 23 -17 -32 -40 -27 -47 -19 -20 -28 -12 -35 -5 0
41 61 20 5 13 26 25 27 10 48 58 51 7 46 18 55 29 21 44 4 59 43 -37 -49 -35 -36 -33 -15 -53 -12 -45 -17 -8 -31 -47 -52 -16 -2 0
25 28 40 32 26 44 30 5 47 19 34 58 55 42 33 29 20 1 36 15 13 27 51 21 31 61 2 4 59 60 18 -53 -57 -52 -54 -11 -48 -17 -8 -45 -43 -46 -12 -41 -50 -24 -7 -9 -16 -37 -6 -49 -10 -14 -35 -56 -38 -23 -22 -3 0
59 33 15 16 37 20 42 48 9 7 12 30 18 5 46 8 39 -26 -14 -60 -24 -61 -11 -50 -23 -22 -28 -40 -41 -34 -51 -4 -53 -58 -13 -35 -10 -36 -32 -3 -17 -25 -31 0
52 29 59 30 5 40 14 11 33 56 6 58 31 42 38 -3 -53 -17 -60 -43 -19 -12 -18 -45 -39 -20 0
57 58 60 53 2 32 54 38 4 12 -5 -41 -56 -9 -25 -43 -35 -27 -31 -24 -47 -21 -1 0
27 26 33 6 23 56 47 14 44 53 49 52 25 4 35 20 43 50 -18 -19 -12 -59 -15 -9 -34 -17 -16 -45 -54 -39 -55 -5 -51 -24 -3 -58 -60 -10 -48 -40 -31 -2 -7 -1 0
61 1 42 17 22 19 30 4 46 13 49 -54 -33 -36 -45 -28 0
36 5 33 8 18 32 47 44 10 28 3 19 38 29 35 21 9 25 4 -1 -60 -23 -13 -54 -43 -6 -30 -17 -12 -46 -16 -61 -55 -20 -14 -41 -37 -15 -59 -51 -7 -40 0
33 44 4 57 60 51 1 3 40 38 32 18 11 9 41 10 20 52 53 50 55 8 25 -42 -35 -26 -7 -47 -2 -12 -13 -21 -36 -30 -16 -49 -5 -46 -39 -14 -17 -27 -29 -56 -59 -23 -22 -37 -15 -61 -19 -31 0
46 60 8 47 14 59 49 7 52 61 54 35 56 55 23 17 9 -19 -45 -26 -48 -12 -10 -36 -31 -33 -37 -53 -11 -29 0
57 -29 -2 -9 -19 0
40 34 31 22 11 54 37 36 13 21 9 47 33 48 5 18 61 60 7 -25 -29 -27 -20 -41 -16 -57 -23 -35 -1 -28 -51 -52 -19 -24 0
35 45 48 37 26 3 20 9 43 15 21 51 5 24 52 50 47 46 22 36 -7 -25 -61 -19 -44 -31 -12 -27 -4 -33 -32 -13 -53 -17 -39 -6 0
41 56 17 3 43 61 25 47 -29 -42 -18 -54 -1 -23 -49 -60 0
31 11 50 19 47 58 60 22 -17 -29 -40 -16 -26 -10 0
28 59 14 18 12 20 44 15 10 43 13 8 1 53 9 26 6 4 57 16 24 61 39 34 -7 -56 -32 -47 -46 -50 -54 -38 -17 -2 -36 -33 -35 -5 -19 -21 -58 -55 -29 -42 -41 -23 -25 -31 -3 -49 -60 0
22 40 44 24 21 55 46 9 6 12 31 54 56 13 48 17 3 -25 -27 -4 -60 -18 -61 -15 -28 -33 -11 -5 -49 -34 -53 -36 -51 -39 -7 -10 -19 -43 -2 -47 -58 -8 -37 0
18 44 22 49 4 43 24 7 -1 -35 -12 -26 -6 0
22 4 61 39 12 42 55 32 54 28 -50 -33 -41 -21 -30 -24 -31 -60 -3 -19 -7 -48 -23 -43 -57 -1 -6 0
57 9 54 51 7 31 38 60 21 49 2 28 14 39 46 41 22 47 11 53 1 8 -56 -55 -48 -58 -37 -35 -30 -16 -19 -24 -32 -13 -15 -26 -5 -44 -52 -43 -40 -33 -4 -3 -25 -10 -20 -29 0
16 17 14 25 43 12 15 45 23 28 -61 -32 -27 -11 -53 -47 -22 -52 -60 -48 0
18 6 3 39 33 57 15 36 1 42 11 9 38 48 43 40 34 60 25 24 55 5 -58 -51 -21 -50 -35 -17 -7 -37 -49 -59 -26 -41 -61 -19 -44 -46 -22 0
52 18 19 8 6 42 61 21 39 54 22 -17 -58 -15 -2 -5 -27 -51 -38 -43 0
23 4 51 35 19 3 41 45 2 60 37 53 49 20 54 42 29 58 15 47 16 24 18 61 44 40 -46 -33 -13 -17 -52 -5 -7 -30 -10 -50 -31 -1 -48 -14 -32 -55 -34 -8 -38 -11 -25 -43 0
22 14 43 34 47 52 58 61 32 29 39 45 23 12 9 56 35 15 -49 -33 -18 -46 -51 -7 -42 -44 -53 -17 -25 -57 -21 -11 -54 -1 -60 -41 -55 0
32 38 23 11 6 36 34 -48 -27 -4 -52 -39 0
24 10 1 33 53 27 51 25 -5 -42 -30 -58 0
19 9 2 41 36 15 56 45 29 18 60 48 30 10 28 32 11 52 39 25 27 21 53 -40 -57 -20 -49 -13 -24 -7 -58 -47 -6 -14 -61 -43 -5 -4 -17 -31 -44 -33 -1 -12 -51 -34 -55 -38 -42 -23 -26 0
9 41 53 57 49 37 29 11 16 24 46 25 31 48 38 10 40 59 56 43 23 58 42 51 7 45 50 47 27 36 21 8 6 55 12 -26 -30 -14 -35 -32 -39 -44 -15 -60 -20 -54 -52 -28 -4 -61 -5 -18 -1 -17 -22 -34 -13 -33 -19 0
3 18 20 15 46 54 -51 -41 -58 -59 -13 -9 -16 -32 -10 -11 -43 -39 -29 -21 -7 0
44 37 23 27 39 8 19 21 28 36 49 48 57 20 35 13 52 40 12 18 26 32 51 11 25 61 58 34 38 22 15 29 17 -5 -46 -7 -24 -6 -50 -3 -9 -54 -45 -4 -33 -30 -16 -53 -47 -59 -60 -55 -43 -42 -10 -2 -1 -41 0
45 43 52 27 50 8 -12 -47 -11 -55 -32 -54 0
19 29 40 38 51 26 46 6 57 5 45 24 33 3 31 10 44 23 7 48 -14 -16 -32 -27 -15 -37 -42 -58 -30 -8 -25 0
18 2 5 13 34 21 31 38 42 26 49 29 41 25 51 4 37 58 -57 -24 -60 -3 -36 -32 -50 -54 -17 -45 -8 -10 -44 -27 -35 -12 -52 -1 -46 -22 -19 -23 -39 -61 -9 -28 -30 -11 0
23 54 9 26 53 37 41 39 13 49 43 40 -14 -46 -19 -47 -58 -33 -52 -11 -25 -4 -57 -28 -42 -24 -16 -5 -29 0
24 29 58 54 45 18 -2 -61 -12 -49 -8 -4 -47 0
4 27 58 38 12 22 41 14 44 25 16 49 36 43 3 13 29 11 35 40 -30 -33 -53 -18 -32 -48 -24 -20 -50 -39 -51 -6 -8 -10 -26 -9 -47 -46 -52 -59 -7 -5 -28 -15 -60 -21 0
46 49 5 43 35 45 22 48 7 18 38 2 21 10 20 61 -19 -9 -55 -44 -47 -14 -42 -59 -40 -33 -51 -24 -4 -25 -3 -53 -23 -26 -17 -56 -28 -13 -29 -57 -54 -30 -11 -31 -52 -1 -12 -6 -27 -58 -39 -15 -34 0
59 5 47 28 55 1 61 7 34 13 48 46 57 36 3 53 12 24 60 30 -42 -50 -20 -40 -2 -54 -43 -58 -23 -21 -10 -15 -11 0
16 33 0
53 1 7 48 55 15 -60 -37 -22 -12 -33 -32 -19 -18 0
57 43 58 16 45 15 35 32 20 54 52 44 48 18 -42 -55 -60 -26 -28 -7 -14 -36 -22 -11 -33 -34 -30 -10 0
27 38 59 29 6 1 24 58 39 33 52 12 40 37 61 46 14 2 21 32 47 4 -30 -41 -34 -18 -19 -54 -11 -57 -49 -17 -7 -60 -42 -3 -56 -36 -23 -26 -13 -51 -55 0
26 45 19 -42 -21 -23 -24 -37 -36 0
50 55 53 10 41 24 54 37 1 28 34 16 -25 -9 -14 -33 0
53 21 7 45 54 9 50 43 11 1 55 38 36 56 40 27 51 28 17 19 10 33 -57 -8 -37 -14 -20 -39 -26 -34 -24 -61 -22 -58 -41 -15 -42 -46 -32 -3 -49 -2 -18 -29 -52 -60 -35 -4 -5 -6 -59 -48 -31 -47 -30 -25 0
41 37 10 1 36 43 23 59 19 48 14 25 49 38 46 34 -24 -5 -31 -8 -11 -35 -12 -58 -44 -2 -51 -30 -4 -61 -55 0
7 10 18 54 41 33 47 53 11 16 19 20 56 37 55 48 21 25 60 1 26 -38 -36 -24 -44 -15 -30 -29 -14 -46 -27 -50 -49 -35 -43 -2 -28 -45 -22 -4 -9 -13 -3 -61 0
56 33 11 24 40 60 36 43 16 29 23 12 -22 -2 -31 -44 -5 -47 -1 -4 -28 0
23 46 32 38 49 58 6 41 26 45 53 48 42 9 4 59 21 34 36 56 3 43 47 13 35 17 1 55 24 54 29 -19 -18 -10 -16 -40 -31 -50 -60 -8 -51 -12 -5 -52 -14 -2 -44 -22 -33 -61 -37 -27 -28 -7 -11 0
33 23 34 43 39 2 45 52 58 13 -47 -50 -55 -29 -44 -11 -4 -8 -5 -56 -60 -22 -15 0
52 -18 0
61 1 43 25 33 53 16 7 59 35 28 29 39 12 30 47 3 -6 -14 -46 -13 -48 -15 -17 -58 -42 -52 -60 -32 -44 -51 -36 -37 -40 -54 0
48 43 38 11 14 8 37 12 44 42 33 35 22 46 51 57 28 15 41 13 6 2 5 50 23 59 3 19 47 32 -61 -1 -36 -26 -31 -39 -21 -34 -17 -45 -60 -53 -10 -27 -30 -18 -58 -49 -54 -25 -9 -16 0
12 44 58 25 59 50 -6 0
1 56 11 54 30 41 8 24 48 19 43 25 21 -16 -59 -28 -26 -20 -18 -51 -58 -40 -3 -13 0
41 58 33 7 3 19 9 56 22 49 47 38 32 17 57 51 13 46 34 43 10 28 11 29 18 -45 -27 -52 -54 -12 -8 -39 -59 -24 -4 -1 -48 -31 -36 -20 -14 -53 -37 -61 -60 -50 -42 -21 -6 0
49 44 33 8 3 15 12 19 2 26 32 52 7 28 59 58 51 11 53 17 23 46 21 14 24 31 -42 -9 -37 -18 -16 -50 -40 -27 -10 -39 -38 -56 -1 -30 -45 -57 -22 -20 -13 -29 0
49 24 3 28 8 -43 -42 -60 -53 0
58 34 55 11 7 30 10 52 36 42 8 29 3 21 6 32 9 48 46 47 23 45 28 4 49 13 -1 -53 -57 -33 -12 -24 -22 -14 -60 -39 -51 -37 -20 -25 -17 -5 -18 -31 -27 -2 -26 -35 -15 -40 -44 -50 -41 -61 -59 -38 -19 0
5 47 20 44 45 25 39 10 54 15 14 42 28 22 -32 -52 -16 -26 -46 -2 -3 -27 -24 -8 -29 -38 -49 0
-20 0
17 3 55 59 -25 -4 -34 0
17 41 59 19 46 61 10 16 5 21 53 40 20 3 -37 -29 -54 -47 -24 -49 -7 -32 -2 -22 -6 -48 -45 -33 0
23 21 46 59 53 5 3 10 36 9 48 31 33 51 30 38 19 57 11 4 60 42 2 58 54 29 32 61 37 52 -34 -12 -27 -44 -45 -43 -18 -50 -14 -47 -6 0
59 34 18 10 38 7 35 17 37 14 29 33 1 30 55 40 53 22 25 21 11 31 56 45 46 12 49 9 13 3 20 -51 -42 -54 -6 -32 -43 -44 -5 -8 -61 -4 -24 -36 -23 -2 -41 -16 -57 -58 0
45 35 3 57 38 52 6 16 -58 -5 -11 -40 -55 -7 0
2 55 9 48 40 34 13 57 5 39 41 19 31 22 27 12 25 15 42 52 61 28 32 36 56 33 -10 -16 -30 -29 -58 -20 -11 -7 -53 -17 -23 -37 -59 -3 -26 -50 -47 -43 -1 -44 -60 -45 -21 0
36 25 12 2 16 35 38 30 55 27 56 50 43 10 41 46 61 26 1 11 15 31 52 -7 -21 -49 -44 -48 -60 -45 -32 -59 -24 -39 -19 -13 -28 -17 -40 -29 -54 -34 -9 -8 -20 -14 -42 -5 -4 0
21 35 47 55 28 29 25 39 27 34 59 26 7 49 6 38 41 45 22 18 -5 -44 -51 -1 -13 -17 -37 -54 -32 -2 -30 -43 -24 -61 -10 -57 -20 -42 -4 -46 -31 -8 -60 -50 -15 -33 -9 -48 -52 -19 -40 -23 -36 -3 -12 0
22 1 24 17 19 21 4 11 15 -58 -35 -59 -2 -18 -13 -39 -56 0
31 57 38 43 3 -4 -54 -14 -45 -52 -58 -49 -12 0
37 1 32 34 30 27 14 19 29 39 61 7 12 20 9 3 33 44 -8 -21 -2 -24 -53 -23 -46 -10 -56 -4 -51 -25 -22 -52 -13 -58 -47 -48 -36 -60 -50 -11 -57 -45 -16 -6 -35 0
56 25 27 24 61 8 43 47 11 15 5 18 57 1 41 46 26 48 19 -36 -59 -3 -12 -40 -33 -39 -10 -32 -28 -44 -45 -42 -55 -16 -58 -60 0
54 45 19 49 41 44 7 42 26 21 40 48 31 16 14 11 2 18 61 33 28 46 10 51 -29 -9 -58 -15 -53 -6 -23 -57 -30 -17 -47 -60 -38 -59 -12 -55 -52 -27 -34 -36 -25 -5 0
33 39 55 32 43 27 44 31 53 34 5 4 18 22 36 15 30 13 17 3 49 38 16 52 28 45 8 10 48 19 25 11 56 20 -42 -46 -21 -24 -41 -26 -6 -50 -2 -1 -9 -40 -54 -47 -57 -58 -29 0
21 30 61 7 23 35 16 50 4 54 37 6 9 3 19 13 38 57 14 2 5 52 31 45 39 -60 -11 -26 -1 -29 -28 -32 -17 -58 -10 -56 -20 -36 -40 -51 -22 -49 -59 -53 -47 -34 -55 0
44 51 50 42 30 57 35 38 32 24 21 23 5 56 28 33 3 59 6 14 47 40 10 -7 -12 -16 -46 -55 -25 -53 -13 -43 -41 -26 -4 -11 -17 -8 -19 -9 -29 -58 -20 0
39 41 -43 -15 -28 0
2 10 40 42 59 11 21 38 24 27 15 33 22 46 5 36 45 49 -13 -47 -37 -1 -43 -9 -51 -6 -29 -54 0
13 14 24 2 43 34 5 37 15 27 35 25 32 52 38 29 -41 -42 -55 -40 -46 -49 -28 -10 -20 -60 -4 -61 -54 0
25 45 58 32 0
11 20 29 36 14 32 23 57 55 2 50 28 47 15 22 59 60 18 25 58 41 38 42 -61 -30 -34 -10 -19 -6 -17 -45 -13 -46 -3 -26 -44 -16 -5 -48 -39 -56 -4 -27 -33 -40 -21 -8 -24 -54 -35 -49 -9 -12 -31 -52 -51 -1 0
24 50 13 26 55 41 5 45 49 28 46 32 2 57 22 11 6 15 17 40 9 59 4 -54 -39 -36 -42 -48 -53 -30 -3 -7 -10 -20 -38 -14 -47 -29 -56 -19 0
47 17 34 3 21 44 57 58 12 -18 -51 -26 -30 -46 -11 -19 -10 -35 -13 -20 -55 -39 -23 -15 -38 -53 -41 0
50 35 41 43 26 36 30 16 18 34 24 13 46 1 6 7 12 3 52 9 51 14 54 47 61 4 2 27 10 57 32 -39 -60 -5 -44 -8 -21 -23 -59 -11 -31 -45 -17 -42 -58 -25 -40 -38 -33 -56 -29 -22 -48 -49 -55 0
49 18 50 16 4 11 3 48 17 7 41 56 61 -60 -22 -13 -24 -31 -57 -10 -25 -14 -23 -5 0
5 8 3 7 56 32 25 37 -48 -20 -4 -6 -24 -39 -49 -61 -58 -42 -14 -41 0
40 27 10 58 56 26 11 42 20 34 53 14 29 44 19 30 23 37 16 -60 -43 -6 -5 -41 -59 -55 -36 -18 -3 -35 -31 -45 -13 -49 -39 -15 -21 -38 -47 0
11 18 10 1 57 40 13 33 -41 -42 -30 -15 -59 -2 0
21 15 8 9 46 34 52 26 5 43 49 23 60 32 28 39 18 44 22 55 30 19 12 -13 -31 -33 -47 -7 -25 -10 -58 -40 -50 -38 -1 -27 -61 -57 -36 -24 -35 -42 -6 -29 -51 -53 -2 -45 -20 -17 -37 -3 -59 -16 0
10 2 22 35 44 32 33 36 52 46 12 24 18 60 53 49 41 48 51 7 23 5 27 20 1 21 45 58 -38 -8 -17 -54 -56 -34 -29 -39 -6 -3 -57 -55 -42 -4 -28 -47 -16 -9 0
13 20 36 27 59 58 9 -17 -6 -47 -3 -46 -1 -61 -2 -32 -49 -54 0
46 7 39 40 48 18 50 34 13 44 23 25 8 36 42 2 37 1 3 6 21 30 53 59 -17 -12 -16 -47 -61 -29 -14 -10 -55 -60 -15 -43 -57 -9 -19 -56 -4 -20 -54 -58 -22 -24 -49 -31 -11 0
34 3 37 42 40 43 52 60 36 16 4 53 14 -38 -18 -5 -25 -32 -58 -7 -46 -11 -48 -22 -8 -59 -30 -15 -24 -35 0
33 -41 0
22 49 4 60 45 10 8 18 47 17 46 21 -34 -1 -30 -25 -11 -58 -14 -59 -42 -7 -53 -41 -54 -28 0
54 25 39 53 20 58 28 12 17 8 34 46 60 24 61 47 50 37 56 -4 -23 -55 -36 -18 -22 -11 -30 -45 -14 -7 -9 -1 -59 -43 -13 -29 -16 -6 -27 -35 -38 -49 -15 -3 0
16 11 51 53 47 61 35 59 43 10 58 -24 -34 -8 -60 -41 -1 -20 -29 -27 -13 -5 -39 -32 -3 -52 -36 -31 -54 0
58 4 2 46 9 44 31 55 27 14 53 17 49 42 22 60 38 6 56 13 20 36 7 -1 -18 -3 -45 -25 -47 -37 -40 -34 -61 -30 -33 -26 -43 -41 -51 -10 -23 -48 -21 -50 -28 -35 -57 -19 -52 0
54 10 57 30 38 12 41 34 55 46 29 26 22 27 59 16 -48 -23 -6 -40 -52 -7 -51 -4 -31 -36 -58 -17 -19 -2 -43 -14 -33 -5 -42 -45 -8 -3 -53 -32 0
55 12 2 48 28 16 33 38 35 9 17 40 53 44 49 1 7 41 45 25 39 29 32 57 30 59 -18 -4 -47 -13 -46 -15 -60 -8 -11 -6 -5 -51 -56 -27 -21 -52 -19 -3 -58 -10 -37 -61 -50 0
18 50 7 54 9 15 38 58 11 31 40 32 35 61 22 -33 -29 -45 -47 -39 -42 -27 -5 -16 -1 -59 -6 -14 -36 -44 -12 -4 0
52 43 3 40 51 30 42 23 35 2 50 28 27 47 5 33 54 13 56 4 48 61 59 21 57 60 32 9 36 -11 -18 -22 -34 -14 -31 -41 -7 -44 -19 -10 -15 -26 -45 -1 -49 -38 -29 -37 -6 -53 -8 -46 -20 -24 0
36 -49 0
7 48 53 46 25 58 44 10 50 1 42 22 2 24 14 -35 -17 -54 -8 -9 -16 -37 -21 -15 -20 -51 -18 -43 -52 -40 0
4 61 35 38 13 28 5 54 21 32 55 9 1 48 60 25 53 12 46 8 37 45 57 36 -11 -10 -50 -51 -30 -43 -47 -23 -26 -56 -18 -40 -22 -3 -42 -29 -58 -44 -17 -2 -24 -41 -49 -27 -20 -33 -7 -14 -52 -19 -31 0
39 29 14 15 38 8 59 28 26 27 4 47 50 41 57 33 42 34 18 32 46 11 -1 -30 -43 -35 -19 -3 -6 -24 -10 -31 -58 -17 -51 -12 -53 -5 -48 -60 -13 -22 -2 -56 -61 -21 0
23 28 33 26 18 22 4 45 50 6 20 17 56 54 34 19 -35 -11 -37 -1 -59 -30 -61 -25 -32 -12 0
35 52 2 55 12 60 8 13 37 51 48 24 7 56 30 40 28 17 47 25 -27 -43 -22 -34 -4 -9 -54 -44 -1 -14 -3 -20 -26 -46 -16 -59 -49 -50 -21 -11 -53 -57 -36 0
45 17 5 2 29 1 7 47 49 30 13 41 21 3 11 18 -10 -36 -22 -16 -39 -28 -32 -53 -37 -59 -38 -12 -24 -35 -40 -42 -33 -46 -6 0
16 28 42 8 11 44 33 36 40 57 3 19 14 55 50 25 1 27 47 59 -30 -21 -2 -13 -24 -17 -49 -51 -10 -31 -56 -15 -53 -45 -22 0
39 -28 -6 -40 -37 -10 -36 -18 0
34 2 40 19 43 33 14 46 27 29 39 6 55 20 53 56 25 37 51 8 24 26 23 36 41 -47 -18 -45 -16 -13 -38 -28 -22 -21 -61 -58 -3 -1 -10 -52 -42 -35 -12 -7 -9 -11 -17 -5 -4 -31 -30 -49 -44 -32 0
29 55 14 4 1 9 40 32 -42 -11 -24 -39 -46 -61 -17 0
35 12 36 27 50 3 29 11 17 49 57 40 41 15 55 -43 -10 -54 -20 -56 -53 -32 -38 -14 -46 -1 -47 -23 -24 -48 0
18 45 39 -53 0
58 43 8 4 26 21 41 33 6 32 17 12 29 34 18 1 46 13 23 53 52 20 19 11 61 5 44 42 -49 -3 -39 -48 -30 -24 -31 -7 -14 -45 -40 -57 -37 -2 -51 -22 -28 -15 -9 -47 -38 -55 -56 -60 -27 -54 -25 0
24 37 16 -54 -32 -61 -14 -25 -43 0
45 22 27 5 60 55 50 14 4 13 9 59 44 35 28 6 42 47 15 46 38 3 1 26 61 34 48 33 -58 -29 -16 -57 -19 -36 -49 -43 -39 -12 -53 -56 -54 -10 -41 -31 -30 -2 -11 -24 -32 -17 -8 -37 -20 -40 -25 -7 0
52 19 46 40 22 -59 -47 -23 -20 -17 -61 -42 -12 0
5 44 7 26 57 16 25 6 51 32 11 55 28 -48 -46 -21 -20 -27 -4 -15 -41 -24 -9 -10 -8 -12 -52 -45 0
24 14 53 3 -49 -29 0
18 3 37 31 53 57 61 12 58 17 13 48 26 22 52 39 33 34 10 46 16 29 23 36 -44 -24 -60 -42 -38 -1 -14 -45 -25 -2 -28 -59 -4 -8 -7 -21 -20 -5 -15 -56 -55 -54 -9 -51 -47 -50 -11 -40 0
13 23 11 55 -9 -25 -38 -45 0
26 53 60 36 48 35 59 58 28 5 6 29 16 37 -41 -44 -13 -27 -34 -7 -22 -9 -1 -15 -25 -17 -23 -18 0
2 50 23 7 27 17 20 60 58 34 36 -46 -9 -5 -47 -44 -54 -25 -13 -45 -31 0
26 11 16 33 46 40 52 12 22 51 18 29 2 -24 -56 -39 -43 -42 -6 -57 -9 -31 -20 -36 0
33 51 40 50 39 32 29 23 58 45 31 4 25 21 1 2 24 14 6 18 55 56 -5 -59 -44 -13 -41 -46 -52 -7 -17 -54 -3 -43 -53 -48 -10 -38 -57 -37 -16 -19 -9 0
28 15 9 31 4 58 22 54 11 55 37 3 61 12 35 1 42 60 36 53 21 32 10 25 57 45 43 26 23 34 49 13 -46 -17 -39 -44 -20 -51 -24 -5 -7 -16 -2 -50 -18 -14 -47 -38 -33 -6 -27 -48 -29 -41 -56 -30 -8 -40 -19 -59 0
34 10 14 7 13 56 18 24 40 61 38 5 33 37 17 50 57 -15 -3 -4 -58 -48 -6 -59 -32 -46 -41 -43 -1 -60 -22 -28 -47 0
36 14 16 44 3 -8 -56 -54 0
40 37 44 31 36 23 41 55 19 21 57 -61 -38 -12 -16 -43 -35 -15 -50 -49 -7 -48 -2 -34 -17 -29 -10 0
12 17 24 31 27 36 19 26 16 50 34 8 6 14 10 56 -38 -57 -11 -46 -44 -48 -22 -15 -58 -2 -3 -23 -32 -20 -45 -35 -4 -53 -21 0
11 19 46 38 10 59 54 36 37 31 24 40 7 18 33 32 17 55 9 35 34 45 44 3 -5 -29 -13 -25 -52 -6 -16 -39 -49 -61 -12 -42 -8 -4 -14 -43 -53 0
53 11 8 55 26 5 41 30 15 1 14 6 54 58 59 48 19 57 37 35 -21 -17 -42 -22 -4 -23 -2 -36 -10 -16 -34 -40 -7 -44 -18 -43 -49 -52 -33 -32 -51 0
57 27 59 20 5 53 50 14 45 25 51 29 31 42 32 22 61 16 39 36 19 55 46 10 35 18 15 -24 -40 -13 -11 -58 -37 -7 -2 -49 -9 -44 -30 -3 -47 -52 -33 -56 -21 -4 -28 0
57 48 61 7 15 29 -32 -35 -1 -49 -13 -23 -50 -51 0
21 27 46 32 57 42 -53 -17 -47 -4 -50 -10 -1 -54 -25 -51 -44 -23 -15 -43 -39 -14 0
61 50 31 13 30 28 38 6 19 34 23 -35 -49 -26 -7 -11 -3 -25 -9 0
21 60 38 11 22 4 47 49 50 7 29 54 23 45 9 30 27 -48 -37 -6 -24 -16 -46 -53 -41 -35 -31 -43 -13 -14 -44 -58 -26 0
6 61 44 19 39 16 10 9 15 18 30 13 53 55 43 14 17 24 12 2 51 27 26 48 41 21 11 36 -52 -7 -25 -34 -23 -42 -54 -50 -38 -22 -33 -37 -32 -29 -3 -20 -4 -58 -56 -5 -35 -47 -57 -28 -31 -49 -8 -1 0
49 46 20 21 42 50 1 31 22 59 24 27 51 25 -60 -34 -14 -3 -26 -30 -54 -18 -38 -16 -9 -11 -6 -12 -58 -23 -2 -43 -52 -61 -36 -33 -32 0
40 31 8 45 53 34 55 58 60 42 12 18 38 56 28 9 57 36 44 20 2 27 19 -22 -39 -35 -26 -7 -24 -21 -23 -33 -50 -54 -17 -32 -29 -59 -10 -25 -51 -6 -5 -52 -41 -13 -16 -15 -4 -1 -43 -3 -30 0
56 41 34 8 28 55 60 57 50 39 43 31 35 16 45 1 48 12 49 61 36 37 22 10 -38 -15 -17 -20 -23 -26 -33 -5 -25 -47 -40 -58 -3 -4 -14 -21 -53 -46 -19 -59 -27 -29 -6 -11 -9 -54 -51 -32 -24 -30 -7 -13 -44 -2 -18 0
9 61 54 58 45 56 60 2 28 19 46 34 47 18 31 36 38 17 52 48 6 22 1 59 50 49 -29 -53 -21 -51 -25 -43 -33 -14 -26 -16 -40 -35 -20 -8 -15 -5 -10 -55 -42 -39 -24 -44 -30 -32 0
57 61 41 55 60 38 44 6 49 37 -20 -24 -51 -54 -17 -35 -2 -53 -7 -8 -15 0
57 17 55 27 35 47 15 13 28 3 12 34 59 24 11 32 8 50 54 6 10 25 9 36 -26 -43 -46 -5 -7 -40 -39 -51 -1 -19 -21 -29 -4 -23 -33 -22 -53 -52 -45 -16 -14 -42 -2 -38 -30 0
35 8 27 22 3 12 20 54 23 15 29 2 21 43 6 36 1 59 33 14 46 58 -31 -49 -50 -26 -17 -51 -38 -55 -56 -34 -19 -30 -40 -48 -47 -44 -25 -42 -10 -57 -28 -7 0
54 47 45 46 48 30 44 14 23 35 61 60 8 25 1 40 29 16 5 27 50 2 53 24 57 56 34 -31 -20 -51 -36 -32 -7 -21 -4 -26 -12 -55 -15 -6 -49 -17 -22 -18 -43 -58 -11 -19 -28 -33 -38 -10 -39 -52 0
16 1 55 57 35 5 28 32 9 49 24 46 17 47 23 13 19 56 52 40 53 27 11 31 42 33 43 59 7 38 -2 -44 -61 -22 -48 -10 -12 -51 -29 -18 -41 -15 -21 -50 -58 -60 -39 -14 -37 -4 -54 -36 -25 -3 -34 -6 -26 -20 -45 0
54 52 59 56 11 -6 -51 -60 -47 -53 -58 -46 -20 -5 -2 -14 -10 -33 -8 -26 -3 -55 0
43 36 15 40 -19 -45 -52 -61 -22 -21 -10 -33 -18 0
37 27 7 33 61 9 6 11 31 -13 -19 -17 -32 -28 -38 -55 0
19 18 21 42 9 48 43 2 11 14 6 23 40 20 31 29 26 57 50 13 55 15 59 35 -61 -4 -44 -22 -34 -33 -45 -5 0
36 55 27 1 50 57 -2 -10 -17 -54 -42 -29 -58 0
31 59 -33 -42 0
43 41 56 11 33 6 45 21 23 27 53 24 10 20 28 51 2 3 50 26 34 17 -29 -31 -9 -19 -13 -60 -47 -37 -39 -15 -55 -8 -49 -4 -25 -12 -16 -52 -42 -58 -61 -38 -5 -57 -59 0
31 53 37 18 41 10 4 9 21 5 45 38 13 33 15 17 27 -47 -12 -6 -14 -58 -26 -49 -51 -35 -29 -34 -48 -28 -60 -56 -1 -7 -61 0
