c NeuroCodeBench 2.0 CNF formula with verdict Sat
p cnf 95 133
54 65 78 38 62 18 10 72 76 7 47 5 57 48 83 53 56 92 68 -25 -88 -36 -69 -27 -12 -16 -17 -66 -23 -39 -44 -2 -31 -49 -60 -19 -45 0
24 75 62 28 76 53 3 95 11 20 94 29 71 27 18 17 46 43 26 80 78 56 70 4 55 49 19 16 8 61 65 -91 -7 -22 -93 -31 -30 -69 -33 -90 -86 -64 -68 -40 -79 -32 -92 -37 -84 -1 -23 -41 -57 -83 -67 -63 -2 0
74 63 40 64 75 59 7 78 29 39 16 11 52 93 53 27 83 3 5 24 8 25 45 77 17 81 85 23 -54 -91 -79 -50 -46 -13 -60 -71 -32 -55 -34 -57 -12 -33 -94 -82 -47 -9 -10 -36 -88 -69 -51 -19 -61 -30 -28 -42 -86 -89 -84 -62 -56 -15 -38 0
77 81 39 51 48 11 47 22 3 4 28 1 75 86 2 -23 -40 -63 -53 -8 -27 -14 -83 -76 -74 -59 -31 -16 -6 -85 -38 -26 -68 -35 -79 0
66 57 1 54 41 74 68 31 14 59 45 78 24 55 27 80 81 93 35 3 89 6 76 83 65 22 8 52 95 15 72 91 92 -60 -40 -69 -94 -61 -21 -2 -46 -39 -67 -63 -84 -82 -30 -56 -71 -51 -50 -4 -53 -5 0
84 0
44 89 90 12 78 88 21 63 79 6 2 33 73 72 84 13 41 69 32 53 -59 -24 -18 -8 -55 -76 -93 -50 -39 -42 -95 -87 0
57 4 75 19 6 62 47 60 36 64 87 63 -88 -17 -34 -74 -27 -70 -9 -83 -35 -1 -28 -43 -8 0
30 55 14 62 95 57 44 41 21 29 63 10 85 7 49 89 77 16 87 36 81 48 61 17 38 19 39 43 56 -58 -93 -26 -22 -51 -91 -9 -90 -75 -34 -24 -67 -18 -37 -94 -78 -33 -50 -84 -82 -54 -20 -13 0
74 11 26 43 46 68 92 58 47 53 91 13 28 10 81 57 23 89 15 32 56 -54 -5 -65 -72 -33 -3 -45 -49 -61 -17 -29 -80 -24 0
28 79 41 67 94 64 46 53 45 50 22 12 16 30 29 43 73 77 25 17 -87 -38 -34 -90 -75 -5 -56 -60 -54 -78 -2 -69 -19 -80 -27 -7 -65 -61 -91 -74 -44 -31 -18 -37 -9 -49 -85 -13 -6 -88 0
73 90 93 42 9 63 94 59 91 88 22 3 5 13 56 39 10 48 85 24 89 65 51 74 78 83 77 62 -57 -26 -21 -86 -53 -14 -18 -41 -37 -50 -12 -68 -30 -80 -19 -44 -67 -49 -17 -71 -79 -28 -33 -70 -15 -60 -52 -2 -47 -87 -46 -32 -81 -38 -27 -76 0
48 50 59 82 79 31 9 76 89 46 52 63 26 72 95 80 16 91 87 56 39 12 17 55 51 3 62 22 83 65 94 18 71 30 32 1 -2 -90 -29 -81 -88 -20 -84 -43 -6 -27 -35 -14 -5 -60 -37 -85 -92 -45 -40 -15 -28 -57 -33 -10 -25 -19 -44 -13 -61 -70 -42 0
22 72 42 93 83 46 35 63 7 24 78 23 4 74 53 84 66 90 14 36 20 59 60 50 13 76 45 15 -16 -40 -31 -81 -18 -51 -43 -12 -6 -37 -47 -86 -41 -3 -92 -54 -71 -56 -49 -9 -5 -19 -27 -52 -67 -34 -85 -55 -68 -2 -33 -11 -10 -91 -94 -1 -77 0
23 56 11 94 41 59 29 5 71 73 75 21 53 69 12 70 74 76 50 81 66 87 49 2 64 1 93 30 82 84 15 7 36 37 52 91 31 78 65 77 43 27 18 -40 -16 -80 -95 -90 -83 -17 -79 -54 -60 -85 -32 -9 -39 -28 -42 -13 -20 -51 -33 -46 -3 -4 -35 -10 -67 -48 -24 -26 -63 -34 -58 -38 -47 -8 -19 0
91 42 77 65 92 37 72 89 61 45 39 22 74 7 10 75 94 69 50 -60 -95 -48 -14 -82 -11 -62 -79 -25 -35 -47 -54 -9 -33 -88 -21 0
72 10 41 11 27 16 92 94 15 60 12 20 47 79 84 7 37 85 28 49 29 24 86 78 21 87 90 74 68 35 13 -71 -83 -69 -89 -3 -39 -40 -23 -50 -32 -52 -51 -63 -58 -75 -81 -19 -88 -2 -14 -34 -33 -64 -44 -30 -54 -67 -4 -26 -80 -53 -91 -6 -25 -57 -95 -43 -77 -36 -38 -1 -55 -82 -62 0
56 3 85 47 42 52 82 26 92 64 44 1 12 65 95 51 87 19 58 84 63 54 34 45 68 32 29 49 53 62 79 81 13 28 55 70 89 36 88 66 67 69 37 5 61 24 57 59 31 22 -4 -18 -43 -27 -90 -16 -39 -94 -72 -60 -41 -48 -71 -20 -35 -83 -2 -11 -23 -25 -74 -8 -80 -46 -78 -15 0
73 59 39 54 82 68 17 80 32 3 89 23 16 86 57 29 87 10 27 45 7 52 -65 -69 -24 -49 -21 -2 -94 -36 -28 -79 -55 -62 -42 -93 -33 -40 0
77 91 34 2 22 55 35 17 88 94 76 64 4 19 7 74 73 83 42 23 50 45 70 8 18 28 52 46 47 24 26 49 56 68 95 -39 -65 -27 -41 -9 -21 -15 -75 -85 -36 -60 -78 -92 -31 -12 -67 -10 -59 -72 -89 -38 -82 -44 -63 -86 -71 -62 -37 -40 -80 -61 0
32 19 45 91 77 52 63 39 75 94 78 61 87 64 47 80 41 68 9 44 33 95 -1 -53 -11 -70 -4 -79 -62 -93 -69 -83 -92 -89 -13 -54 -31 -10 -71 -28 -26 -17 -82 -7 -73 -56 -34 -36 -55 -74 0
48 12 54 77 37 63 25 15 61 -47 -80 -67 -35 0
31 91 12 66 39 47 43 67 60 52 68 36 10 80 14 93 3 84 59 87 13 44 38 64 92 79 70 56 54 50 1 95 21 81 49 -2 -69 -33 -45 -11 -89 -62 -42 -32 -7 -35 -58 -41 -48 -55 -27 -20 -74 -88 -78 -34 -16 -94 -72 -82 -57 -61 -22 -53 -85 -4 -71 -73 -29 -19 -77 -83 0
60 14 17 90 91 31 88 18 50 24 33 37 41 68 8 -38 -55 -2 -22 -69 -89 -65 -27 -54 -30 0
80 89 59 25 1 26 75 46 56 15 36 41 78 88 52 57 72 60 12 30 68 79 18 37 11 16 33 10 48 64 7 66 23 47 43 34 35 90 20 32 84 21 5 54 28 74 93 42 95 4 62 91 49 -85 -2 -82 -61 -17 -14 -3 -92 -8 -76 -70 -81 -24 -19 -63 -6 -83 -58 -53 -9 -67 -22 -45 -38 -71 -65 -77 -94 -86 -31 -29 -39 -44 -50 -69 -40 -73 0
3 51 2 78 25 42 85 61 66 16 44 47 4 12 41 82 31 73 7 24 93 32 43 79 91 35 28 11 46 38 88 95 52 53 83 8 9 18 64 33 92 -67 -5 -76 -90 -81 -89 -74 -37 -10 -36 -71 -45 -13 -30 -29 -19 -26 -21 -14 -55 -69 -27 -72 -1 -75 -60 -77 -48 -65 -17 -23 -20 -40 -15 -39 -68 -87 -63 0
44 45 11 46 65 4 57 69 37 76 17 55 51 30 50 33 91 68 95 10 64 23 27 63 13 80 59 25 94 24 -66 -5 -61 -41 -90 -36 -9 -54 -85 -87 -2 -28 -62 -53 -92 -38 -81 -67 -82 0
56 22 16 42 90 71 23 6 37 3 64 17 27 89 88 58 66 74 92 84 40 1 91 68 -81 -72 -19 -20 -12 -59 -79 -54 -14 -70 -48 -49 -18 -29 -62 -50 -69 -95 -30 -45 -87 -65 -38 0
40 4 81 20 11 43 8 72 93 77 82 57 88 50 73 68 13 64 35 79 39 65 63 90 17 44 22 30 -38 -75 -45 -46 -55 -87 -26 -14 -16 -91 -6 -54 -3 -27 -32 -60 -83 -70 -9 -56 -1 -47 -42 -12 -10 -41 -51 -89 -15 -80 0
90 81 11 33 56 19 89 68 87 86 51 78 64 82 50 41 47 69 62 54 40 4 -3 -17 -24 -38 -91 -42 -44 -72 -16 -36 -67 -37 -30 -35 -60 -25 -5 -79 -94 -10 -57 -74 -2 -6 -32 -70 -48 -15 -12 -80 -9 -49 -93 -73 -84 -1 0
17 68 60 34 13 56 5 41 58 77 42 45 75 53 21 23 39 44 86 3 65 49 71 19 27 48 63 89 35 -9 -1 -38 -15 -36 -57 -79 -22 -84 -40 -55 -80 -50 -94 -54 -88 -64 -51 -74 -12 -61 -73 -70 -66 -72 -91 -43 -85 -20 -32 -18 -69 -37 -76 -6 -29 -4 -24 -25 -11 -7 -95 0
85 11 30 19 48 53 67 50 2 46 37 70 21 32 51 63 3 79 65 64 72 13 33 84 17 38 44 18 7 86 36 56 61 94 91 95 39 31 74 -88 -9 -55 -62 -34 -81 -69 -40 -24 -16 -5 -87 -26 -82 -29 -68 -22 -4 -59 -15 -90 -27 -80 -49 -42 -60 -93 -92 -76 -1 -83 -8 0
38 59 12 19 24 65 55 42 77 28 22 70 10 79 51 54 80 71 11 25 46 30 92 32 20 36 31 94 4 93 14 69 7 73 5 68 58 13 39 90 21 52 56 -78 -2 -27 -23 -47 -62 -9 -89 -17 -45 -84 -33 -86 -18 -26 -83 -29 -67 -41 -95 -16 -53 -63 -85 -34 -87 -75 -40 -74 -82 -6 -50 -1 -81 -49 -91 -60 -61 -44 -37 -72 -35 0
73 83 55 39 89 24 47 8 6 32 38 77 12 66 94 79 71 56 5 46 23 93 4 64 7 90 14 31 91 40 81 78 69 88 42 9 19 68 28 63 13 65 51 10 34 70 21 3 74 16 87 -85 -62 -18 -76 -53 -22 -95 -37 -60 -84 -48 -35 -54 -30 -52 -45 -86 -29 -27 -72 -26 -80 -43 -92 -67 -58 -20 -17 -2 -33 -59 -15 -50 0
9 13 4 64 72 78 48 95 45 15 -33 -57 -66 -67 0
49 44 81 18 60 67 25 36 88 85 48 12 83 58 78 27 23 -9 -2 -32 -95 -22 -93 -75 -1 -5 -80 -66 -11 -61 0
77 84 53 44 8 81 31 47 16 2 87 56 92 69 51 49 61 15 13 41 12 94 38 6 57 36 20 80 -79 -39 -14 -91 -17 -18 -43 -78 -27 -58 -73 -24 -55 -50 -68 -74 -21 -10 -29 -48 -46 -82 -88 -70 -90 -33 -26 -95 -71 -40 -37 -62 -3 -52 -4 -5 -35 -63 -11 -59 0
48 13 56 82 85 31 3 49 44 6 15 86 29 5 57 46 62 33 89 25 63 60 12 -59 -42 -10 -93 -65 -41 -35 -24 -95 -21 -90 -50 -19 -83 -38 -76 -36 -17 -28 -27 -75 -70 -43 -2 -68 0
27 72 59 22 58 38 50 92 95 16 88 13 76 63 25 61 77 33 9 21 90 64 49 10 66 94 89 24 73 69 87 -44 -17 -62 -32 -4 -83 -53 -12 -35 -23 -1 -45 -34 -91 -85 0
55 72 71 -87 -84 -26 -53 -12 -57 0
22 63 26 56 4 47 45 85 20 6 70 93 55 73 24 92 80 61 78 17 19 37 60 83 59 67 84 87 74 35 66 94 65 53 -1 -69 -62 -75 -3 -33 -13 -34 -5 -76 -36 -21 -38 -72 -30 -23 -12 -58 -52 -43 -49 -54 -25 -77 -42 -95 -86 -41 -14 -79 -31 -71 -29 -32 -51 -57 -9 -91 -39 -90 0
71 5 94 32 12 23 67 87 79 33 91 24 59 42 37 45 78 22 57 75 35 48 -38 -9 -43 -44 -39 -68 -26 -69 -92 -77 -17 -52 -74 -54 -84 -14 -18 -70 -3 0
3 13 5 42 71 35 85 56 61 28 77 94 41 47 74 4 54 55 18 27 32 65 48 76 45 6 33 25 2 7 68 80 79 89 40 37 38 30 66 17 16 -58 -84 -87 -39 -10 -52 -93 -53 -49 -43 -63 -86 -73 -78 -8 -21 -9 -19 -22 -51 -15 -1 -11 -44 -67 -60 -95 -57 -70 -12 -82 -83 -69 -64 -72 -92 -75 -31 -20 -88 0
91 81 82 88 14 59 -87 -77 -21 -34 -11 -8 -50 -39 -55 -90 -72 -9 -69 0
58 44 83 54 67 9 65 85 55 13 11 93 90 32 81 27 61 -80 -74 -23 -40 -62 -12 -38 -43 -4 -56 -79 -17 -78 -28 -57 -86 -92 -15 -51 -64 -52 -22 -33 -69 -37 -75 -5 0
44 79 31 30 70 73 50 64 1 26 46 65 12 13 59 18 5 55 23 -20 -71 -93 -51 -17 -83 -43 -54 -48 -4 -32 -77 -47 -36 -81 -56 -63 -37 -14 -61 -78 -28 -84 -33 0
10 27 6 31 26 22 84 18 92 67 51 90 29 89 34 23 19 49 21 28 70 13 33 95 77 42 52 47 63 -2 -65 -61 -1 -80 -73 -8 -4 -11 -40 -62 -15 -36 -85 -94 -48 -59 -56 -68 -50 -71 -35 -43 -64 -87 -12 -9 0
24 5 20 49 89 91 58 14 50 73 39 75 71 11 59 29 65 61 3 51 -32 -36 -47 -67 -53 -16 -86 -55 -85 -64 -90 -41 -78 -84 -94 -43 -88 -45 -42 -18 -83 -25 -4 -9 -72 -92 -40 -77 -22 -31 -68 -23 0
3 84 50 80 45 49 85 55 32 22 54 9 92 76 60 14 88 7 57 70 12 71 73 61 19 47 5 58 82 36 43 37 48 13 89 74 69 -23 -62 -68 -28 -15 -8 -30 -83 -86 -10 -59 -41 -46 -31 -20 -94 -56 -78 -44 -77 -16 -18 -40 -27 -93 -79 -42 -64 -39 -1 -25 -95 -4 -72 -75 -21 0
49 27 47 91 -37 -87 -58 -84 0
10 72 7 30 12 80 26 42 37 58 35 84 32 39 79 45 52 62 46 67 49 61 63 1 73 86 81 68 11 17 44 89 14 -51 -33 -29 -88 -28 -2 -40 -20 -27 -4 -41 -19 -70 -90 -24 -5 -77 -66 -60 -3 -55 -8 -9 -93 -69 -23 -71 -31 -48 -75 -22 -54 -34 -82 -95 0
60 25 87 88 8 47 4 64 32 29 79 61 55 67 -54 -93 -27 -14 -78 -73 -86 -52 -40 -84 -24 -13 -76 -85 -36 -71 -51 0
64 28 83 58 54 40 38 34 30 39 69 74 14 66 92 16 65 24 5 94 17 8 -84 -4 -75 -68 -46 -10 -41 -42 -90 -29 -31 -7 -33 -67 -88 -82 -76 -36 -50 -87 -91 -18 0
45 23 54 33 21 49 83 4 58 76 9 91 5 25 61 73 95 7 88 20 78 74 24 39 67 70 11 31 47 56 59 60 50 69 65 82 -28 -75 -46 -14 -35 -36 -3 -18 -12 -62 -72 -48 -57 -16 -87 -13 -51 -17 -81 -64 -90 -63 -66 -37 -40 -85 -19 -27 -55 -26 -44 -79 0
95 31 -30 -41 -12 0
60 75 76 6 50 74 49 52 63 65 71 3 24 10 40 44 82 84 5 11 4 89 53 79 67 28 86 21 35 7 59 38 22 72 64 8 31 47 13 26 12 48 90 69 14 45 18 83 -81 -42 -92 -43 -57 -55 -39 -70 -54 -78 -9 -17 -93 -94 -1 -46 -2 -30 -15 -37 -66 -95 -16 -34 -27 -23 -19 -80 -29 -51 -58 -36 -56 -77 -41 -88 -20 -32 -91 -62 0
58 7 95 23 93 1 73 42 28 71 89 45 17 92 -59 -49 -85 -29 -34 -84 -33 -19 -31 -6 -15 -4 -41 -27 -38 -10 -32 -3 -66 0
37 17 16 2 92 65 50 76 59 60 51 32 58 82 1 4 49 20 48 52 21 66 29 -63 -71 -31 -64 -28 -79 -25 -75 -5 -73 -13 -26 -35 -19 -44 -88 -39 -61 -57 -12 0
9 81 23 48 26 94 58 80 70 41 53 69 29 47 75 32 95 38 55 91 66 59 7 8 72 -22 -3 -16 -11 -79 -86 -90 -44 -64 -67 -60 -12 -31 -54 -93 -78 -77 -46 -19 -65 -56 -84 -57 -50 -88 -92 -5 -35 0
15 13 58 95 21 65 4 47 59 22 86 9 72 8 27 3 48 2 90 51 88 19 66 40 45 46 41 -81 -16 -64 -54 -20 -29 -23 -74 -92 -6 -33 -83 -61 -24 -94 -63 -80 -35 -89 -7 -93 -5 -30 -43 -56 -69 -50 -68 -87 -73 0
38 92 19 24 58 12 46 91 7 66 21 79 30 27 78 63 44 48 34 40 22 15 71 82 6 89 9 -20 -65 -54 -52 -47 -36 -45 -5 -81 -51 -13 -3 -43 -93 -75 -74 -84 -41 -76 -1 -23 -49 -57 -88 -4 -16 -67 -62 -8 -56 -35 -72 -90 -95 -31 -55 0
91 27 93 69 32 55 74 92 59 80 78 62 2 31 87 25 76 -16 -37 -58 -13 -21 -9 -1 -23 -90 -36 -35 -17 -51 -24 -15 -11 -89 0
60 67 1 61 44 54 75 45 23 72 7 -42 -11 -58 -49 -10 -69 -53 -68 -71 -88 0
71 9 57 21 58 18 2 67 52 50 32 79 42 12 61 31 13 19 53 45 38 95 84 34 39 86 30 24 25 76 27 85 4 78 29 14 16 6 37 87 60 44 -82 -92 -23 -41 -3 -77 -8 -68 -54 -72 -55 -48 -65 -59 -46 -28 -56 -22 -88 -5 -69 -62 -35 -81 -80 -17 -73 -11 -51 -93 -40 -1 -36 -47 -20 -26 -49 -15 -10 -33 -64 -89 -70 0
20 37 86 84 9 16 -28 -33 -52 -88 -57 -3 -43 -68 0
3 39 52 18 -88 -33 -55 -61 0
28 38 27 35 44 40 -5 -94 -48 -75 -36 -9 -21 -16 -95 -15 0
55 54 80 68 93 73 6 49 12 41 3 42 67 11 95 2 66 29 84 28 -86 -71 -89 -78 -72 -45 -69 -18 -43 -70 0
68 14 45 73 33 51 64 56 94 16 52 18 58 1 -93 -19 -41 -44 -81 -13 -22 -79 -43 -69 -53 -2 -20 -11 -91 -72 -8 -75 -95 -67 -6 -90 -3 0
28 20 42 33 82 5 35 72 70 43 86 17 57 40 64 22 90 10 39 68 -85 -6 -51 -54 -9 -53 -14 -29 -62 -47 -73 -18 -1 -36 -55 -12 -59 -37 -92 -80 -23 0
88 62 68 15 75 50 80 2 28 8 22 43 5 36 30 31 13 66 70 46 19 61 33 32 64 35 47 20 39 92 53 7 59 44 84 40 77 29 10 94 57 -63 -6 -72 -16 -89 -78 -85 -3 -76 -45 -51 -56 -74 -14 -91 -60 -41 -42 -34 -49 -11 -69 -38 -73 -37 -93 -25 -71 -21 -27 -26 -79 -58 -55 -12 -81 -86 -4 -54 -18 -48 -52 -82 -65 -67 0
89 22 -73 -72 -36 -39 -56 -26 0
38 42 62 56 94 7 29 24 48 39 72 61 46 -59 -31 -28 -22 -18 -93 -35 -17 -69 -50 -34 -85 -60 -5 -2 0
27 76 24 32 21 75 53 48 20 25 84 73 35 44 63 45 90 19 50 -61 -79 -47 -59 -74 -23 -42 -31 -33 -29 -60 -87 -68 0
6 87 32 5 56 54 26 52 51 65 13 81 46 86 3 36 57 -83 -92 -60 -53 -30 -71 -28 -25 -21 -1 -4 -59 -77 -49 -47 -80 -69 -88 -15 -79 -85 -38 -91 -18 -93 -10 -20 -29 0
4 49 40 28 67 26 15 87 37 44 83 60 31 12 80 58 63 75 47 90 64 70 59 43 50 92 22 54 -86 -85 -88 -7 -42 -16 -95 -66 -78 -25 -61 -93 -46 -81 -53 -77 -51 -72 0
88 8 71 76 30 2 46 18 25 62 45 32 82 55 57 9 48 64 41 93 21 35 -6 -73 -29 -40 -91 -79 -14 -11 -20 -52 -67 -47 0
92 74 95 21 16 93 63 41 6 43 66 70 94 4 58 77 54 75 82 78 85 18 31 13 90 19 60 35 76 56 22 79 44 7 8 15 49 14 71 5 64 11 12 30 48 -23 -80 -38 -53 -27 -61 -68 -1 -47 -65 -28 -73 -9 -81 -67 -29 -24 -33 -25 -32 -50 -40 -3 -20 -69 -10 -42 -26 -59 -39 -36 -17 -37 0
11 52 17 42 86 40 69 12 41 7 72 82 68 95 19 39 94 56 53 34 21 -92 -62 -61 -44 -54 -83 -58 -18 -66 -91 -20 -77 -36 -79 -60 -10 -63 -48 -78 -84 0
74 33 35 18 95 45 -8 -76 -72 -75 0
93 62 58 17 1 9 94 25 14 48 41 34 55 75 88 81 84 49 68 60 61 -20 -50 -11 -67 -29 -66 -85 -8 -92 -95 -53 -33 -16 -26 -77 -87 -43 -59 -37 0
6 81 -19 0
92 81 44 32 21 90 86 28 84 59 47 30 27 74 -53 -22 -8 -9 -35 -82 -39 -55 -13 -62 -4 -46 -19 -49 -64 0
6 28 46 61 41 40 87 34 11 15 57 32 38 30 10 76 35 31 54 5 86 95 72 65 47 92 94 36 -3 -44 -25 -75 -64 -79 -50 -17 -16 -39 -67 -48 -23 -7 -68 -59 -82 -77 -20 -60 -81 -74 -9 -71 -91 -49 -13 -1 -53 -56 -51 -62 -4 -80 -55 -73 -66 -90 -26 -8 0
50 15 53 35 40 64 75 61 48 60 12 1 6 71 38 86 56 11 42 23 66 67 76 51 47 3 79 -14 -8 -58 -84 -54 -2 -32 -87 -30 -37 -27 -45 -94 -31 -81 -74 -73 -68 -82 -18 -25 -7 -62 -46 -44 -33 -77 -78 -24 -29 -83 -63 -69 0
10 68 77 92 64 28 55 73 49 24 -13 -87 -9 -1 -94 -3 -78 -65 0
41 65 64 66 84 19 -5 -43 -29 -25 -55 -46 -38 -37 -95 -73 -47 -90 0
9 46 69 39 94 85 25 43 18 76 27 17 -45 -75 -33 -41 -54 -78 -82 -26 -5 -81 -7 -11 -2 0
21 40 66 72 61 80 29 34 42 -47 -74 -4 -57 -52 -76 -32 -90 -44 -51 -94 -23 -13 -31 -1 -30 0
86 81 3 91 92 57 45 2 84 67 21 6 88 71 8 66 49 38 43 75 41 13 29 93 77 -32 -25 -72 -87 -59 -65 -79 -7 -82 -36 -35 -12 -27 -73 -14 -22 -42 -40 0
94 71 62 44 26 77 39 32 20 18 56 28 21 43 70 11 47 51 12 16 68 67 34 82 79 74 29 -40 -73 -17 -54 -60 -57 -45 -76 -8 -24 -10 -25 -50 -93 -69 -23 -90 -65 -2 -58 -15 -89 -87 -31 -3 -30 -27 -19 0
44 6 2 77 72 31 89 51 7 65 25 88 69 34 57 10 53 85 8 9 42 82 14 17 35 -73 -50 -19 -94 -95 -12 -84 -22 -46 -48 -29 -18 -39 -33 -52 -16 -24 -41 -20 -28 -83 -87 -5 -55 -21 -1 -30 -3 -15 -68 -90 0
67 39 65 48 69 42 79 81 38 4 50 71 94 43 3 92 66 63 36 23 18 80 29 56 19 75 44 53 5 49 45 59 78 17 14 46 91 72 74 16 52 73 90 85 82 -70 -58 -51 -21 -34 -15 -41 -25 -57 -12 -6 -2 -61 -88 -95 -37 -30 -33 -7 -83 -8 -64 -28 -26 -76 -13 -87 -86 -84 -68 -24 -22 -93 -27 -47 -60 -35 -32 -55 -40 0
75 27 7 30 19 61 25 58 2 39 28 32 53 16 46 69 71 42 1 52 40 49 37 44 18 15 72 -63 -78 -4 -34 -36 -85 -14 -65 -57 -94 -82 -84 -56 -81 -80 -45 -83 -87 -73 -29 -95 -54 -68 -24 -86 -13 -79 -59 0
16 77 36 75 69 50 24 39 51 85 86 37 54 76 31 19 14 79 -22 -59 -8 -57 -58 -72 -20 -23 -5 -65 -25 -38 -55 -18 -91 -48 -93 -52 -83 -70 0
-92 -59 0
39 31 40 60 7 9 27 44 19 16 37 52 6 67 58 30 12 17 86 53 50 49 43 22 34 51 91 64 65 74 20 94 95 36 61 41 68 54 48 46 8 55 -70 -2 -35 -84 -13 -85 -93 -77 -14 -63 -32 -1 -72 -3 -71 -69 -88 -79 -10 -25 -90 -62 -45 -78 -38 -18 0
60 14 40 85 52 50 4 35 43 22 8 46 58 76 13 9 70 88 74 59 89 6 78 19 16 39 90 91 72 80 65 29 11 64 15 63 79 77 94 -7 -37 -18 -25 -34 -49 -26 -56 -92 -2 -71 -31 -68 -41 -1 -20 -95 -23 -57 -62 -69 -36 -87 -51 -55 -32 -54 -67 -47 -86 -73 -21 -38 -12 -45 -44 -53 -24 -83 -33 -17 0
18 38 2 20 90 60 95 70 31 52 1 30 21 28 61 39 29 84 23 36 68 74 41 94 64 17 57 91 35 81 71 93 11 80 27 -50 -82 -16 -8 -55 -19 -77 -69 -75 -49 -14 -76 -63 -5 -9 -56 -92 -67 -78 -59 -37 -33 -40 -6 -72 -53 -3 -62 -12 -32 -13 -45 -58 -47 -83 -26 -85 0
27 8 54 78 56 82 23 90 5 75 41 48 24 46 49 43 69 67 70 3 81 -53 -77 -33 -71 -13 -59 -72 -18 -74 -26 -47 -44 -73 -64 -6 -65 -79 -28 -20 -9 -17 -76 -16 -2 -57 -85 -95 -39 0
10 30 47 38 50 54 9 90 49 34 16 33 84 25 76 39 37 53 92 2 43 57 86 78 65 5 3 31 75 83 73 89 20 94 63 80 13 42 12 6 41 21 64 68 23 11 19 51 40 26 35 -72 -17 -88 -27 -22 -29 -61 -70 -60 -1 -36 -95 -58 -52 -77 -55 -18 -59 -24 -69 -7 -14 -66 -81 -56 -91 -28 -8 -79 -45 -85 -93 -87 -62 -82 -44 -71 -48 -67 0
53 32 83 -27 -19 -66 -8 -18 -50 0
22 75 51 27 61 47 64 65 14 91 26 60 48 7 86 8 77 87 81 50 67 18 57 25 4 88 85 92 -41 -16 -66 -6 -70 -24 -42 -78 -11 -12 -34 -13 -45 -17 -39 -15 -63 -37 -59 -56 -5 -73 0
55 75 9 80 95 -65 -7 -26 -86 -22 -53 -29 -18 -54 -60 -17 0
62 42 -61 -27 -57 0
73 81 55 78 90 -56 -76 -38 -19 -28 -62 -74 -58 -30 -45 0
34 59 24 33 26 63 18 41 65 81 83 61 -60 -80 -28 -55 -64 -7 -6 -35 -86 -75 -12 -21 -95 -54 -52 -82 0
89 62 17 77 63 8 7 16 36 9 71 59 94 95 11 6 55 46 22 80 64 4 72 14 28 87 85 74 20 78 54 58 34 26 1 35 40 67 24 57 33 30 3 56 13 69 27 60 92 39 12 10 50 32 48 -51 -29 -25 -76 -82 -42 -23 -41 -18 -45 -84 -61 -37 -65 -43 -38 -44 -88 -81 -5 -68 -91 -15 -66 -53 -19 -93 -73 -2 -47 -79 -52 -86 -83 -70 -31 -75 -49 -21 0
38 89 39 60 -52 -77 -87 0
52 29 -56 -94 -93 -81 -53 -14 -77 -2 -8 -45 0
31 94 78 3 22 -35 -40 -95 -24 0
65 10 36 82 32 40 59 6 24 5 14 53 81 78 57 55 2 56 23 29 52 66 22 3 67 93 51 -64 -8 -12 -26 -30 -46 -58 -72 -13 -34 -70 -91 -80 -88 -38 -4 -69 -9 -11 -17 -92 -27 -25 -21 -35 -85 -86 -1 -68 -7 -74 -41 -44 -28 -76 -39 -48 -49 -77 -87 -54 -43 -84 -60 -15 0
65 39 71 40 30 55 8 68 20 89 1 77 72 15 88 80 49 43 83 3 70 92 47 9 95 19 4 32 51 50 7 75 56 60 66 25 52 41 87 73 61 46 45 84 36 48 54 82 59 34 12 93 -79 -76 -11 -29 -37 -57 -14 -23 -78 -2 -53 -90 -38 -63 -5 -91 -17 -94 -81 -58 -86 -28 -27 -13 -21 -69 -67 -16 -22 -33 -31 -35 -24 -85 -26 -74 0
6 40 75 24 50 20 66 45 11 48 74 46 69 43 77 38 26 53 30 83 23 35 36 93 8 59 70 22 52 13 88 81 56 4 -84 -9 -19 -82 -71 -94 -44 -7 -33 -42 -31 -47 -61 -28 -67 -91 -5 -64 -57 -2 -79 -80 -68 -60 -51 -92 -85 -72 -58 -25 -78 -41 -15 -37 -87 0
22 40 51 8 48 72 36 37 85 32 82 54 26 88 4 42 90 49 17 44 89 6 21 24 47 52 15 11 30 53 94 3 81 41 -18 -67 -27 -19 -93 -63 -61 -75 -91 -34 -10 -84 -43 -5 -62 -73 -7 -31 -86 -78 -68 -20 -66 -38 -23 -70 -29 -9 -35 -56 -45 -59 -16 -46 -12 -74 -95 -13 -69 -87 -39 -57 -64 -76 -79 -1 0
4 2 72 22 14 58 52 57 47 64 50 7 26 54 23 38 48 68 89 1 80 10 12 69 62 44 63 51 55 19 67 56 74 32 -78 -43 -84 -75 -30 -18 -79 -95 -5 -90 -41 -73 -42 -76 -85 -92 -17 -27 -81 -13 -60 -21 -34 -77 -29 -83 0
75 40 14 32 38 7 42 19 3 90 31 87 51 -48 -57 -54 -24 -64 -94 -59 -65 -21 -81 -92 -71 -36 -60 -88 0
77 21 40 8 16 5 83 46 71 93 79 2 80 75 72 3 43 -20 -92 -41 -27 -13 -32 -26 -69 -50 -65 -85 -39 -29 -62 -91 -66 -73 -19 -25 -14 -67 -6 -60 0
80 12 20 90 25 -16 -54 -72 -31 -51 -41 -29 -62 -49 -76 0
37 84 58 9 28 54 69 8 68 81 73 59 49 27 93 2 46 45 15 3 94 51 64 89 14 82 1 40 16 33 23 92 74 78 61 55 72 36 18 85 53 57 87 86 67 70 42 47 -31 -80 -77 -41 -83 -26 -76 -21 -38 -48 -90 -35 -71 -12 -50 -29 -65 -5 -34 -25 -43 -88 -66 -17 -79 -39 -60 -11 -44 -22 -95 -62 -7 -13 -4 -19 -10 -32 -56 -20 0
50 67 77 41 60 83 42 45 56 20 43 37 39 88 44 61 62 90 47 54 95 70 73 27 32 26 86 91 78 57 16 79 -8 -10 -66 -81 -24 -15 -36 -76 -2 -82 -85 -3 -28 -38 -21 -93 -11 -7 -12 -5 -55 -58 -51 -71 -64 -59 -33 -30 -29 -19 -25 -31 -48 -53 -69 0
92 29 7 69 25 0
28 38 80 63 95 54 71 32 94 -48 -57 -16 -59 -31 -58 -10 -25 0
61 89 2 49 22 27 53 60 42 1 20 93 77 50 82 15 95 94 74 6 36 63 -83 -31 -23 -66 -5 -52 -24 -90 -3 -43 -47 -69 -48 -19 -9 -25 -39 -81 -11 -45 -8 -10 -33 -13 -65 -44 -54 -76 -67 -29 -85 -12 -14 0
46 54 57 16 82 19 5 39 75 20 42 17 65 70 93 44 37 28 73 23 79 27 66 48 33 64 51 11 60 61 18 32 10 9 41 63 43 -87 -62 -8 -78 -58 -29 -94 -6 -85 -56 -67 -92 -47 -86 -1 -81 -95 -25 -40 -91 -84 -50 -13 -14 -45 -74 -68 -24 -31 -38 -7 -36 -26 -88 -49 -3 -71 0
19 -88 -42 -81 0
5 60 76 77 10 13 63 29 58 49 26 3 64 35 78 46 95 72 33 7 1 80 51 65 68 34 62 16 69 19 86 15 21 92 81 71 8 24 45 36 -54 -39 -44 -38 -22 -91 -20 -48 -4 -17 -52 -6 -55 -32 -47 -75 -9 -11 -37 -57 -67 -31 -28 -14 -83 -82 -88 -25 -93 0
14 65 57 48 38 81 58 95 46 3 89 28 53 67 11 50 64 18 16 90 69 8 91 45 76 1 83 2 32 80 84 15 41 79 59 92 61 6 -36 -73 -78 -62 -31 -93 -26 -82 -51 -23 -7 -86 -66 -49 -34 -9 -85 -87 -17 -39 -72 -42 -27 -33 -60 -4 -29 -24 -56 -21 -75 -12 -55 -19 -47 -40 -20 -88 -52 -25 0
56 23 94 61 3 18 72 -53 -39 -73 -25 -40 -45 -93 -29 -14 -88 -63 -77 -9 -35 0
53 45 22 83 47 81 48 77 69 4 42 28 90 2 -85 -70 -1 -92 -38 -15 -79 -31 -59 -87 -91 -71 -26 -9 -44 -17 -55 -51 0
-28 -87 0
1 95 32 31 61 29 64 5 69 13 68 77 48 35 93 30 4 89 28 24 54 15 58 83 70 -78 -17 -12 -40 -63 -50 -87 -9 -52 -74 -94 -53 -42 -46 -6 -72 -8 -43 -71 -44 -79 -3 -80 -33 -92 -20 -49 -23 -16 -18 -7 -66 -90 -34 -88 -85 -51 -2 0
59 14 62 58 32 66 29 -35 -12 -86 -88 -91 -65 -15 -25 -5 -60 0
