c NeuroCodeBench 2.0 CNF formula with verdict Sat
p cnf 58 373
16 10 31 48 4 36 29 42 24 8 14 46 43 49 11 28 20 40 15 25 30 19 34 55 -45 -18 -3 -33 -5 -44 -9 -13 -35 -1 -23 -37 -6 -21 -32 0
55 21 44 9 39 7 53 30 4 35 23 38 14 22 33 3 49 31 2 52 36 11 10 18 45 -32 -26 -6 -34 -48 -20 -40 -19 -5 -50 -1 -37 -42 -57 -46 -17 -58 -43 -12 -8 -27 -29 0
10 21 12 46 42 25 34 26 27 7 44 18 40 48 43 -13 -23 -47 -53 -15 -32 -52 -29 -51 -28 -55 -57 -14 -30 -37 -2 -11 -24 -41 -35 -36 0
26 46 12 51 5 36 35 40 18 24 9 33 8 41 34 23 30 6 48 44 37 -47 -45 -38 -58 -54 -3 -4 -1 -28 -49 -32 -43 -16 -15 -7 -53 -19 -50 -56 -27 -2 -57 -39 -10 -21 -31 -20 0
16 -23 -1 -14 -4 -48 -36 -27 -22 0
37 54 4 40 27 38 9 57 31 29 36 26 10 2 47 51 42 -18 -22 -44 -7 -41 -15 -25 -39 -58 -19 -1 -8 -34 -56 -16 -48 -32 -24 -43 -20 -53 -11 -12 -52 0
6 33 9 53 51 38 16 57 31 34 41 12 15 55 40 26 20 10 47 17 23 2 37 -30 -8 -35 -46 -43 -4 -5 -7 -54 -32 -27 -18 -13 -36 -29 -3 0
23 22 21 5 30 58 10 25 40 20 -27 -8 -29 -28 -51 -31 -13 -33 -34 -26 -39 -4 -56 0
33 6 1 57 31 48 35 55 50 38 2 43 12 17 11 49 22 52 10 53 47 16 34 -5 -24 -44 -9 -8 -36 -29 -54 -32 -41 -37 -42 -27 -46 -4 -30 -14 -3 -25 -26 -13 0
31 28 12 43 4 17 58 49 51 1 7 50 9 45 20 29 57 44 48 -6 -56 -33 -53 -22 -3 -52 -30 -23 -24 -5 -16 -15 -38 -21 -54 -40 -46 -37 -42 -14 -55 -47 -26 -13 -25 -41 0
-34 -25 0
53 37 44 6 3 42 35 18 1 21 45 49 29 33 50 -8 -14 -23 -15 -34 -25 -41 -36 -19 -52 -26 -2 -12 -16 -13 -31 -27 0
30 48 45 55 52 -47 -13 -49 -7 -21 0
31 46 39 40 11 45 54 5 19 53 6 1 48 42 10 17 51 38 25 24 52 20 33 36 55 30 13 44 4 34 -7 -12 -23 -14 -49 -21 -22 -2 -9 -15 -50 -56 -58 -3 -57 -47 -26 -16 -37 -18 -29 -35 -32 -27 -28 -43 -8 0
56 21 55 52 7 6 57 13 15 18 22 9 35 16 33 30 43 1 34 25 47 4 3 48 24 -12 -38 -39 -42 -26 -27 -31 -46 -19 -51 -20 -17 -8 -58 -49 -45 -2 -11 -28 -37 -23 -14 -44 -40 -32 -54 -10 -53 -36 0
42 38 4 -25 -40 0
13 37 54 19 36 10 48 11 20 27 53 2 46 35 8 26 28 42 -55 -51 -38 -47 -41 -9 -44 -3 -17 -57 -58 -31 -5 -40 -43 -33 -14 -7 -6 -16 -25 -18 0
6 46 2 29 47 50 37 38 21 30 13 25 15 53 -1 -5 -24 -33 -57 -49 -10 -56 -54 -32 -39 -41 -8 -4 -31 -3 -51 -19 -7 -26 -55 -48 -16 0
-7 -58 0
32 47 4 21 22 35 34 12 39 8 14 52 40 56 19 33 -54 -53 -5 -29 -58 -41 -31 -20 -30 -37 -11 -38 -27 -18 -36 -28 -55 -44 -16 -43 -45 -10 -25 -26 -57 -24 -46 -51 -9 -23 -17 -50 -1 -42 -3 -7 -48 0
40 19 34 23 20 18 50 9 14 6 4 1 41 38 39 17 27 26 16 53 -21 -30 -31 -58 -48 -36 -11 -52 -35 -22 -2 -54 -8 -45 -44 -46 -12 -15 -57 -33 -51 -25 -47 -49 -5 -24 0
3 55 42 53 1 22 39 28 51 25 47 15 40 46 12 7 45 20 17 52 33 49 27 13 11 43 36 41 24 -2 -4 -31 -34 -6 -18 -57 -23 -8 -35 -16 -32 -30 -10 -44 -29 -48 -38 -56 -58 -14 -54 -21 -37 -26 -19 -50 0
27 35 19 22 5 3 18 23 26 57 38 7 56 4 8 44 17 16 14 49 42 12 33 46 2 -36 -45 -52 -58 -48 -24 -10 -6 -40 -37 -9 -20 -11 -21 -43 -28 -51 -31 -55 -32 -30 -34 -50 -54 -29 0
47 18 54 17 38 6 24 43 11 30 46 27 16 32 13 35 34 45 21 33 37 56 -40 -7 -25 -41 -28 -29 -53 -10 -49 -12 -44 -48 -9 -14 -31 -51 -1 -20 -23 -50 -22 -36 -57 -26 -19 0
17 42 35 -20 -43 -57 -1 0
38 51 42 10 26 3 54 -35 -31 -46 -18 -11 -57 -52 0
1 52 57 14 47 21 35 50 22 36 37 45 55 46 27 33 10 3 31 -5 -19 -7 -25 -17 -20 -23 -9 -42 -30 -18 -24 -11 -39 -32 -51 -6 -53 -12 -43 -56 -26 -29 -4 0
12 54 36 9 48 51 47 7 23 46 13 57 15 2 44 55 32 26 -56 -4 -3 -37 -14 -10 -17 -27 -16 -38 -45 -24 -42 -28 -18 -49 -35 -34 -29 -43 -39 -6 -21 -31 -53 -33 -40 0
20 10 8 19 23 55 40 45 58 6 51 2 57 36 44 42 31 35 -7 -12 -3 -39 -17 -48 -53 -50 -14 -24 -4 -52 -34 -38 -26 -29 -49 -15 -25 -21 -22 -43 -54 0
11 8 23 43 35 3 34 41 17 30 10 -48 -45 -54 -13 -15 -49 -36 -46 -38 -57 -26 -44 -20 -58 -47 -21 -28 0
43 31 41 38 16 25 17 2 32 40 51 26 22 19 21 53 6 -56 -7 -49 -27 -24 -52 -3 -30 -44 -8 -10 -23 -58 -34 0
10 6 13 25 7 12 35 19 51 9 47 26 -33 -40 -42 -27 -53 -31 -30 -43 -4 -46 -49 -5 -24 -32 -14 -22 -1 -29 -11 -57 0
30 58 29 23 6 56 36 54 24 13 12 11 46 26 14 25 17 21 -2 -18 -8 -48 -20 -37 -19 -45 -34 -22 -4 -1 -15 -10 -7 -55 -3 -47 -5 -27 0
5 42 54 8 2 3 21 24 52 45 15 28 1 50 51 16 12 55 22 34 33 26 7 57 58 43 39 41 -19 -44 -27 -29 -32 -9 -40 -14 -11 -4 -25 -6 -13 -17 -47 -30 -53 -35 -49 -31 -18 -38 -48 0
31 43 27 15 37 48 53 26 28 2 21 3 11 14 40 39 52 44 54 -38 -10 -17 -34 -35 -20 -12 -33 -23 -49 -6 -9 -50 -58 0
31 43 3 37 26 38 24 36 58 5 23 25 29 40 46 53 39 2 8 28 9 45 49 -20 -27 -32 -33 -12 -21 -42 -17 -7 -13 -6 -56 -18 -44 -15 -55 -19 -50 -57 -47 -22 -4 -51 0
54 9 4 38 42 24 8 56 26 3 44 2 23 -22 -48 -36 -15 -19 -49 -5 -37 -10 -53 -33 0
18 15 45 20 6 9 58 30 33 34 39 12 10 53 40 3 50 47 16 29 36 52 -37 -43 -46 -21 -26 -57 -17 -32 -54 -48 -51 -24 -5 -44 -2 -41 -13 -31 -22 -28 -8 0
58 31 51 12 19 2 -27 -35 -10 0
39 43 42 26 36 -6 -46 -54 -15 -25 0
54 40 46 39 51 4 22 34 30 35 50 31 6 11 13 9 7 58 41 18 55 49 20 44 45 -16 -25 -23 -43 -32 -17 -52 -53 -2 -5 -26 -12 -38 -15 -21 -24 -48 -3 -27 -8 -57 -28 -47 -14 -10 -29 -1 -36 0
49 48 40 29 38 25 22 46 1 -57 -24 -51 -31 -9 0
48 37 54 53 2 9 15 5 43 46 8 12 20 13 -49 -10 -17 -6 -31 -35 -33 -55 -14 -7 -29 -51 -22 -23 -52 -30 0
39 2 1 23 48 12 11 35 22 34 15 8 27 31 17 57 40 43 10 20 45 30 16 7 -4 -51 -6 -56 -18 -49 -37 -36 -58 -9 -19 -50 -46 -54 -42 -44 -47 -38 -28 -41 -32 -13 -26 -5 -55 -14 -21 0
9 25 7 37 43 5 34 1 57 44 13 17 40 56 12 47 21 30 -48 -4 -6 -32 -26 -14 -35 -33 -10 -18 -19 -53 -31 -11 -58 -54 -39 -41 -27 -3 -15 -8 -51 -46 0
58 31 24 55 8 45 11 19 51 33 57 2 54 44 25 53 36 -39 -16 -35 -4 -49 -48 -41 -10 -30 -21 -46 -32 -5 -43 -6 -40 -9 -22 -18 -14 -15 0
13 40 18 1 56 16 32 50 29 12 6 8 31 25 -41 -54 -11 -43 -46 -22 -55 -28 -7 -21 -26 -58 -52 -44 -49 -48 0
57 18 -29 -58 0
25 8 49 32 17 45 43 26 38 22 37 56 7 19 36 24 40 28 -33 -2 -47 -34 -39 -51 -3 -15 -1 -27 -54 -18 -4 -21 -10 -5 -6 0
41 19 12 58 15 21 51 32 6 35 33 30 56 37 8 18 40 45 52 2 -17 -14 -5 -36 -34 -16 -46 -42 -53 -22 -31 -25 -10 -50 -54 -48 -29 0
12 48 50 10 -19 -40 0
6 29 52 19 10 26 23 41 17 3 2 45 51 57 24 14 47 16 30 48 46 25 20 -43 -9 -50 -35 -36 -12 -56 -32 -58 -39 -44 -21 -13 -18 -22 -7 -33 -53 -40 -1 -31 -38 -37 -28 -49 -8 -11 -15 -55 0
41 42 43 58 17 28 16 55 38 54 52 53 6 -40 -7 -23 -30 -47 -4 -27 -36 -20 -26 -25 -24 -29 -14 -34 -45 -10 -19 0
51 31 57 33 35 25 10 21 32 13 50 42 47 44 45 -17 -26 -39 -58 -3 -15 -37 -55 0
50 47 28 21 22 6 -12 -24 -19 -49 -52 0
35 3 21 -27 0
38 24 46 51 18 23 56 15 7 55 3 34 54 -21 -35 -57 -11 -49 -13 -37 -41 -48 -14 -47 -43 -42 -1 -9 -19 -4 -30 -5 0
18 32 11 1 42 12 28 45 52 16 15 39 -17 -26 -55 -30 -40 -27 -2 -3 0
44 33 23 28 35 18 8 20 2 53 36 4 -42 -25 -30 -58 -51 -11 -34 -45 -22 -14 -9 -48 -46 -52 -43 -7 0
1 39 12 4 32 28 58 47 40 52 3 14 45 56 43 26 11 25 37 -6 -38 -36 -30 -8 -41 -57 -5 -49 -18 -15 -7 -27 -42 -31 -44 -9 -46 -21 -2 -54 -10 -53 -24 -17 -22 -55 -50 -29 -34 -13 -23 -51 -33 0
8 3 52 31 47 10 1 -2 0
32 42 40 38 26 50 46 45 47 10 3 53 15 58 48 49 5 4 14 11 17 29 23 22 36 55 21 43 44 6 18 -31 -54 -2 -35 -27 -9 -12 -41 -19 -52 -33 -1 -57 -16 -24 -25 -28 -13 -51 -30 -20 -37 -39 0
49 30 25 14 -38 -22 -1 -41 -52 -58 -51 0
48 17 33 31 36 7 44 35 16 58 54 14 3 37 1 32 21 29 22 6 24 10 15 9 46 53 42 30 34 23 12 5 2 -47 -13 -26 -38 -18 -4 -45 -39 -25 -50 -41 -27 -52 -55 -8 -11 -40 -49 -20 -19 0
17 23 31 54 38 3 16 8 43 52 46 36 9 25 11 7 39 55 19 50 5 24 13 14 -42 -56 -22 -32 -27 -57 -21 -26 -33 -40 -6 -18 -10 -29 -28 -41 -49 -44 -34 -4 -58 -2 -37 0
48 2 26 8 25 20 55 6 24 23 41 29 54 3 27 45 -50 -16 -51 -36 -33 -47 -19 -9 -40 0
51 34 52 3 36 19 6 31 57 11 53 37 -39 -9 -49 -1 -33 -38 -8 -29 -43 -10 0
36 20 39 25 16 19 22 10 28 48 45 34 3 40 8 57 26 14 21 -58 -5 -33 -54 -51 -4 -18 -9 -37 -47 -24 -43 -35 -31 -32 -49 -17 -50 -2 -55 -53 -6 -13 -29 -41 -1 -15 -46 -7 -30 -23 -56 0
7 46 39 51 31 41 25 37 34 9 15 53 40 26 35 12 10 -58 -38 -43 -50 -14 -33 -56 -18 -44 -23 -47 -8 -57 -24 -17 -1 -3 -5 -27 -11 0
55 15 32 52 43 33 2 6 48 30 21 56 27 36 51 19 40 23 37 28 53 7 58 26 -22 -12 -44 -54 -35 -20 -34 -1 -4 -45 -11 -38 -31 -41 -29 -5 -14 -18 -46 -16 -8 -57 -47 -49 -39 -25 -10 -24 0
-58 -15 0
25 47 44 13 16 32 36 17 29 40 5 53 7 10 46 57 38 23 48 -52 -21 -9 -51 -24 -56 -11 -42 -15 -14 -18 -30 -43 -3 -45 -27 -35 -34 0
37 12 9 -11 -52 -6 -24 -10 -32 -29 0
28 22 29 42 37 38 23 44 32 5 54 1 45 30 7 46 33 24 -41 -16 -56 -35 -3 -20 -13 -21 -14 -18 -40 -8 -17 -27 -34 -2 -4 -31 -15 0
34 27 43 25 54 19 42 21 16 37 40 55 49 -12 -41 -52 -14 -48 -53 -57 -3 0
40 39 12 30 -4 -37 0
30 16 31 37 5 4 6 35 46 57 32 43 47 15 3 29 26 21 18 39 -2 -51 -19 -28 -34 -36 -41 -45 -40 -38 -54 -23 -20 -50 -12 -56 -14 -8 -58 -52 -10 -55 -53 -44 -1 0
39 38 16 51 52 28 55 30 48 13 36 53 31 23 24 45 54 40 15 32 -57 -47 -37 -46 -41 -42 -3 -29 -49 -20 -6 -27 -43 -7 -22 -19 -2 -5 -34 -11 0
38 22 57 24 32 41 11 9 4 47 50 2 27 -29 -8 -45 -16 -19 -44 -21 -51 -10 -35 0
43 23 3 34 37 56 1 22 44 4 51 30 53 17 33 35 15 12 2 29 -13 -8 -6 -27 -42 -49 -10 -25 -58 -47 -32 -50 -40 -28 -41 -48 -7 -46 -19 -52 -31 -55 -57 -14 0
22 44 2 52 30 43 12 51 18 13 42 56 19 24 15 57 11 9 6 35 27 55 26 -32 -21 -45 -49 -5 -17 -54 -33 -1 -41 -8 -47 -28 -10 -48 -39 -53 -58 -14 -40 -3 -36 -23 -29 -34 0
4 6 25 47 8 28 7 34 13 31 15 1 40 3 20 48 22 45 44 -39 -37 -24 -42 -41 -17 -9 -43 -29 -18 -52 -56 -19 -14 -58 -46 -5 -26 -2 -50 -53 0
2 16 0
7 16 41 18 52 47 57 31 -49 -37 -25 -6 -32 -30 -45 -29 -55 -53 -35 -14 -12 -33 -44 -1 -5 -11 -42 -13 0
23 32 31 35 56 2 28 -18 -17 -53 -54 -15 -19 -58 -46 -47 -30 -21 -41 -16 -34 -44 0
15 32 24 21 38 26 56 5 50 58 36 49 14 -40 -47 -16 -54 -57 -10 -25 -52 -45 0
49 20 53 38 50 32 33 6 24 9 29 1 52 55 8 56 13 25 43 40 16 44 2 39 -12 -23 -54 -11 -14 -19 -18 -58 -46 -3 -17 -42 -10 -28 0
23 33 20 6 12 37 50 5 57 -16 -15 -36 -30 -21 -40 -41 -43 -2 -14 0
42 26 10 28 19 51 20 36 58 9 -24 -6 -40 -12 -11 -1 -2 -3 -25 -33 -21 -7 -39 -47 0
3 14 37 22 16 26 -35 -20 -31 0
18 4 21 8 32 10 30 27 34 55 17 53 16 26 38 19 56 48 3 33 49 -5 -12 -50 -45 -47 -23 -15 -57 -31 -54 -35 -13 -9 -44 -1 0
52 23 42 43 -16 -51 -5 -20 -46 0
34 57 18 23 32 27 49 48 13 19 42 30 -21 -29 -12 -22 -28 -47 -15 -58 -35 -16 -6 -53 0
37 19 25 43 5 48 44 17 3 21 24 11 47 23 58 49 31 54 14 56 10 13 42 -4 -26 -6 -35 -51 -36 -2 -7 -52 -33 -28 -22 -8 -1 -40 -15 -16 -57 -9 -55 -38 -29 -30 -45 -41 -46 0
15 5 2 58 52 3 16 27 12 49 29 46 11 24 8 54 50 22 44 7 23 38 19 28 39 40 36 37 43 56 47 32 -14 -34 -55 -21 -10 -4 -41 -9 -6 -18 -17 -30 -45 -13 -20 -57 -42 -53 0
47 15 17 45 46 32 12 33 8 40 10 7 54 23 25 53 14 -27 -48 -29 -50 -51 -41 -1 -58 -56 -42 -28 -16 -22 -26 -37 -18 0
9 24 31 38 15 37 11 28 26 57 29 34 41 25 44 33 48 19 32 23 10 45 5 -27 -53 -54 -14 -39 -21 -49 -1 -58 -6 -4 -46 -36 -51 -43 -55 -52 -18 -13 -35 -42 -12 -16 -22 -50 -17 -40 -56 -2 -7 0
9 38 24 48 52 17 11 45 50 2 31 35 12 34 28 58 16 13 29 4 51 26 6 20 46 56 10 7 -36 -57 -41 -8 -55 -32 -30 -53 -18 -25 -14 -44 -42 -3 -21 -54 -40 -39 -27 -23 -49 -33 -47 -15 -22 -5 0
9 57 49 33 54 13 58 -12 -14 -40 -4 -20 -44 -26 0
9 10 17 13 44 42 33 26 53 1 49 27 -34 -58 -30 -12 -55 -25 -29 -46 -20 -4 -16 -15 -18 0
26 34 43 41 38 58 1 22 12 40 47 51 53 4 49 28 -56 -27 -6 -7 -25 -45 -30 -11 -18 -52 -44 -33 -42 -35 -10 -23 -5 -46 -13 -2 -19 -17 0
2 11 14 15 49 32 12 3 57 31 37 -56 -20 -44 -38 -23 -24 -16 -39 -7 0
48 10 6 12 2 -20 -31 -34 -30 0
30 48 53 31 39 47 26 16 25 18 -42 -38 -32 -43 -24 -50 -20 -10 -14 -54 -40 -12 -7 0
51 40 8 39 20 37 18 47 48 5 15 11 10 32 56 -36 -2 -50 -3 -54 -12 -16 -22 -42 -41 -30 0
6 55 47 22 43 40 27 3 58 8 -12 -2 -52 -41 -54 -33 -35 -23 -11 -48 -44 -1 -18 -34 -50 -24 -42 -7 -56 0
8 50 39 43 29 35 24 37 16 2 3 57 7 25 36 52 56 31 53 -22 -34 -32 -42 -47 -54 -38 -55 -15 -45 -13 0
19 8 14 6 48 41 13 36 12 34 47 23 -46 -26 -51 -15 -11 -55 -49 -29 -1 -3 -21 -35 0
41 43 46 35 7 40 54 31 50 42 -2 -11 -13 -44 -51 -23 -28 -22 -45 -32 -3 -30 -16 -24 -9 0
12 24 21 55 38 8 30 27 28 6 49 10 18 34 14 32 29 13 57 1 9 44 58 50 -33 -53 -46 -7 -31 -41 -54 -4 -51 -40 -11 -42 -16 -15 -19 -52 -47 -39 -5 -25 -35 -23 -36 -26 -22 0
16 9 21 48 1 57 45 24 26 8 19 11 37 44 28 23 54 12 38 58 40 32 22 27 36 17 2 3 -50 -46 -25 -14 -41 -49 -53 -5 -18 -33 -6 -30 -51 -31 -15 -4 -35 -52 -29 -56 -34 -20 -43 -13 -39 -55 -42 -7 -10 0
44 40 35 25 18 41 15 22 4 20 21 30 19 9 54 57 7 47 1 8 17 39 42 23 -29 -27 -31 -28 -24 -45 -58 -33 -38 -10 -32 -52 -48 -51 -13 -6 -36 -50 -26 -2 -11 -14 -46 -49 -5 -34 -16 -56 -12 -43 -55 -3 -37 0
42 8 27 17 24 13 -40 -23 -29 -33 -44 -56 0
32 21 20 24 31 23 28 13 53 7 37 1 3 38 41 34 12 25 5 -35 -49 -9 -40 -19 -42 -16 -29 -30 -33 -6 -55 -56 -43 0
52 7 10 51 37 9 19 28 30 1 17 34 56 31 50 22 54 46 39 20 13 44 23 45 15 27 42 -3 -24 -12 -21 -43 -18 -35 -33 -25 -53 -2 -4 -55 -32 -16 -38 -57 -14 -47 -29 -49 0
5 49 18 43 8 19 35 10 -30 -23 -31 -3 0
35 37 54 4 46 30 10 24 49 2 21 34 22 8 41 14 57 51 20 23 29 1 26 31 55 -50 -47 -6 -15 -45 -39 -7 -12 -19 -48 -36 -13 -27 -18 -3 -56 0
33 2 13 29 30 25 43 37 26 42 1 53 11 35 57 5 45 54 16 58 -39 -14 -24 -41 -49 -44 -20 -40 -15 -52 -51 -31 0
38 15 9 11 22 50 10 7 21 18 29 19 35 1 4 28 2 -47 -56 -54 -36 -12 -25 -33 -8 -34 -51 -23 -16 -14 -5 -42 -31 -44 -53 -26 -13 -43 -58 -27 -20 0
50 7 9 46 41 2 33 36 11 15 21 51 -52 -43 -8 -40 -48 -20 -29 -14 -35 -47 -26 -5 -16 -49 0
36 7 55 14 11 48 17 1 45 46 57 -25 -26 -39 -40 -31 -49 -5 -8 -41 -54 -53 0
31 46 23 34 42 57 -50 -52 -20 -18 -44 -2 -36 0
8 37 6 10 22 49 51 55 -46 -5 -24 -52 -50 -32 -29 -57 -54 -30 -9 -42 -38 0
33 51 42 53 22 46 4 44 27 8 32 3 50 34 15 20 35 41 12 38 28 -30 -52 -25 -21 -48 -17 -58 -2 -49 -31 -26 -40 -55 -9 -16 -24 -19 -45 -6 -10 -14 -29 -43 -13 -5 -23 -57 -39 -47 -11 -54 -7 -56 -37 -1 -36 0
3 47 39 9 32 -17 -37 -45 -42 -55 -26 -51 -24 -52 0
18 32 50 16 55 7 26 24 10 21 44 -29 -13 -43 -58 -19 -20 -12 -35 -48 -4 -57 -2 -1 -40 -3 -9 -33 -54 -45 -52 -49 -25 0
24 52 50 26 48 51 42 -55 -33 -10 -20 -28 0
40 34 37 23 50 49 15 31 1 10 13 45 57 17 41 3 51 26 16 -27 -48 -21 -46 -58 -18 -35 -43 -36 -54 -29 -53 -28 -4 -55 -5 -12 -42 0
58 29 24 51 10 18 55 50 6 25 54 27 32 12 22 31 39 43 41 20 42 7 3 4 35 13 37 -57 -15 -40 -2 -38 -5 -9 -34 -48 -56 -44 -17 -49 -47 -45 -33 -1 -16 -21 -26 -19 -30 -46 -8 -23 0
11 34 18 21 56 -58 -7 -2 -44 -40 -42 -50 -47 -54 -6 -30 0
32 10 1 2 50 16 42 21 33 45 34 26 58 7 9 15 48 49 5 3 51 13 -17 -43 -46 -12 -52 -35 -14 -44 -41 -39 -24 -57 -8 -54 -28 -23 -6 -31 -47 -27 -40 -25 -4 -36 -29 0
4 58 37 50 39 45 21 42 56 6 33 1 3 31 2 35 23 11 22 9 10 -26 -47 -49 -7 -13 -41 -30 -40 -19 -5 -55 -12 -52 -54 -27 -44 -17 -28 -51 -53 -20 -25 -14 -57 -16 0
30 23 49 42 17 27 -15 -28 0
39 57 58 2 29 51 26 4 32 56 44 -31 -7 -50 -21 -35 -15 -5 -36 -18 -11 -47 -37 -41 -3 -46 -25 0
26 47 51 42 5 45 52 9 50 56 37 7 58 2 35 48 55 49 31 34 29 41 33 1 16 39 10 30 4 -53 -23 -13 -20 -14 -46 -18 -28 -40 -6 -38 -8 -24 -27 -15 -19 -44 -22 -43 -57 -32 -36 -21 -12 -17 0
24 43 38 -25 -10 -52 -2 0
7 43 49 2 50 29 54 21 8 37 15 18 23 32 4 -41 -52 -12 -28 -14 -19 -9 -42 -46 -51 -3 -27 -35 -13 -47 -44 -16 -6 0
33 55 38 12 18 4 26 1 56 57 -2 -34 -19 -36 -47 -52 -31 -32 -27 -15 -48 0
44 24 3 51 30 36 1 13 48 47 12 25 21 38 40 23 4 22 53 17 42 35 14 6 -15 -45 -52 -43 -54 -20 -16 -56 -27 -41 -34 -57 0
10 9 39 44 21 18 41 34 11 5 31 15 14 58 25 47 52 1 36 13 26 4 35 48 16 -32 -3 -19 -8 -53 -29 -54 -45 -30 -7 -40 -51 -20 -37 -17 -43 -2 -12 -50 -38 0
52 43 11 20 45 -26 -14 -12 -31 -15 -36 -17 -35 -23 -53 0
29 17 28 18 50 21 20 2 7 14 37 27 15 31 23 -58 -38 -44 -4 -53 -9 -51 -26 -54 -48 -39 -52 -35 -47 -30 -5 0
30 45 25 39 29 51 5 57 28 55 37 3 4 31 56 14 13 2 10 12 -53 -11 -6 -58 -9 -15 -34 -1 -41 -18 -24 -20 -7 -8 -52 -16 -40 -23 -42 -33 0
37 52 32 55 9 47 28 39 38 56 21 53 5 23 35 19 30 24 50 6 36 14 -8 -26 -15 -29 -46 -45 -44 -10 -33 -7 -27 -17 -57 -22 -13 0
12 46 53 52 24 28 27 33 29 22 3 35 40 25 20 -34 -58 -19 -55 -50 -5 -17 -45 -51 -42 -1 -54 -18 -23 -41 -49 -4 -7 -43 -14 -13 -31 -6 -37 0
10 45 26 27 21 42 24 22 39 55 15 41 23 1 13 50 -44 -38 -2 -11 -9 -54 -4 -3 -37 -16 -31 -30 -25 -49 -19 -57 -14 -20 -34 -28 -33 -18 -47 -56 -5 0
33 31 26 32 45 10 41 17 20 50 -55 -58 -5 -1 -8 -46 -2 -30 -54 -14 -28 -49 -3 -25 0
16 9 51 24 1 23 7 28 29 49 39 27 -5 -58 -14 -54 -48 -41 -38 -33 -8 -44 -19 -18 -47 -32 -40 -46 0
32 22 33 13 20 36 30 44 18 8 57 28 43 23 7 1 41 -5 -6 -39 -15 -58 -42 -46 -55 -45 -50 -2 -4 -52 -9 -48 -27 -49 -10 -25 -54 -31 -35 -12 -16 -3 -34 -19 -51 -47 -38 0
43 36 50 28 55 5 57 1 53 13 48 6 30 11 23 56 35 21 2 51 26 27 42 33 12 29 16 -58 -4 -7 -52 -15 -18 -45 -46 -54 -10 -32 -19 -44 -31 -9 -14 -41 -25 -40 -39 -49 -24 -8 -47 -34 0
20 52 3 38 42 2 6 39 58 -14 -57 -28 -16 -4 -40 -7 -22 -56 -15 -44 -26 -34 -51 0
-46 0
3 9 1 51 16 7 13 -31 -43 -56 -33 0
18 10 -56 -38 -31 -36 0
23 27 11 12 8 53 56 41 -55 -58 -48 -10 -6 -49 -54 -7 -24 0
23 19 39 49 15 30 51 22 56 4 -27 -1 -2 -35 -10 -32 -53 -45 -42 -58 0
48 35 -37 0
23 53 10 44 14 16 4 45 47 5 54 7 34 35 19 36 30 17 20 3 58 -57 -32 -2 -18 -37 -26 -25 -48 -24 -33 -39 -51 -27 -41 -38 -9 -12 -40 -43 -56 -46 0
8 44 43 46 55 26 17 49 34 3 5 9 52 24 6 22 28 32 -20 -48 -15 -56 -33 -41 -21 -4 -19 -42 -50 -2 -29 -54 -37 -25 -1 0
37 18 8 29 47 35 9 15 51 4 36 -16 -22 -19 -3 -55 -20 -43 -44 -25 -5 -38 -39 -24 -30 -21 -46 -14 -57 0
39 8 55 49 31 24 7 -9 -32 0
25 57 44 39 5 24 22 35 23 28 58 41 53 2 43 55 48 18 47 30 14 17 20 32 13 34 29 8 10 12 -26 -52 -50 -15 -51 -31 -11 -33 -6 -3 -1 -7 -54 -42 -16 -46 -36 -21 -56 -19 -9 -38 0
35 3 2 28 5 39 25 10 6 37 40 23 48 22 4 49 38 41 50 45 56 18 -46 -58 -8 -21 -9 -34 -20 -53 -14 -13 -1 -7 -17 -31 -42 -12 -44 -47 -26 -11 -27 -52 -19 -29 0
10 58 47 6 45 30 53 55 38 2 7 43 14 52 15 46 36 13 23 40 33 5 -35 -49 -57 -31 -21 -41 -11 -3 -24 -17 -18 -48 -22 -4 -39 -50 -28 -51 -8 0
35 12 9 7 39 15 3 54 4 42 21 10 30 23 22 26 29 40 20 33 51 24 44 19 18 25 28 31 34 32 -52 -14 -1 -37 -36 -41 -49 -45 -57 -5 -6 -56 -43 -13 -47 -46 -50 -11 -53 0
51 46 25 30 11 34 53 36 33 52 29 58 26 18 42 14 43 32 2 10 13 9 5 7 48 20 22 -35 -17 -47 -8 -4 -31 -49 -56 -41 -12 -28 -1 -27 -23 -38 -16 0
46 6 42 12 31 -1 -11 -41 -18 -30 0
4 27 24 2 -33 -51 -35 -45 0
6 11 45 26 29 15 34 36 18 52 14 40 5 2 43 21 41 20 16 30 13 54 25 23 -31 -39 -58 -53 -37 -48 -42 -12 -44 -57 -32 -27 -8 -49 -4 -10 -9 -24 -28 -38 0
4 1 3 43 17 14 24 -10 -33 -46 -35 -42 -55 -44 0
56 36 49 46 2 57 22 50 41 29 -10 -3 -24 -28 -30 -13 -52 -25 -44 -18 -39 0
2 11 29 40 55 18 5 53 44 57 17 32 38 43 19 39 48 52 13 22 49 20 31 -23 -25 -36 -51 -50 -37 -3 -47 -7 -10 -6 -14 -41 -45 -42 -26 -12 -8 -30 -1 0
54 41 37 55 22 51 19 34 -40 -25 -48 -23 -13 -32 -26 -1 0
8 48 35 6 34 47 10 58 1 7 46 27 41 19 23 -53 -37 -51 -12 -25 -49 -24 -13 -32 -33 -22 -9 -43 -15 -14 -42 -40 -52 -17 -16 -29 -21 -30 -54 0
25 40 38 44 -51 -27 -57 -55 -52 -54 -19 -4 -41 0
6 39 29 25 53 45 1 -14 -55 -12 -10 -57 -44 -23 -13 -7 -42 -17 -31 0
8 25 47 18 51 1 26 20 15 40 21 49 42 13 53 52 31 17 46 41 5 24 29 3 55 39 7 22 45 -14 -32 -44 -6 -50 -19 -11 -56 -48 -27 -54 -37 -33 -23 -16 -9 -35 0
21 51 57 36 31 12 22 44 47 26 39 53 28 10 58 -15 -19 -29 -24 -2 -42 -14 -20 -4 -18 -33 -40 -32 -35 -9 -30 -38 -50 0
37 3 48 52 50 33 51 58 39 14 29 46 40 13 22 57 4 34 23 10 5 45 32 18 35 43 -24 -49 -1 -21 -54 -41 -36 -19 -38 -56 -27 -16 -11 -47 -7 -53 -31 -8 -25 0
53 42 40 19 55 6 48 52 49 27 46 45 22 -16 -30 -32 -12 -47 -31 -28 -14 0
44 45 17 52 41 36 53 34 24 43 48 56 18 5 38 32 50 -49 -54 -42 -3 -58 -29 -57 -35 -27 -9 -11 -19 -6 -21 -26 -51 -12 -39 -23 -33 -15 -31 -1 -8 -14 0
40 14 31 53 3 9 37 46 51 16 15 34 27 30 11 43 23 28 57 56 38 32 47 55 13 36 21 42 -26 -5 -20 -50 -18 -33 -10 -1 -2 -29 -58 -4 -25 -8 -39 -22 -48 -24 -54 -17 -49 -44 -6 -35 -45 -7 -52 -19 -41 0
40 22 17 41 5 13 45 15 47 46 21 48 -3 -39 -25 -35 -33 -14 -8 0
5 19 41 2 21 25 46 56 35 4 30 -53 -12 -55 -48 -15 -50 -17 -14 -43 -6 -42 -11 -51 -58 0
32 53 -38 -37 -34 0
9 16 26 45 34 -6 -46 -29 -35 -33 -51 -49 -32 -38 0
5 15 20 40 8 41 54 -50 -7 -58 -16 -48 -19 0
39 6 49 13 8 53 21 23 55 3 37 22 36 19 38 12 50 30 41 11 9 25 56 -51 -1 -2 -54 -5 -57 -15 -44 -24 -26 -7 -58 -45 -14 -47 -46 -43 -16 -29 0
53 42 -40 0
18 42 27 32 39 50 23 -7 -20 -1 -52 -45 -29 0
2 42 57 40 10 1 50 33 27 13 12 35 56 39 7 16 31 18 -47 -21 -6 -43 -38 0
27 41 36 26 44 7 21 2 -37 -45 -31 -11 0
26 39 16 41 31 37 53 7 43 25 17 19 44 11 32 36 33 14 4 47 15 2 40 28 12 38 -51 -1 -34 -20 -21 -48 -42 -5 -18 -29 -22 -10 -8 -56 -13 -52 -55 -9 -6 0
30 52 6 13 58 36 4 34 33 50 22 18 10 26 21 39 56 11 -44 -55 -54 -48 -49 -27 -7 -28 -9 -42 -46 -45 -31 -25 -38 -20 -14 -3 -8 -32 -16 -24 0
20 53 24 16 50 29 23 51 27 31 -28 -56 -58 -40 -41 -52 -22 -48 -36 0
42 14 33 22 16 24 5 58 9 12 10 31 23 13 51 7 46 15 17 18 44 56 8 29 21 2 -6 -3 -35 -39 -26 -34 -43 -48 -27 -32 -36 -40 -25 -50 -30 -1 -20 -53 -55 -49 -4 -38 0
25 51 3 39 35 2 49 16 42 24 46 57 15 -8 -17 -29 -58 -27 -12 -28 -30 -50 -18 -23 -19 -40 -38 -5 -36 0
58 49 14 12 8 30 52 38 27 9 23 42 19 57 34 40 25 46 43 16 36 20 45 44 53 -50 -17 -32 -39 -29 -33 -21 -7 -2 -3 -37 -22 -6 -4 -10 -41 -13 -35 -15 -5 -55 -51 -54 -11 -56 -1 -24 0
34 22 35 9 39 38 1 24 21 3 2 44 41 5 58 46 16 51 30 10 25 -56 -57 -37 -14 -50 -42 -12 -52 -27 -13 -28 -33 -8 -17 -48 -45 -54 -4 -32 -36 -55 -23 -26 0
8 7 30 -11 -46 -49 -3 -38 -9 -4 -1 -48 -52 0
55 10 47 2 50 -51 -18 -46 -56 -25 -31 0
7 24 14 27 -38 -40 -41 -48 -47 0
-6 -41 0
46 6 17 7 54 3 9 -19 -28 -14 -52 -10 -49 -21 -58 -44 0
43 45 36 42 48 1 58 34 49 40 6 17 56 54 13 11 20 -25 -53 -57 -27 -4 -30 -38 -46 -31 0
16 25 1 26 -53 -4 -31 -6 -56 0
45 44 30 41 54 -28 -26 -49 -40 -21 0
55 33 5 53 20 45 10 4 47 37 22 -43 -2 -8 -36 -52 -28 -42 -14 0
6 43 34 56 38 58 28 46 54 20 57 55 -49 -13 -52 -30 -40 -27 -19 -8 -16 -22 -41 -47 -3 -50 -51 -7 -45 -1 -12 -25 -31 0
9 5 53 29 23 10 2 17 52 55 34 56 44 16 37 12 4 25 40 54 31 11 41 22 50 42 35 18 -45 -38 -13 -1 -51 -24 -48 -14 -32 -26 -3 -57 -19 -8 -7 -21 -27 -58 -43 -46 -49 -30 -20 -6 -28 -39 -47 -15 -33 0
54 -36 0
2 1 3 22 14 45 29 54 30 19 44 15 52 50 23 26 41 47 36 46 39 4 21 55 -35 -48 -20 -37 -18 -12 -57 -5 -27 -10 -31 -8 -16 -49 -43 -56 -17 -11 -40 -38 -42 -28 -32 -53 -7 -34 -13 0
28 41 17 40 35 24 -14 -58 -31 -22 -36 -33 -37 0
34 55 51 12 27 41 3 33 46 11 53 20 4 36 -44 -52 -42 -49 -38 -17 -45 -15 -9 0
46 11 31 -35 -16 -25 -7 0
15 18 14 6 54 10 52 40 8 11 48 9 23 53 56 -28 -30 -16 -37 -21 -33 -35 -58 -50 0
1 47 49 19 -28 0
11 2 10 17 25 31 5 23 53 24 45 50 34 -56 -41 -30 -33 -3 -42 -12 -38 -14 -48 -44 -37 -58 -22 -26 -21 -36 -6 -27 -51 -39 -46 0
50 19 46 41 43 25 24 44 26 45 32 34 58 42 21 8 -9 -3 -12 -27 -53 -28 -13 -52 -10 0
1 42 13 28 36 29 58 5 49 39 46 8 3 17 25 4 37 10 16 7 23 -33 -57 -9 -6 -55 -34 -32 -38 -26 -12 -45 -50 -22 -35 -2 -40 -48 -24 -54 -21 -11 -53 -14 -41 0
3 54 5 55 -57 -7 -33 0
44 18 28 25 29 14 41 30 1 47 17 4 3 42 -31 -56 -6 -52 -9 -2 -16 -23 -40 -43 -15 -32 -7 -53 -45 -21 0
48 39 8 36 51 9 45 7 23 18 1 42 54 26 20 22 17 5 58 27 10 46 37 28 49 44 -43 -40 -41 -53 -30 -38 -52 -34 -16 -50 -13 -15 0
29 12 28 24 53 26 32 38 2 37 49 22 52 15 18 58 51 7 3 -30 -44 -54 -5 -19 -36 -34 -56 -25 -43 -10 -14 -39 -45 -17 -50 -48 -57 -41 -6 -4 -47 0
23 55 12 44 18 42 43 37 11 29 40 31 5 52 2 48 38 34 1 24 57 50 17 20 47 56 21 -10 -9 -28 -27 -53 -15 -54 -46 -22 -35 -45 -58 -49 -39 -32 -33 -14 -19 -36 -51 0
6 14 55 28 58 49 48 35 16 4 43 46 44 39 18 36 12 20 33 -47 -37 -41 -24 -10 -19 -17 -50 -9 -51 -15 -13 -54 -40 -1 -57 0
29 16 45 4 34 27 58 9 35 44 48 28 12 11 7 42 39 22 2 13 -51 -8 -20 -56 -15 -53 -1 -37 -49 -26 -46 -10 -18 -50 -55 -25 -24 -47 -40 -57 0
44 22 28 25 -54 -12 -48 -30 -42 -41 -15 0
54 1 15 19 55 4 12 43 48 38 29 35 20 50 21 27 53 10 16 7 33 11 9 24 51 -39 -42 -6 -30 -32 -46 -22 -37 -31 -26 -40 -2 -41 -28 -56 0
8 23 21 56 48 44 29 14 39 7 13 17 40 12 46 37 24 45 22 54 43 6 36 3 26 10 49 52 16 34 -35 -55 -47 -5 -20 -1 -33 -38 -41 -11 -18 -25 -4 -15 -57 -50 -51 -2 -53 -58 -28 -19 -31 -27 -42 0
20 40 2 41 45 43 55 15 10 36 8 4 21 57 28 50 51 16 30 33 7 14 44 19 -6 -54 -22 -47 0
51 11 24 16 42 8 57 58 48 -15 -46 -30 -28 -26 -4 -14 -17 -56 0
29 4 56 34 49 7 48 44 20 36 12 15 51 46 35 -37 -42 -43 -39 -45 0
14 36 24 57 35 47 37 4 44 41 5 17 11 25 26 42 -43 -1 -28 -32 -38 -50 -29 -39 -10 -21 -34 -49 -7 -15 -51 -56 -54 -2 -22 -3 -19 -6 -31 -33 -23 0
19 10 37 6 23 17 43 8 2 31 5 21 41 44 28 -25 -39 -15 -13 -52 -57 -27 -33 -48 -29 -7 -9 -30 -40 -3 -4 -18 -20 -16 -56 -14 -35 -54 -11 -12 -36 -58 -32 -42 0
7 4 28 13 33 38 11 43 35 56 2 12 16 10 8 47 45 -53 -9 -39 -31 -26 -50 -57 -1 -17 -15 -32 -18 -22 -46 -20 -21 -23 -14 -40 -41 -24 -42 -6 -44 -25 0
41 7 52 28 11 40 51 33 3 -1 -24 -23 -37 -26 0
14 38 50 17 19 40 53 56 25 30 1 54 13 15 39 33 36 2 29 21 48 35 3 24 57 7 23 34 -12 -46 -10 -37 -6 -52 -43 -22 -31 -51 -27 -28 -55 -41 -8 -26 0
9 8 27 2 41 10 48 26 -35 -11 -21 -17 -29 -31 -52 -44 -6 -16 0
31 43 27 55 50 49 14 8 19 15 11 45 52 24 48 29 40 2 37 22 46 5 33 16 17 58 30 39 47 6 10 -25 -1 -36 -35 -28 -44 -57 -51 -9 -23 -53 -41 -7 -12 -20 -3 -21 -32 -4 -54 -34 -18 -13 -42 -38 -26 0
24 19 58 13 33 34 12 28 23 49 37 27 53 21 7 10 36 20 42 56 5 50 54 30 18 44 22 -26 -45 -40 -1 -55 -3 -11 -17 -25 -16 -46 -51 -6 -9 -41 -39 -14 -52 -47 -35 -31 -48 -29 -15 -43 0
29 38 2 8 -58 -10 0
20 2 16 33 8 38 3 40 49 34 43 10 48 12 35 -26 -46 -6 -25 -18 -17 -4 -56 -45 -47 -53 -9 -50 0
58 33 30 21 8 2 15 10 26 34 51 39 5 56 49 35 13 32 29 12 7 42 24 31 -6 -14 -1 -44 -52 -17 -9 -25 -37 -23 -57 -16 -55 -38 -22 -20 -18 -19 -50 -27 -54 -11 -53 0
21 49 25 52 30 57 19 12 -23 -11 -37 -36 -34 -29 -41 -3 0
46 18 3 34 47 49 12 2 25 56 4 14 57 17 7 54 41 52 5 33 55 26 45 24 38 53 21 1 -43 -9 -31 -51 -37 -42 -29 -35 -39 -16 -19 -22 -40 -15 -6 -32 -30 0
25 56 -41 0
40 47 34 31 54 30 58 20 27 50 36 5 25 8 21 42 29 19 -45 -53 -26 -39 -43 -35 -23 -46 -22 -24 -11 -44 -4 -48 -10 -49 -56 -3 -16 -9 -7 -51 0
24 58 35 34 53 1 12 55 -13 -50 -29 -56 -7 -5 -54 -47 -57 -31 -8 -14 -10 -28 0
13 27 17 10 57 2 44 7 15 12 36 45 28 29 58 47 16 26 21 39 18 32 31 25 41 5 42 23 -3 -24 -20 -35 -53 -8 -50 -37 -38 -52 -54 -51 -4 -11 -56 -46 -6 -34 -1 -14 -49 -9 0
32 22 39 56 16 47 53 23 6 55 15 17 42 13 8 36 -50 -41 -44 -35 -20 -4 -43 -25 -24 -57 -33 -29 -37 -2 -48 -12 -27 -46 -7 -19 -1 -14 -45 -34 0
43 55 23 6 30 36 25 53 39 22 42 -5 -18 -13 -4 -57 -2 -19 -48 -16 0
51 30 28 39 49 12 23 6 16 13 52 26 14 -48 -31 -2 -42 -46 -34 -55 -4 -32 -54 -15 -36 -22 -50 -10 -35 0
35 22 32 36 49 55 28 14 -48 -37 -27 -38 -5 0
27 14 34 6 12 11 9 15 7 2 58 53 5 23 1 13 37 51 10 16 35 54 24 33 8 -18 -17 -3 -29 -45 -42 -38 -46 -43 -28 -25 -20 -49 -4 -36 -31 -26 -32 -57 -21 -52 -40 -22 -41 0
4 -48 -39 0
4 51 54 52 57 46 19 41 9 29 -47 -39 -10 -38 -6 -37 -32 -48 -40 -21 0
56 2 26 38 14 24 6 19 52 16 54 51 33 53 50 46 42 45 -18 -47 -30 -35 -34 -22 -9 -8 -32 -49 -15 -40 -1 -39 0
5 1 16 43 17 45 57 6 12 52 30 37 18 33 47 14 49 29 53 46 13 15 38 19 31 36 -58 -2 -8 -10 -51 -40 -44 -48 -42 -25 -39 -56 -7 -34 -41 -35 -24 -55 -32 -54 -4 -27 -26 0
12 10 36 28 6 50 21 19 27 57 39 23 48 54 40 17 9 22 53 -26 -35 -33 -41 -49 -46 -37 -1 -14 -3 -30 -11 -44 -34 -29 0
31 57 22 10 44 18 51 49 21 20 5 53 56 4 55 -7 -35 -50 -26 -25 -2 -19 -47 -45 -24 -3 -32 -27 0
45 24 58 -57 -13 -14 -26 -39 -15 -32 -35 0
46 29 36 35 11 25 -6 -56 -42 -12 -2 0
32 53 51 8 35 19 31 48 3 6 9 50 49 33 25 5 46 22 12 54 17 14 28 -24 -27 -38 -58 -23 -20 -39 -13 -41 -1 -2 -4 -21 -18 -37 -44 -29 0
25 53 17 15 16 33 57 -50 -49 -26 -8 -13 -21 -58 -10 -38 -55 -30 0
4 28 3 38 26 -41 -33 -52 -23 0
8 45 55 -21 0
31 37 38 9 56 30 52 20 53 57 55 8 29 21 46 43 26 2 47 39 24 50 3 16 58 41 36 49 -4 -54 -10 -13 -11 -18 -23 -28 -45 -5 -6 -32 -44 -33 -42 -27 -7 -19 -15 -22 -1 -14 -51 -25 -48 -40 -35 -17 0
57 20 24 58 48 50 36 51 44 12 38 -26 -14 -40 -15 -55 -9 -27 -1 -47 -3 -35 -52 -54 -34 -39 -43 -13 -53 -7 -17 -56 -41 -11 0
28 55 43 40 26 38 50 54 9 34 33 41 -12 -5 -32 -23 -10 -6 -57 -17 0
28 20 45 55 21 58 27 2 46 56 9 39 49 48 4 -54 -11 -19 -30 -32 -53 -5 -51 -8 -42 -41 -13 -24 0
57 27 36 -28 0
-36 -1 -49 -15 0
38 55 27 32 2 23 49 16 7 28 35 58 19 24 18 56 30 6 21 3 53 33 57 4 14 5 20 44 43 54 17 11 -25 -47 -52 -8 -37 -22 -10 -46 -40 -39 -29 -1 -48 -42 -51 -9 -41 -34 -15 0
54 1 53 30 28 29 16 24 38 34 50 -22 -14 -32 -18 -19 -15 -56 -20 0
18 10 29 11 13 -1 -7 0
37 22 43 -17 -56 -50 -49 0
39 55 25 30 23 29 35 10 18 3 14 49 4 26 50 9 40 52 44 57 -47 -38 -11 -37 -32 -31 -22 -20 -7 -58 -8 -15 -12 -16 -6 -34 -54 -56 -24 -45 -43 -19 -48 0
8 20 27 52 7 40 41 22 46 13 -54 -39 -5 -12 -10 -31 -49 -17 -50 -2 -15 -30 -3 -58 -26 0
55 53 14 20 45 43 22 33 7 12 35 36 34 19 49 32 37 4 48 56 -38 -18 -54 -46 -29 -21 -25 -1 -41 -17 -27 -11 0
10 53 35 19 23 45 7 28 54 32 25 48 17 16 58 -56 -5 -18 -11 -31 -3 -6 -42 -29 -13 -21 -37 -4 -38 0
39 29 54 -45 -23 -40 -38 -16 0
24 48 21 35 56 22 50 18 32 7 28 54 14 -16 -41 -38 -5 -4 -42 -26 -34 -43 -11 -19 -53 -51 -45 -2 -31 0
27 55 31 8 10 17 47 54 15 12 36 13 30 45 28 35 19 20 26 23 21 33 38 43 3 56 -42 -1 -50 -11 -46 -51 -41 -37 -18 -14 -22 -34 -5 -32 -44 0
19 39 23 33 3 48 53 41 27 50 1 44 16 38 55 14 35 51 7 -24 -20 -45 -6 -25 -13 -30 -31 -17 0
36 49 47 1 27 44 54 22 28 21 10 14 17 13 3 -25 -55 -30 -7 -24 -23 -15 -50 -43 -34 -40 -51 -58 -2 -57 -12 -39 -29 -11 -6 -37 -26 -53 -41 -32 -16 0
36 19 56 25 47 45 12 24 2 1 29 27 22 44 -49 -7 -14 -48 -10 -46 0
50 30 17 -37 0
35 6 28 32 56 51 34 3 29 50 45 42 8 37 46 26 -27 -31 -4 -16 -10 -18 -9 -49 -36 -39 -7 -20 -41 -40 -11 -1 -17 0
10 41 -39 -35 -44 0
40 38 17 14 42 19 -57 -22 -11 -12 -35 -18 -15 -32 0
48 17 41 9 4 54 15 33 35 56 18 42 57 39 50 3 11 14 37 12 53 16 45 1 34 -40 -10 -26 -36 -55 -44 -38 -46 -19 -23 -31 -7 -20 -5 -51 -28 -43 -58 -2 -25 -21 -27 -6 -32 0
44 42 6 4 7 57 52 16 45 5 19 55 24 29 12 40 51 25 56 35 48 14 27 34 23 37 38 -22 -10 -46 -3 -33 -36 -9 -32 -39 -30 -28 -31 -2 -21 -26 -41 -15 -47 -43 -11 -1 0
14 56 33 31 45 9 39 38 44 4 35 6 7 52 13 25 15 41 53 20 18 19 8 5 24 -17 -29 -12 -1 -34 -47 -2 -32 -30 -55 -51 -48 -42 -50 -49 -3 -28 -36 -23 -27 -57 -16 -54 -26 0
23 50 38 39 31 10 32 2 55 56 34 -40 -58 -35 -25 -52 -57 -53 -5 -48 -11 -21 -43 -37 0
21 40 26 46 28 14 6 4 29 55 36 57 15 39 34 8 -27 -51 -17 -11 -35 -44 -24 -5 -45 -18 -23 -41 -30 -43 -56 0
46 40 25 15 51 5 23 30 52 21 10 47 22 20 37 45 54 43 53 28 32 17 41 11 19 4 27 33 -1 -26 -14 -36 -55 -18 -39 -50 -57 -29 -13 -8 -24 -38 -7 -2 -12 -9 -56 0
26 -14 -45 -10 -1 -38 0
7 39 49 27 50 34 47 31 51 21 10 40 43 45 2 9 44 5 55 1 8 3 23 22 11 12 37 15 36 41 53 -6 -58 -57 -42 -33 -48 -16 -54 -52 -24 -4 -28 -46 -25 -26 -38 -35 -29 -14 -30 -19 -56 -32 -18 0
19 6 56 15 18 40 12 42 13 52 43 20 3 30 10 34 50 55 22 21 53 47 35 37 36 9 -32 -31 -28 -45 -1 -7 -11 -49 -57 -4 -23 -24 -5 -38 -14 -29 -16 -27 -26 -39 -33 -2 -25 -48 -17 -51 -41 -58 -44 -46 0
54 47 12 29 39 18 10 -37 -21 -51 -42 0
10 13 7 3 -55 -18 -20 -33 -11 -47 -25 -9 -2 -46 -49 -15 0
55 26 14 24 37 56 16 57 48 49 2 18 52 20 13 58 29 5 38 54 17 45 41 -31 -50 -15 -33 -43 -8 -4 -10 -3 -42 -1 -11 -25 -47 -12 -36 -19 -32 -28 0
28 -20 0
5 24 44 40 29 12 4 2 56 35 19 17 32 41 18 6 31 26 34 52 42 30 38 53 -11 -7 -13 -55 -48 -15 -58 -22 -1 -25 -8 -27 -57 -3 -16 -20 -51 -49 -37 -45 0
46 32 40 24 -53 -22 -30 -36 -38 -25 0
7 43 49 21 2 56 1 11 17 24 52 -53 -46 -51 -40 -22 -26 -54 -47 -4 -38 -32 -10 -28 -14 -41 -16 0
51 21 -33 0
21 48 57 32 12 27 36 34 29 19 25 49 54 -7 -2 -52 -17 -42 -41 -22 -9 -18 -45 -24 -40 -15 -43 -33 -51 -13 0
9 10 40 17 7 30 44 12 39 -41 -27 -20 -2 -1 -5 -37 -6 -25 -18 0
13 9 11 57 -24 -6 -2 0
57 50 16 40 20 14 -1 -3 -7 -11 -31 -24 -56 -42 -51 0
35 18 24 48 56 -46 -51 -52 0
8 37 16 12 43 47 35 11 -28 -10 -36 -56 -7 -32 -40 0
25 13 32 53 42 29 16 8 57 52 41 56 35 26 11 20 1 6 22 44 48 30 50 15 54 36 -38 -18 -9 -10 -37 -27 -51 -24 -23 -19 -55 -7 -47 -12 -31 -21 -43 -14 -58 0
27 51 35 8 25 21 42 56 47 57 -19 -1 -40 -17 -12 0
37 34 53 10 5 14 41 28 35 9 4 44 32 25 58 29 54 -23 -2 -36 -27 -47 -26 -43 -3 -45 -48 -1 0
7 56 2 17 57 50 48 11 29 25 12 39 33 9 55 4 -22 -26 -6 -8 -14 -43 -46 -19 -31 -21 -28 -23 -40 -35 -58 -42 -27 -41 0
33 50 27 31 15 47 53 56 29 30 17 40 7 20 12 42 11 14 24 19 52 49 6 -57 -37 -39 -45 -28 -34 -22 -51 -8 -4 -26 -10 -1 -18 -41 -48 -9 -58 -55 -35 -54 -21 0
19 46 54 1 23 25 41 56 7 57 36 33 55 -58 -9 -21 -44 -5 -3 -49 -52 -10 -6 -51 -12 -31 -20 -26 -29 -15 -50 -47 -4 -40 -35 0
5 30 46 48 22 21 17 34 39 47 53 12 54 37 50 4 52 -58 -43 -57 -24 -42 -27 -51 -25 -28 0
8 45 33 47 6 43 2 24 15 34 28 30 12 53 54 22 32 51 17 5 -10 -56 -9 -52 -19 -18 -35 -13 -11 -37 -48 -27 -46 -26 -1 -38 -3 -25 -36 -40 -7 0
19 20 30 7 46 3 16 55 -37 -44 -4 -40 -35 -27 -12 -42 -39 -14 -48 -23 -8 -26 -52 -56 -9 0
2 13 27 37 23 58 41 50 28 51 9 46 24 53 44 14 4 45 5 47 43 15 31 34 17 11 26 52 7 42 -29 -56 -22 -19 -33 -35 -1 -38 -21 -3 -40 -10 -25 -54 -49 -30 -57 -8 -20 0
22 14 47 53 7 44 33 2 34 45 56 37 13 24 -49 -39 -5 -38 -42 -43 -3 -26 -28 -50 -8 0
56 15 52 -24 -18 -36 0
19 51 9 23 16 20 32 25 33 45 52 21 27 40 -4 -1 -35 -6 -30 -41 -54 -12 -11 -26 -50 -49 -53 -17 -57 -7 0
5 47 29 55 39 25 4 8 14 -54 -43 -52 -31 0
18 58 2 24 17 5 16 19 31 10 47 28 -37 -21 -22 -33 -25 -30 -35 -3 -43 -15 -12 -14 -4 -57 -34 -48 -20 -46 -13 0
41 32 -19 -10 -24 -31 -13 -47 0
50 6 1 -45 -57 0
2 57 16 1 33 43 47 44 -39 -10 -31 -52 -8 -56 0
22 39 26 3 7 46 18 17 48 15 58 5 52 -21 -34 -32 -36 -47 -12 -13 -44 -27 -19 -57 -28 -25 -11 0
11 55 38 22 39 -18 -42 -51 -10 -24 -43 -45 -40 -23 -26 -48 -37 -56 -35 -16 0
13 53 24 29 12 57 31 47 21 34 46 20 9 43 56 14 41 55 30 -27 -28 -26 -16 -10 -23 -48 -39 -44 -3 -45 -25 -33 -15 0
31 29 13 23 57 39 24 56 50 10 -12 -41 -36 -38 -53 -18 -44 -47 -25 -6 -17 -4 -54 -14 0
3 31 56 35 33 1 27 49 -9 -29 -18 -13 -16 -12 0
14 54 57 1 34 37 36 10 8 6 11 29 46 42 53 40 7 18 -48 -24 -39 -58 -12 -20 -22 -19 -41 -16 -35 0
28 -10 -8 -2 -56 -16 0
57 32 9 44 37 28 47 22 36 2 13 53 10 46 43 30 15 55 18 42 16 39 -4 -21 -1 -35 -25 -41 -26 -52 -38 -17 -33 -45 -12 -6 -48 -23 -5 -8 -7 -34 -11 -31 -54 -49 0
17 44 32 51 50 41 42 30 28 43 38 10 15 36 14 1 19 2 12 7 -40 -46 -6 -47 -4 -52 -9 -55 -53 -21 -39 -56 -29 -33 -3 -13 -18 -45 -31 -57 0
44 51 30 29 22 26 15 5 36 58 50 17 27 25 19 14 48 52 32 8 12 21 28 6 46 31 -9 -39 -35 -24 -1 -56 -47 -3 -53 -49 -57 -37 -54 -33 -41 -13 -16 -11 -34 0
44 48 42 53 36 16 8 34 17 30 24 58 47 -32 -15 -37 -51 -55 -12 -50 -56 -45 -41 -29 -1 -40 -21 -31 0
19 37 -53 -46 0
4 34 7 -31 -5 -18 0
40 1 7 20 15 52 14 38 30 49 -46 -8 -34 -41 -13 -45 -17 -25 -5 -23 -9 0
40 43 22 41 39 26 49 52 42 48 56 32 6 29 14 -37 -51 -1 -17 -10 -30 -13 -57 -46 0
40 29 45 8 48 32 6 24 16 12 43 15 30 11 34 22 55 27 42 57 46 3 50 13 14 19 35 7 -25 -26 -18 -49 -36 -33 -17 -37 -47 -38 -1 -41 -56 -28 -21 -2 -20 -23 0
31 37 33 32 40 50 7 11 47 46 36 16 23 30 51 26 49 6 57 25 54 -41 -8 -1 -58 -45 -22 -27 -18 -12 -20 -19 -2 -38 0
7 55 39 23 30 22 29 17 8 31 47 48 11 21 41 50 5 37 42 52 36 57 12 40 33 -45 -51 -20 -6 -26 -19 -56 -27 -24 -18 -4 -2 -15 -32 -38 -53 -46 -54 -58 -10 -34 -1 -44 -35 -13 -43 -3 -49 -14 -9 0
28 12 33 17 30 -2 0
9 14 52 32 23 44 6 1 12 50 3 28 21 58 5 33 43 8 25 11 41 -38 -47 -51 -18 -54 -35 -37 -26 -40 -48 -24 -17 -31 -13 -16 -56 -10 -57 -34 -53 -20 -27 -55 -39 -46 -45 -15 0
23 56 36 2 30 22 27 47 20 21 41 35 19 32 17 42 44 29 45 52 49 53 46 37 16 -26 -58 -43 -40 -55 -9 -31 -8 -33 -28 -38 -18 -24 -54 -5 -14 -13 -15 -4 0
18 40 3 47 36 26 20 29 44 17 -58 -34 -4 -19 0
4 40 -9 -41 0
28 39 45 2 10 7 35 41 21 52 51 25 26 36 31 14 48 6 3 13 29 5 27 30 -8 -22 -44 -16 -46 -15 -43 -23 -57 -40 -32 -49 -20 -55 -24 -18 -53 -58 -34 -11 -12 -19 -47 0
46 49 37 41 16 24 5 42 47 38 35 26 20 14 54 36 -27 -51 -57 -3 -2 -29 -17 -43 -22 -45 -50 -34 -7 -19 -40 -21 -18 -31 -58 0
34 53 25 -39 -36 -10 -54 -5 0
48 15 56 46 32 25 1 34 21 58 24 16 37 11 3 53 42 10 57 43 12 47 2 27 8 40 23 36 22 29 39 -20 -35 -28 -18 -41 -14 -5 -45 -17 -9 -13 -7 -19 -50 -51 -44 -38 -6 -4 0
16 33 17 25 36 51 12 35 37 53 58 38 52 23 42 34 9 4 18 2 43 50 48 -26 -22 -14 -19 -30 -5 -44 -13 -15 -31 -57 -24 -56 -3 -41 -47 -45 -27 -32 -28 -10 -46 0
51 33 26 40 34 47 42 1 9 31 35 58 37 54 49 17 52 8 36 5 10 27 46 45 32 4 29 -23 -22 -20 -3 -6 -24 -21 -57 -43 -13 -11 -41 -19 -16 -25 -14 -15 -44 -38 -56 -7 -12 -55 -50 -53 -39 0
15 1 2 42 41 36 8 49 27 51 10 40 32 6 53 13 26 57 37 35 14 30 21 38 9 19 3 4 29 -45 -11 -54 -7 -52 -55 -47 -25 -16 -58 -34 -56 -48 -44 -46 -20 -43 -23 -33 -50 -12 -18 -24 -31 -22 0
45 36 10 48 2 11 21 55 12 8 20 5 53 23 35 32 50 24 40 30 37 16 56 28 -13 -34 -1 -38 -42 -29 -25 -31 -4 -44 -15 -52 -46 -49 -14 -54 -6 -7 -19 -17 -33 -51 -9 -27 -22 -57 -39 -58 -26 -3 -41 -18 0
6 -32 0
31 2 47 9 48 55 53 33 43 11 35 15 3 57 24 38 5 52 39 58 16 46 -8 -20 -27 -25 -6 -22 -29 -4 -30 -50 -14 -18 -26 -36 -32 -41 -13 -23 -54 -10 -49 0
40 15 9 2 19 55 39 57 14 38 4 21 42 50 27 37 54 -23 -22 -16 -33 -1 -30 -29 -48 -28 -24 -18 -10 -53 -49 -56 -11 -6 -47 -58 0
56 50 11 53 6 44 36 9 37 29 40 15 19 -35 -30 -18 -47 -43 -38 -45 -13 0
13 6 25 9 30 -50 -51 -23 0
4 58 3 23 30 28 29 49 14 42 13 5 21 41 40 33 8 52 6 20 36 32 12 48 50 18 -10 -47 -34 -38 -22 -7 -26 -53 -57 -45 -37 -31 -55 -35 -11 -43 -15 -27 -56 -2 -9 -44 -25 -17 -39 -1 -54 -19 -24 -46 -51 0
20 21 18 -42 -52 -8 -30 -43 -13 0
27 0
56 26 24 -58 -14 -22 -29 0
6 22 1 19 16 51 43 34 49 45 26 23 53 28 21 56 35 55 47 42 4 11 25 15 -39 -20 -33 -54 -3 -44 -7 -24 -38 -12 -9 -17 -5 -57 -8 -37 -30 -48 -14 -10 -36 0
