c NeuroCodeBench 2.0 CNF formula with verdict Sat
p cnf 97 444
71 75 25 21 72 9 76 49 66 50 93 5 12 87 18 43 79 3 94 10 56 22 73 46 52 91 57 19 29 51 33 77 85 -86 -74 -35 -82 -13 -92 -47 -59 -69 -78 -81 -40 -64 -39 -88 -61 -31 -70 -17 -65 -27 -16 -26 -41 -36 -34 -97 -84 -89 -42 -53 -67 0
35 65 7 16 27 81 88 21 87 25 80 52 17 85 4 -20 -75 -9 -74 -66 -50 -2 -54 -42 -86 -94 -38 -28 -76 0
58 71 65 78 7 6 60 49 8 30 13 89 44 12 55 63 -11 -17 -34 -33 -18 -73 -51 -15 -69 -42 -64 -75 -3 -23 -93 -43 -5 -21 -38 -53 -36 -29 -80 -16 0
82 40 87 6 3 54 5 20 36 29 42 68 25 94 1 27 33 77 19 71 67 61 31 12 17 44 86 96 18 80 74 34 13 73 48 89 35 84 64 38 85 -55 -69 -47 -46 -30 -2 -57 -93 -9 -22 -50 -72 -59 -10 -83 -53 -37 -76 -58 -15 -52 -14 -4 -88 -81 -26 -95 -43 -49 -11 -79 -28 -24 -45 -56 -32 -21 -66 -41 -78 -70 -65 -7 -91 -51 -90 -63 -23 -39 0
30 8 76 22 33 18 97 41 93 75 15 85 27 92 24 90 79 35 1 51 9 28 13 77 78 56 52 44 11 47 60 10 2 45 59 32 94 20 14 43 50 86 96 26 39 40 36 21 66 63 49 67 54 25 -6 -69 -58 -65 -57 -7 -84 -87 -46 -12 -64 -5 -61 -89 -80 -23 -29 -68 -62 -91 -81 -70 -3 -17 -31 -95 -88 -73 -42 -71 -72 -37 -38 0
64 41 56 53 8 7 44 6 69 94 5 20 40 -16 -93 -11 -45 -12 -30 -68 -27 -31 0
46 3 21 20 86 29 74 14 32 19 63 47 41 42 51 44 65 97 37 61 16 4 38 52 66 9 31 12 2 60 18 33 92 39 15 1 76 17 56 79 80 62 84 50 -72 -82 -36 -59 -23 -13 -49 -22 -8 -6 -81 -78 -96 -85 -87 -71 -27 -57 -25 -43 -10 -89 -34 -30 -35 -45 -69 -90 -91 -67 -75 -54 -83 -70 -55 -40 -53 -11 -28 -94 -24 -77 -73 -58 -7 0
15 -28 -36 -43 -83 -41 -75 -6 -91 -5 0
6 1 55 57 70 76 39 41 33 60 78 52 81 84 90 62 67 59 23 21 73 83 87 37 3 27 10 92 94 19 15 17 44 79 9 14 74 4 47 24 36 97 -91 -82 -68 -45 -2 -49 -43 -18 -95 -61 -5 -88 -13 -89 -32 -85 -42 -50 -54 -64 -25 -93 -30 -38 -58 -69 -11 -8 -7 -80 -31 -29 -26 -66 -48 -40 -35 -51 -72 -34 0
74 50 78 56 83 52 21 96 17 59 23 42 22 51 33 16 87 54 9 44 77 37 11 24 2 70 45 13 89 10 -76 -29 -6 -5 -48 -25 -57 -65 -14 -88 -94 -15 -79 -36 -58 -72 -86 -12 -3 -84 -85 -7 -47 -26 -71 -90 -60 -66 -67 0
73 32 54 70 37 80 7 57 81 88 47 29 71 78 50 25 74 59 16 21 92 46 85 12 49 76 42 86 97 84 77 94 15 1 4 40 90 75 61 67 93 39 18 6 65 72 89 35 43 22 -24 -13 -60 -41 -33 -62 -8 -82 -66 -17 -34 -69 -19 -91 -28 -52 -48 -2 -96 -53 -20 -23 -79 -11 -36 -38 -5 -63 -68 -26 -9 -64 -56 -51 -83 -87 -27 -10 -30 -3 -14 0
83 53 1 89 65 18 28 24 95 17 22 71 61 2 16 76 8 97 5 3 39 64 46 92 67 21 30 -70 -36 -96 -11 -94 -73 -90 -58 -41 -48 -9 -72 -91 -45 -27 -44 -62 -68 -4 -47 -15 -80 -10 -25 -85 -14 -78 -20 -38 -74 -84 0
69 54 83 84 18 80 61 51 63 59 3 47 73 43 7 57 52 55 38 86 26 65 25 70 91 23 64 4 90 40 95 75 30 42 62 79 1 12 13 82 85 24 11 22 10 58 -14 -2 -87 -49 -35 -77 -60 -48 -21 -53 -92 -67 -15 -20 -17 -81 -28 -56 -33 -44 -89 -93 -6 -39 -31 -27 -29 -5 -45 -41 -68 -66 -50 -96 -8 -46 -94 -72 -88 -34 -19 -32 -71 -9 -78 -36 -76 -97 -37 0
47 44 48 90 61 34 73 65 5 30 10 40 62 77 -78 -50 -14 -2 -82 -57 -6 -76 -41 -70 -28 -21 0
19 63 78 25 74 89 82 28 93 11 51 26 1 6 56 12 22 37 32 65 54 3 68 49 70 14 8 41 35 71 96 72 53 30 69 31 88 39 38 75 77 7 4 20 47 81 21 66 23 -18 -15 -9 -79 -84 -55 -52 -85 -10 -80 -27 -24 -64 -36 -44 -91 -95 -16 -17 -50 -58 -62 -90 -48 -45 -94 -67 -46 -87 -57 -60 -86 -73 -29 -76 -42 -33 -92 -83 -40 -5 -34 -43 -13 0
45 72 12 48 26 8 31 60 61 57 58 87 49 52 28 22 -62 -3 -40 -77 -89 -4 -90 -69 -29 -13 -65 -6 -88 -85 -2 -41 -86 -54 -47 -56 -75 -53 0
74 85 94 27 39 52 47 3 80 41 7 15 19 50 26 78 -73 -22 -68 -18 -66 -79 -49 -21 -64 -13 -37 -59 -30 -31 -71 -81 0
24 81 96 85 74 -93 0
2 41 10 80 90 82 16 15 77 37 19 48 91 75 23 9 76 6 86 -84 -96 -8 -81 -44 -57 -79 -3 -61 -52 -24 -89 -73 -64 -93 -40 -22 -28 -66 -85 -71 -88 -62 0
85 90 59 51 30 43 94 10 39 93 26 28 42 92 23 18 86 2 36 55 67 83 57 -48 -79 -88 -8 -95 -80 -19 -72 -15 -81 -44 -16 -76 -13 -24 -32 -45 -63 -37 -41 -73 -91 -64 0
23 19 46 69 12 92 24 15 39 51 57 85 25 38 49 6 67 93 11 79 94 18 -50 -63 -81 -32 -3 -30 -61 -72 -73 -68 -82 -1 -34 -90 -71 -47 -35 -43 -7 -76 -17 -9 -77 -26 -54 0
64 29 57 56 59 65 51 24 3 25 18 94 83 54 85 39 1 43 38 68 53 89 27 78 50 19 48 20 87 93 55 91 82 21 76 32 97 11 26 5 80 2 86 35 46 -6 -31 -41 -62 -34 -75 -96 -49 -14 -15 -44 -17 -58 -22 -90 -66 -95 -45 -8 -92 -37 -28 -33 -63 -69 -30 -7 -4 -52 -10 -36 -71 -81 -73 -84 -72 -61 -12 -77 -67 -42 -60 -16 -9 0
82 90 68 -14 -37 -89 -54 -25 -80 -83 0
71 55 70 64 26 59 6 35 61 24 12 60 19 39 66 17 43 22 29 92 72 8 31 41 95 47 89 58 53 88 86 87 33 34 77 44 -50 -81 -48 -69 -4 -65 -32 -37 -15 -9 -5 -76 -27 -78 -49 -62 -74 -90 -52 -84 -83 -3 -82 -51 -75 -20 -85 -21 -36 -54 -14 -18 -94 -25 -16 -57 -68 -2 -79 -28 -45 -56 -10 -7 -93 0
49 13 80 9 43 2 45 22 63 81 41 70 67 3 33 64 73 47 56 32 71 35 48 79 90 6 91 68 55 75 83 24 1 59 -93 -18 -54 -87 -8 -53 -50 -74 -82 -38 -85 -37 -60 -94 -86 -36 -10 -77 -58 -89 -23 -65 -69 -5 -25 -95 -66 -27 -28 -40 -76 -11 -29 -12 0
1 55 90 50 76 62 33 35 57 86 27 41 61 83 15 52 96 49 84 88 34 9 51 77 63 43 46 95 -71 -70 -14 -75 -11 -29 -54 -17 -64 -31 -92 -36 -10 -24 -6 -47 -69 -68 -4 -26 -28 -48 -89 -91 -45 -20 -25 -32 -38 -80 -56 -78 -3 -23 -93 0
44 -35 -23 -14 0
37 69 27 94 -73 -54 0
70 76 81 51 41 56 18 49 21 45 86 67 57 93 84 40 7 59 78 66 65 2 29 25 20 58 34 72 92 96 14 42 60 55 80 -87 -83 -19 -85 -26 -9 -53 -52 -68 -23 -63 -13 -64 -28 -27 -12 -38 -61 -48 -5 -17 -82 -32 -33 -39 -46 -35 -15 -6 -37 -50 0
73 92 50 19 68 83 29 62 2 41 78 33 55 6 15 13 71 30 16 1 18 70 21 96 40 82 35 -95 -66 -52 -42 -63 -54 -87 -48 -67 -89 -7 -90 -9 -93 -43 -59 -64 -11 -56 -77 -72 -80 -4 -36 -81 -91 -8 -60 -58 -85 0
75 80 30 77 27 92 50 47 70 10 61 20 73 17 85 12 42 5 88 72 37 4 67 8 13 7 11 21 79 19 28 -82 -24 -60 -83 -35 -86 -18 -22 -49 -6 -64 -91 -63 -1 -90 -48 -15 -40 -54 -52 -36 -44 -32 -94 -26 -51 0
38 96 22 9 54 87 1 25 67 71 39 17 21 58 40 51 37 31 29 18 27 41 15 56 72 89 80 65 36 93 94 46 23 62 85 30 50 42 97 28 6 4 70 7 82 60 3 -66 -33 -20 -61 -52 -43 -68 -90 -32 -45 -81 -12 -91 -74 -83 -57 -11 -8 -14 -34 -77 -69 -79 -44 -95 -75 -19 -84 -86 -78 -64 -13 -49 -73 -26 -48 -5 -35 -55 -16 -92 -2 -63 -10 -88 -24 -76 -53 -59 0
58 55 8 48 52 82 23 2 9 -46 -62 -7 -10 -17 -56 -28 -78 -65 -33 -61 -41 0
69 61 70 83 -72 -66 -87 0
50 71 29 66 77 84 37 -36 -75 -52 -96 -27 -58 -7 -93 -90 -39 0
15 69 10 39 81 45 49 55 13 46 37 31 32 82 75 -33 -21 -62 -93 -2 -88 -9 -52 -65 -74 -40 0
74 20 15 73 7 81 80 48 5 82 4 22 46 87 26 66 47 41 40 61 -76 -51 -64 -45 -59 -10 -27 -21 -62 -78 -18 -42 -38 -65 -36 -12 -75 -1 -96 -3 -30 -57 -63 -23 -39 -72 -60 0
86 26 0
88 15 86 24 51 72 54 44 9 27 26 53 12 1 91 42 85 23 21 6 17 38 25 71 65 67 19 3 40 45 -33 -59 -46 -62 -41 -68 -70 -61 -93 -77 -11 -90 -78 -5 -4 -81 -55 -73 -82 -97 -10 -48 -18 -47 -89 -94 -37 -87 -58 -20 0
9 21 55 79 44 31 91 68 81 7 25 82 29 4 26 75 83 54 70 67 16 69 80 42 89 74 73 87 5 -90 -92 -66 -38 -88 -39 -58 -61 -10 -45 -33 -57 -49 -40 -51 -65 -72 -41 -14 -35 -22 -30 -15 -17 -77 -47 0
24 16 61 70 46 2 27 7 23 31 18 53 -12 -49 -63 -43 -26 -13 -20 -14 -6 -90 0
10 11 60 52 32 48 79 92 74 76 33 89 24 44 59 4 15 61 46 97 22 8 3 87 69 51 81 26 49 65 85 25 78 6 54 19 27 12 96 20 93 50 42 88 30 17 -47 -21 -84 -18 -2 -53 -63 -16 -36 -70 -23 -7 -68 -91 -40 -37 -72 -28 -41 -45 -90 -55 -38 -34 -31 -94 -13 -86 -80 -77 -57 -95 -14 -62 -64 -43 -83 -9 -75 -73 -29 -67 -71 0
23 20 52 57 2 84 85 89 38 96 3 34 67 68 -47 -74 -86 -51 -35 -49 -53 -25 -37 -12 -40 -94 -17 0
27 88 64 33 78 70 57 50 22 19 20 85 94 30 65 74 92 11 79 90 10 -2 -96 -46 -63 -47 -86 -44 -24 -66 -58 -21 -87 -14 0
16 80 52 79 65 11 32 33 12 76 82 62 51 78 44 88 69 49 74 -17 -71 -28 -10 -60 -83 -48 -61 -94 -55 -40 -2 -38 -46 -22 -20 -64 0
65 10 71 69 76 8 1 42 7 49 72 17 59 9 80 22 70 26 62 61 30 60 48 74 82 84 97 -75 -93 -21 -32 -2 -79 -14 -96 -86 -23 -55 -34 -78 -18 -68 -52 -31 -33 -16 -46 -3 -11 -4 -6 -47 -50 -20 -38 -66 0
96 90 46 57 34 4 77 75 22 55 69 31 65 12 64 21 71 76 3 29 -59 -85 -17 -92 -30 -6 -81 -54 -52 -97 -47 -23 -83 -40 -68 -8 -50 -51 -39 -38 -41 -1 -56 -84 0
66 33 30 8 90 97 4 20 77 53 74 3 25 23 17 11 2 40 57 52 54 93 21 63 83 29 84 91 37 76 87 -75 -85 -38 -95 -64 -35 -32 -73 -72 -58 -24 -61 -56 -70 -45 -28 -36 -47 -81 -16 -96 -51 -31 -80 -68 -5 -13 -48 -50 -14 -42 0
12 51 68 35 3 39 73 7 22 44 38 53 79 15 77 70 1 67 10 59 17 66 83 6 72 97 46 2 23 78 95 58 -19 -9 -28 -65 -86 -45 -55 -63 -94 -82 -64 -4 -30 -18 -57 -75 -69 -33 -36 -26 -54 -32 -14 -88 -92 -29 -48 -13 -24 -47 -80 -49 -8 0
61 41 96 27 51 71 20 15 82 32 57 13 93 70 94 28 54 26 24 5 80 18 17 36 90 8 65 -45 -68 -23 -46 -97 -9 -16 -59 -62 -78 -74 -7 -6 -89 -64 -4 -76 -95 -77 -84 -52 -72 -31 -37 -12 -91 -49 -22 -44 -38 -50 -58 0
57 24 37 52 66 35 59 11 88 8 3 47 60 58 -15 -18 -89 -82 -68 -84 -7 -53 -90 0
29 57 19 16 75 43 24 91 67 83 -53 -62 -80 -39 -35 -34 -90 -4 -12 -72 -96 0
37 26 55 10 15 83 19 35 74 64 67 44 88 5 97 96 87 50 57 41 95 -31 -51 -2 -32 -39 -65 -62 -76 -58 -84 -36 -11 -27 -66 -91 -8 -82 -16 -86 -18 -3 0
61 84 66 36 33 1 5 31 45 22 15 81 58 88 23 51 27 20 78 4 87 17 83 92 -69 -71 -70 -95 -49 -42 -48 -80 -56 -64 -7 -37 -76 -53 -68 -6 -2 -9 -25 0
45 80 96 18 75 54 69 61 19 78 2 26 39 37 21 59 16 12 49 46 65 88 14 38 -86 -89 -53 -23 -51 -87 -33 -25 -36 -93 -67 -57 -9 -15 -13 -11 -84 -50 -95 -73 -83 -97 -94 0
52 97 18 23 58 7 48 5 16 71 87 91 45 1 21 31 92 55 70 42 84 20 -53 -26 -73 -9 -36 -89 -88 -69 -33 -51 -19 -41 -17 -76 -75 -3 0
33 95 19 93 46 15 70 51 58 39 63 -30 -89 -48 -34 0
87 64 76 35 10 32 5 83 85 74 33 36 40 88 25 96 9 30 67 37 28 48 58 91 69 1 47 97 63 14 51 7 71 78 77 16 26 57 59 29 54 72 80 49 21 66 84 20 19 -41 -43 -79 -46 -24 -42 -89 -11 -92 -60 -73 -6 -17 -90 -93 -15 -52 -27 -13 -56 -2 -23 -50 -94 -31 -70 -82 -44 -38 -4 -81 -68 -75 -39 -95 -86 -53 -62 -8 -65 -61 0
78 72 86 71 51 88 31 -30 -60 -36 -46 -93 -37 -10 -19 -17 0
2 70 31 78 23 28 36 80 47 64 3 44 7 53 5 6 39 14 21 68 69 56 13 73 16 96 71 -63 -92 -67 -82 -74 -61 -38 -51 -37 -94 -22 -57 -49 -10 -60 -35 -25 -91 -90 -34 -66 -97 -88 -85 -33 -50 -40 -58 -42 -19 -59 -86 0
50 55 32 72 54 81 70 44 26 67 31 14 60 34 83 2 5 43 66 52 8 62 11 95 33 12 59 49 -27 -30 -41 -7 -3 -48 -10 -65 -94 -58 -61 -76 -40 -6 -73 -90 -9 -97 -47 -20 -35 -1 -25 -53 -82 -45 0
30 4 10 2 21 34 3 50 57 51 16 77 48 90 43 11 -38 -15 -87 -78 -25 -29 -8 -13 -20 -82 -49 -62 -46 -55 -88 -31 -93 -44 -45 -53 -96 -27 -91 -83 -23 0
47 81 12 38 28 15 19 2 -14 -74 -45 -63 -13 -25 0
26 5 4 66 83 75 36 85 43 22 65 63 39 71 19 81 31 62 11 24 96 89 50 37 76 97 84 21 95 17 70 9 32 10 57 -6 -52 -91 -54 -1 -20 -46 -77 -7 -34 -47 -90 -30 -8 -67 -23 -40 -51 -29 -60 -38 -68 -44 -55 -82 -2 -59 -14 -35 -28 -87 -15 -74 -73 -48 -56 -33 -61 -69 -25 0
6 95 72 54 85 40 65 25 29 34 90 94 9 2 3 14 60 48 5 -42 -89 -33 -71 -88 -57 -75 -91 -87 -61 -53 -52 -73 -63 -15 -78 0
21 68 39 94 30 6 88 65 74 36 77 40 42 76 69 16 73 96 11 70 51 87 78 31 2 -13 -48 -8 -53 -29 -56 -62 -23 -92 -81 -17 -20 -58 -28 -41 -50 -95 -26 -80 -60 0
81 36 66 45 57 41 70 1 18 11 10 46 13 -89 -5 -19 -64 -79 -39 -47 -69 -4 -22 -77 -20 -8 -80 0
85 93 63 21 25 81 33 35 36 57 80 46 27 20 78 42 64 16 8 71 74 59 97 29 -7 -13 -75 -88 -43 -91 -11 -51 -31 -47 -58 -69 -67 -15 -2 -79 -34 -70 -73 -65 -12 0
54 83 56 66 64 57 51 93 30 78 17 14 96 52 46 76 58 67 68 43 8 3 1 34 81 70 10 91 36 82 23 45 16 22 87 86 -73 -94 -55 -61 -2 -21 -38 -79 -18 -20 -50 -7 -15 -88 -72 -59 -71 -60 -33 -25 -89 -19 -12 -63 -95 -37 -90 -53 -48 -42 -49 -26 -29 -39 -44 -6 0
7 38 16 10 68 28 82 12 62 53 97 39 41 73 2 5 22 13 30 31 96 48 -25 -42 -40 -54 -65 -58 -36 -81 -89 -18 -15 -90 -83 -66 -32 -45 -35 -75 -4 -64 -43 -51 -11 -21 -8 -52 -29 -74 -76 -60 0
58 36 94 97 62 32 9 44 51 15 8 95 88 87 63 67 90 10 96 37 73 60 43 22 53 46 57 45 -79 -27 -89 -91 -52 -6 -72 -80 -13 -23 -35 -25 -5 -81 -50 -77 -47 -93 -28 -24 -54 -11 -59 -41 -76 -82 -75 -66 -29 -38 -86 -30 -56 -83 -71 -7 -92 -12 -21 0
54 38 70 59 63 21 83 16 40 30 26 92 81 45 19 89 64 6 11 82 13 7 36 68 74 51 34 60 24 94 71 67 69 65 76 75 3 -15 -28 -8 -77 -10 -62 -87 -78 -43 -41 -56 -32 -35 -44 -42 -88 -57 -25 -12 -5 -91 -29 -17 -37 -22 -80 -23 -49 -33 -18 -46 -73 -39 -97 -93 -31 -2 0
3 22 88 41 23 28 16 96 58 21 14 94 5 60 24 84 1 80 73 27 56 33 71 53 59 39 25 43 11 29 97 69 9 70 2 32 78 82 31 47 86 89 52 42 48 92 -13 -30 -65 -95 -40 -18 -37 -87 -49 -75 -38 -68 -67 -76 -83 -17 -77 -15 -44 -51 -81 -20 -79 -72 -90 -10 -4 -55 -6 -34 -35 -91 -57 -36 -54 -26 -45 -12 -93 -7 -66 -19 -62 -74 -46 -85 -61 0
63 12 44 57 18 67 75 35 58 91 96 72 27 9 78 59 28 83 77 76 2 31 94 97 25 37 10 29 42 56 4 13 -22 -86 -15 -88 -73 -6 -5 -21 -23 -53 -36 -64 -33 -7 -80 -38 -8 -50 -1 -47 -19 -24 -70 -90 -48 -34 -14 -92 -69 -61 -65 -95 -81 -79 -20 -82 -85 -84 -87 0
15 58 78 19 13 12 71 9 88 27 4 45 75 37 64 60 85 63 84 31 81 95 1 14 -30 -65 -2 -68 -18 -51 -52 -8 -55 -53 -43 -11 -77 0
60 17 4 3 92 96 14 13 85 34 27 5 44 77 87 88 97 -11 -91 -72 -39 -95 -32 -54 -28 -15 -70 -84 -22 0
23 70 60 40 76 42 78 37 83 88 81 6 32 7 34 11 43 57 82 4 3 89 24 41 80 48 93 35 58 62 -65 -30 -67 -28 -12 -27 -16 -44 -92 -47 -15 -85 -52 -14 -95 -86 -68 -75 -17 -33 -20 -91 -90 -10 -38 -19 -94 -72 -49 -54 -51 -22 0
94 93 70 61 92 56 62 17 22 55 34 95 31 81 36 43 19 30 12 58 97 -59 -1 -80 -2 -28 -15 -20 -90 -65 -88 -83 -50 -78 -14 -5 -71 -44 -7 -35 -6 -32 0
90 66 23 72 85 56 63 14 58 37 33 6 78 65 22 20 18 13 43 31 67 44 28 49 95 94 5 62 47 68 9 82 29 36 52 61 45 10 8 19 50 53 55 42 25 74 1 93 87 12 73 60 11 -75 -70 -16 -59 -76 -89 -86 -96 -26 -83 -97 -54 -34 -51 -57 -35 -64 -77 -91 -15 -48 -80 -7 -40 -88 -4 -71 -2 -81 -92 -84 -38 -32 -79 -69 -17 -3 -46 -39 -21 -24 0
64 95 97 71 3 15 79 40 59 65 24 81 27 -25 -78 -68 -90 -94 -53 -14 -44 -91 -54 0
69 16 65 -54 -97 0
80 11 47 64 8 76 67 32 86 35 75 21 20 3 16 83 6 44 59 71 24 92 61 -55 -13 -43 -19 -53 -70 -82 -81 -88 -89 -12 -46 -65 -33 -18 -96 -94 -63 -25 -23 -15 -49 -39 -73 -10 0
76 41 15 32 56 16 63 75 43 68 97 89 -83 -50 -49 -70 -51 -74 -10 -86 -92 -58 -94 -59 -57 0
64 2 47 54 94 22 49 88 6 85 34 17 50 20 65 35 86 25 -76 -8 -7 -56 -27 -12 -45 -96 -40 -62 -29 -52 -71 -11 -72 -31 -9 -68 -66 -78 -38 -84 -36 -55 -95 -51 -57 -87 -23 -39 -10 -42 -33 -53 -32 -82 -73 -46 -81 -90 -69 0
47 38 56 24 62 81 73 8 84 15 20 11 48 87 97 60 13 -65 -80 -36 -28 -34 -51 -42 -26 -50 -94 -91 -46 -16 -40 -92 -68 -5 -59 -19 -71 -89 -10 -69 -49 0
88 13 81 69 18 72 80 59 83 79 31 8 30 16 47 75 21 40 91 23 46 48 71 17 35 1 33 -3 -52 -42 -89 -53 -95 -9 -11 -24 -86 -56 -96 -84 -7 -43 -12 -67 -20 -2 -54 -70 -14 -76 -73 -74 -22 -58 -5 -32 -15 -49 -36 0
31 58 88 -26 -74 0
83 18 96 52 61 64 15 2 48 79 7 67 74 10 75 20 8 90 1 70 63 72 50 17 65 35 26 33 78 94 49 71 27 91 56 46 55 60 87 68 31 82 89 84 23 97 25 81 93 -12 -57 -22 -36 -19 -11 -58 -42 -13 -73 -30 -88 -51 -6 -69 -32 -3 -34 -37 -62 -45 -95 -39 -5 -54 -21 -24 -92 -38 -44 -9 -76 -86 -28 -14 -43 -85 -16 -80 -4 -66 -59 -41 -40 -47 -29 -53 0
68 2 46 67 79 39 74 9 92 96 85 27 83 66 35 89 95 77 7 25 12 61 94 38 97 26 34 53 80 37 13 -56 -71 -82 -86 -48 -16 -10 -57 -84 -28 -19 -51 -20 -47 -1 -63 -23 -65 -30 -14 -64 -60 -42 -62 -29 -58 -45 -75 -24 -22 0
48 25 44 79 38 90 54 66 30 78 68 10 6 69 86 55 59 53 29 33 32 84 97 40 3 36 95 4 51 72 74 12 85 87 5 -24 -39 -58 -19 -46 -61 -83 -73 -22 -71 -94 -7 -23 -18 -45 -91 -20 -62 -42 -64 -65 -60 -31 -14 -67 -49 -28 -13 -80 -37 -81 -9 -96 -16 -52 -17 0
9 59 -35 -38 -49 -25 -87 0
52 6 75 -87 -41 -39 -90 -5 0
90 53 30 21 91 47 2 14 26 54 22 92 44 43 63 79 64 66 78 74 33 59 39 36 31 94 25 15 38 89 11 42 37 72 76 62 41 27 5 -86 -34 -61 -83 -69 -48 -58 -80 -60 -87 -40 -55 -96 -95 -16 -10 -17 -1 -24 -23 -32 -4 -28 -56 -52 -29 -93 -81 -85 -71 0
41 72 17 90 13 80 8 44 92 64 22 42 49 53 68 71 12 25 81 96 87 55 3 50 88 26 86 69 10 65 21 15 91 38 57 5 77 -36 -30 -66 -61 -94 -47 -40 -32 -1 -62 -58 -27 -73 -20 -97 -89 -60 -45 -28 -9 -75 -59 -19 -83 -85 -18 -4 -14 -33 -29 -74 -35 -43 0
93 81 42 49 55 32 76 78 97 11 51 23 34 -56 -70 -48 -44 -21 -1 0
37 69 76 44 17 73 48 90 32 39 49 95 20 -2 -27 -40 -88 -70 -5 -77 -25 -74 -28 -14 -89 -54 -81 -50 -6 -21 -41 -22 -91 -62 -47 -64 -36 -18 0
46 10 84 14 4 12 54 49 27 38 9 95 69 60 48 20 15 78 -3 -28 -93 -41 -80 -94 -56 -85 -7 -30 -22 -71 -25 -13 0
86 52 42 71 35 -94 -18 -48 -75 -59 -72 0
54 50 20 45 -61 -63 -51 -97 -5 0
7 66 90 34 38 81 44 60 85 17 23 45 53 50 67 43 64 31 46 26 58 27 75 78 15 93 84 57 42 68 87 -95 -59 -25 -94 -24 -39 -2 -6 -14 -72 -40 -62 -8 -92 -56 -77 -33 -52 -3 -5 -48 -71 -74 -69 -49 -51 -18 -80 -70 -12 -35 -65 -55 -37 -83 0
32 4 41 3 75 17 79 23 33 73 49 88 9 43 19 54 47 34 48 -27 -64 -97 -62 -56 -76 -94 -55 -67 0
28 8 75 4 86 66 27 2 95 20 24 74 17 19 51 65 54 6 30 80 50 15 12 81 57 44 13 92 14 97 10 85 77 48 76 42 60 56 -22 -70 -41 -53 -7 -9 -3 -11 -35 -71 -1 -84 -43 -89 -62 -52 -33 -87 -79 -16 -63 -46 -26 -37 -38 -78 -34 -5 -45 -18 -61 -90 -96 -21 -25 -68 -64 -67 -39 -72 -58 -31 0
1 77 84 2 63 26 48 44 74 43 64 87 10 -3 -52 -60 -18 -59 -80 -97 -76 -8 -42 -6 -72 -93 -33 0
55 85 88 22 95 63 77 5 59 39 41 53 25 21 97 45 93 83 52 33 57 11 28 96 47 79 16 34 69 24 60 1 94 18 81 9 73 42 29 48 90 91 70 2 -44 -20 -6 -43 -50 -38 -19 -65 -74 -8 -68 -84 -17 -32 -89 -61 -51 -86 -27 -35 -76 -58 -13 -80 -26 -23 -78 -56 -82 -37 -75 -10 -46 -36 -49 -72 -14 -71 -62 -64 -66 -92 -12 0
77 7 53 79 28 42 5 9 14 34 90 85 30 29 49 52 6 89 35 22 69 4 88 75 59 8 61 45 57 25 81 80 76 48 24 11 18 83 31 58 73 97 65 37 60 55 72 -13 -62 -44 -94 -93 -74 -82 -33 -36 -43 -96 -71 -95 -50 -54 -15 -3 -20 -39 -1 -38 -21 -51 -64 -92 -12 -56 -23 -32 -87 -63 -47 0
2 78 52 -29 0
30 57 14 89 96 93 88 86 47 29 26 2 75 94 17 59 21 7 42 49 35 36 46 64 95 13 50 67 6 48 55 34 60 -28 -1 -53 -33 -82 -23 -37 -16 -72 -19 -18 -56 -22 -97 -27 -10 -31 -70 -92 -80 -87 -32 -91 -63 -58 -79 -24 -4 -77 -66 -39 -5 -25 -76 -85 -38 -81 -62 -12 -51 -8 -9 -73 -61 -43 -45 -90 -11 -54 -69 -40 -15 -65 -84 -78 -3 -83 -68 0
65 87 64 60 49 9 86 42 83 77 67 69 34 16 3 74 32 96 70 41 24 18 54 21 -55 -50 -81 -6 -4 -10 -97 -51 -75 -13 -88 -31 -1 -63 -28 -48 -59 -92 -73 -22 -35 -80 -45 -71 0
58 4 75 -80 0
87 81 67 95 49 78 39 -12 -77 -58 -48 -80 -96 -21 -53 -36 -38 0
69 28 27 24 -29 -93 -41 -89 -79 -82 -85 -40 -32 -16 0
13 5 33 1 38 37 74 55 72 65 62 67 11 -34 -43 -54 -50 -71 -20 -89 -85 -68 -94 -3 -88 -25 -22 -44 -60 0
31 66 73 17 44 81 45 24 35 86 -40 -27 -80 -87 -5 -78 -89 -71 -51 -30 -22 -13 0
19 34 79 96 82 29 46 9 13 39 44 76 70 33 45 51 5 35 97 61 -28 -20 -3 -12 -69 -81 -27 -83 -22 -15 -49 -53 -10 -38 -23 -91 -7 -60 -68 -73 -6 -87 0
60 83 33 9 23 30 69 6 65 48 24 18 31 85 95 39 46 89 42 1 27 91 38 93 37 94 3 90 15 -49 -56 -55 -73 -28 -88 -41 -71 -82 -32 -8 -4 -78 -44 -40 -12 -20 -76 -19 -58 -96 -62 -64 -45 -59 -54 -63 -79 -52 -47 -29 -25 -68 -70 -66 -10 -75 -16 -21 -36 -13 -22 0
15 48 18 60 92 14 33 39 11 23 35 31 96 37 43 77 78 5 70 86 42 25 8 27 20 36 87 76 -26 -1 -19 -34 -71 -44 -41 -88 -53 -73 -28 -49 -68 -47 -84 -59 -21 -3 0
21 40 59 47 42 60 44 70 32 71 35 85 5 80 54 89 58 68 84 90 50 93 17 1 -3 -6 -69 -82 -30 -83 -24 -74 -66 -34 -27 -26 -46 -13 -53 -91 -73 -81 -31 -49 -51 -67 -97 -55 -2 -64 -25 -18 0
84 6 15 32 55 21 35 -40 -93 -39 -49 -65 -29 -76 0
83 1 29 78 69 68 18 64 96 39 -15 -27 -12 -88 -21 -81 -46 -4 -26 -60 -55 -54 -2 -82 -45 -91 -13 -89 -57 -7 -51 -52 -59 -8 -34 0
71 17 90 40 11 55 80 91 76 15 77 79 -82 -78 -73 -58 -86 -75 -68 -43 -53 -33 -67 -1 -6 -92 0
67 89 87 2 91 14 62 12 37 59 70 76 28 84 63 79 -21 -55 -17 -77 -61 -33 -75 -54 -85 -45 -39 -6 -80 -11 -97 -32 -96 0
26 44 64 53 80 72 52 76 86 62 41 88 -1 -34 -67 -66 -95 -79 0
13 6 27 18 37 64 34 44 80 90 38 87 -55 -96 -57 -20 -52 -16 -2 -9 -85 -56 -77 0
34 47 43 72 56 91 19 25 36 -95 -81 -12 -4 -9 -28 -85 -96 0
47 34 65 19 88 22 38 15 82 91 4 63 94 35 11 89 74 56 72 68 51 54 29 41 39 37 79 14 6 36 -8 -17 -97 -96 -83 -20 -1 -85 -87 -66 -30 -24 -93 -7 -13 -92 -86 -76 -52 -70 -48 -57 -73 -90 -25 -9 -84 -23 -61 -33 -75 -81 -40 0
58 6 5 21 13 47 65 73 2 29 68 76 22 61 -15 -71 -30 -45 -70 -85 -80 -44 -27 -40 -67 -95 -33 -41 -23 -87 -19 -36 0
6 40 64 71 94 90 23 44 19 93 8 1 84 24 86 22 68 32 57 9 81 59 21 48 77 -43 -42 -67 -20 -11 -70 -80 -15 -50 -3 -95 -69 -31 -88 -27 -72 -85 -92 -82 -61 -10 -62 0
27 13 37 57 40 19 7 76 69 12 35 78 75 14 -31 -10 -58 -81 -79 -22 -87 -95 -34 -93 -52 -1 -85 -38 -63 -82 0
12 64 76 61 81 27 3 63 48 87 46 37 47 59 39 34 53 36 18 24 9 30 43 82 55 7 75 80 -90 -68 -97 -69 -94 -21 -88 -89 -91 -79 -4 -25 -38 -26 -42 -8 -19 -29 -6 -1 -65 0
4 19 40 24 30 86 14 61 77 22 52 27 8 89 42 69 13 6 71 83 53 96 51 73 85 35 56 3 10 47 16 -39 -1 -64 -91 -80 -93 -32 -5 -82 -81 -34 -72 -28 -66 -9 -48 -94 -38 -37 -57 -54 -79 -92 0
36 9 69 5 79 55 38 94 82 26 46 88 -56 -93 -75 -41 -97 -7 -37 -11 -1 -95 -59 -80 -6 0
68 80 88 96 19 -76 -18 -29 -9 -64 -95 -71 -63 -45 -33 0
15 69 45 37 -14 -42 -94 -83 -33 0
6 9 73 32 83 85 49 26 19 78 33 3 88 93 8 17 18 41 58 28 7 91 71 31 30 92 87 -29 -34 -11 -48 -77 -69 -68 -94 -89 -20 -25 -82 -51 -59 -21 -5 -37 -23 -67 -55 -61 -22 -79 -56 -36 -14 -97 -62 -15 -12 -81 -27 -65 0
44 3 27 72 81 4 49 88 15 74 54 73 11 50 64 86 97 10 70 58 89 79 55 2 38 -90 -36 -42 -32 -60 -21 -17 -84 -45 -12 -20 -24 -62 -68 -46 -57 -67 -85 0
46 26 58 73 40 81 92 93 63 57 41 33 45 3 22 21 39 88 8 69 67 30 16 47 54 13 61 77 72 86 60 2 78 49 18 32 82 80 56 55 5 51 15 1 6 31 44 12 -48 -76 -27 -9 -79 -85 -89 -4 -36 -43 -71 -66 -53 -95 -83 -28 -64 -23 -19 -7 -96 -62 -38 -34 -25 -20 -17 -87 -42 -10 -94 -50 -90 -97 -59 -68 -91 -29 -24 -75 -70 -84 -14 -11 -52 -74 -37 -65 0
68 95 60 91 94 59 27 49 38 15 8 96 26 35 1 22 11 42 2 78 40 21 5 23 14 82 58 66 34 61 54 17 18 65 16 67 73 -29 -92 -25 -10 -87 -43 -86 -45 -88 -85 -53 -50 -4 -75 -93 -37 -30 -56 -20 -62 -97 -57 -39 -6 -51 -80 -19 -9 -44 -83 -69 -46 -24 -36 -79 0
82 2 95 36 13 1 74 25 23 18 85 88 64 83 69 24 75 59 56 68 71 7 27 51 87 26 14 79 77 94 31 8 37 16 80 -65 -46 -28 -32 -39 -10 -93 -5 -30 -76 -9 -96 -55 -6 -17 -21 -40 -33 -4 -38 -45 -62 -81 -49 -66 -3 -97 -44 -52 -35 -53 -91 -34 -42 -73 0
47 69 -35 -59 0
60 5 68 79 87 73 46 32 38 45 6 96 23 74 26 70 90 61 16 -83 -67 -91 -89 -65 -64 -44 -17 -78 -50 -20 -10 -7 -51 -52 -1 -8 -39 -33 -14 -21 -40 -54 0
88 92 13 80 29 37 16 78 -76 -69 -15 -22 0
17 56 62 11 32 13 26 18 5 44 48 79 73 2 58 86 95 6 27 71 43 8 69 39 68 77 21 84 45 91 4 10 25 81 50 85 35 46 54 63 47 7 -36 -64 -66 -70 -16 -22 -97 -9 -65 -75 -29 -23 -41 -33 -1 -14 -12 -92 -40 -30 -19 -15 -89 -55 -80 -51 -34 -24 -49 -83 -88 -78 -20 -53 -93 -94 -37 -3 -90 -82 -67 -59 -31 -52 -72 -57 -38 -28 -87 -96 -74 0
58 47 27 39 22 72 23 90 59 40 53 20 97 85 51 21 12 32 62 80 36 69 75 50 42 48 71 33 61 17 13 56 66 35 41 89 10 82 25 15 30 95 96 86 38 18 55 88 -74 -76 -49 -67 -77 -73 -93 -83 -52 -6 -19 -1 -91 -43 -11 -64 -94 -29 -44 -8 -65 -24 -31 -70 -45 -84 -46 -16 -3 -34 -28 -63 -2 -37 -87 -81 -7 -4 -26 -92 -79 -78 -57 -14 -5 -54 -60 -9 0
77 53 96 40 57 70 87 4 12 46 21 35 81 30 78 80 66 8 34 51 83 50 18 3 54 71 91 6 -28 -89 -64 -42 -37 -15 -58 -13 -56 -92 -75 -82 -27 -29 -67 -65 -16 -84 -22 -59 -5 -11 -61 -26 -85 -95 -60 -2 -76 -44 -74 0
25 93 49 40 55 32 5 17 13 74 52 35 26 50 3 43 29 7 66 39 1 33 22 77 27 20 54 34 12 92 19 41 65 95 63 9 -91 -61 -48 -79 -69 -57 -23 -68 -30 -11 -85 -10 -94 -47 -15 -44 -90 -53 -84 -36 -51 -67 -59 -81 -83 0
45 73 83 79 4 32 60 58 81 18 94 96 39 37 35 28 41 6 68 69 30 52 -93 -13 -5 -91 -36 -51 -19 -72 -46 -40 -20 -8 -33 -71 -21 -55 -95 -34 -61 -27 -12 -49 -78 -26 -23 -70 0
80 91 79 17 60 19 54 63 58 96 64 78 16 62 34 30 75 67 12 -92 -6 -31 -95 -88 -97 -84 -22 -39 -1 -94 -40 -46 -72 -77 -81 -61 -43 0
27 38 -77 -71 0
49 16 97 77 19 38 12 26 7 81 36 6 71 91 64 4 8 94 53 37 95 51 48 5 60 11 33 42 88 90 74 69 61 22 75 41 76 15 62 56 29 27 -28 -79 -35 -1 -57 -45 -9 -58 -96 -87 -84 -24 -86 -31 -92 -82 -32 -59 -44 -65 -3 -83 -78 -93 -20 -10 -13 -34 -55 -30 -66 -21 -80 -17 -72 -23 -70 -85 -40 -2 -67 -54 -25 -46 -18 0
68 55 31 11 30 90 76 65 77 62 78 85 57 -7 -71 -54 -29 -26 -58 -95 -44 -1 -87 -10 -89 -36 -74 -41 0
90 8 74 79 6 44 23 75 67 77 16 32 41 45 26 70 27 47 54 40 64 56 3 57 60 19 33 21 93 35 97 17 46 50 -48 -11 -52 -88 -20 -94 -66 -53 -10 -31 -13 -63 -22 -42 -15 -78 -95 -34 -28 -43 -39 -68 -36 -71 -1 -7 -5 -24 -91 -80 0
66 97 79 37 40 59 15 55 27 77 44 78 9 16 89 80 67 57 46 32 12 45 81 85 95 18 64 90 33 36 -43 -62 -71 -91 -35 -2 -42 -28 -73 -29 -94 -63 -21 -87 -54 -51 -3 -8 -1 -30 -82 -19 0
13 57 2 72 97 74 58 9 30 53 75 -79 -39 -92 -1 -49 -96 -16 -86 -62 0
87 85 69 61 58 54 41 39 81 36 86 93 40 26 75 44 37 -38 -89 -70 -9 -16 -79 -84 -77 -97 -57 -6 -68 -24 -11 -18 -8 -90 -88 -20 -72 -91 -22 0
7 35 91 22 41 73 58 38 33 82 31 80 81 62 65 60 36 8 56 86 21 24 83 52 89 44 1 -53 -12 -10 -17 -63 -50 -96 -14 -26 -71 -79 -75 -49 -95 -61 -66 -76 -94 -55 -25 -77 -15 -11 -45 -20 -84 -37 -69 -40 -29 -34 -23 0
27 56 75 44 26 5 1 82 20 33 38 91 6 24 -66 -41 -90 -97 -2 -12 -72 0
84 77 82 36 49 74 10 51 81 92 68 94 72 59 35 80 58 7 97 90 11 62 20 73 91 48 50 57 25 32 41 9 19 52 13 21 87 43 37 28 83 95 -30 -69 -3 -70 -2 -6 -44 -61 -86 -45 -67 -55 -46 -15 -88 -54 -75 -18 -26 -64 -17 -85 -40 -34 -22 -66 -79 -63 -38 -14 -76 -27 -53 -56 -12 -39 -65 -42 -4 -47 -71 -16 -1 -93 -89 -23 -5 -31 -8 -29 -78 -24 -60 0
68 73 31 -17 -72 -90 -39 0
56 23 47 74 19 66 83 64 89 48 9 22 54 85 58 12 25 84 96 1 34 30 77 71 95 7 39 24 42 82 28 -60 -70 -46 -93 -62 -11 -35 -88 -50 -61 -94 -16 -73 -3 -6 -18 -27 -17 -41 -76 -72 -87 -75 -51 -80 -4 -91 -81 -13 -20 -90 -2 -59 -40 -31 -86 -36 -67 -29 -69 -92 -97 -45 -21 0
69 28 82 51 48 95 30 20 78 5 8 68 7 66 19 45 96 2 62 17 54 47 44 16 37 21 76 80 86 50 11 24 61 18 83 58 38 55 97 93 -87 -4 -31 -40 -36 -34 -92 -53 -85 -12 -88 -33 -89 -84 -91 -46 -90 -27 -57 -77 -74 -25 -13 -75 -52 -22 -71 -73 -15 -72 -39 -41 -23 -59 -65 -64 -10 -26 -43 -94 -56 -32 -9 -79 -63 -42 -29 -67 -35 0
89 72 86 38 41 52 21 87 55 58 68 71 90 31 2 15 73 32 78 23 46 -69 -34 -42 -17 -92 -85 -66 -54 -8 -14 -40 -79 -49 -25 -16 -47 -82 -84 -91 -50 -4 -44 -74 0
56 25 4 14 18 72 88 28 62 74 93 41 27 68 15 12 33 52 89 9 -2 -31 -37 -32 -11 -43 -94 -60 -76 0
12 7 49 29 48 33 63 65 62 39 30 81 8 19 97 93 64 9 45 91 20 68 17 18 84 86 87 26 56 43 95 1 72 55 73 83 51 46 4 13 85 21 70 88 66 28 90 58 74 69 53 24 94 14 -38 -80 -76 -36 -3 -52 -35 -40 -96 -77 -57 -41 -59 -61 -54 -27 -5 -25 -67 -44 -92 -10 -75 -47 -11 -50 -22 -37 -82 -89 -32 -2 -42 -71 -79 -78 -16 -34 -23 -15 -60 0
16 50 91 63 36 77 74 18 3 95 19 51 88 43 73 86 7 59 70 37 24 52 47 27 1 85 15 22 82 94 -56 -90 -31 -2 -42 -76 -75 -66 -10 -68 -13 -69 -34 -38 -80 -72 -12 -44 -83 -17 -11 -87 -62 -32 -64 -8 -81 -35 -78 -23 0
32 52 53 66 81 34 27 37 65 72 82 62 46 17 94 74 23 16 14 69 19 22 89 75 40 60 57 70 77 76 88 39 11 15 58 -8 -59 -10 -25 -20 -71 -78 -97 -79 -68 -3 -43 -24 -91 -83 -50 -54 -41 -2 -90 -36 -86 -93 -42 -95 -51 -33 -61 -55 -80 -35 -12 0
96 77 49 2 94 70 90 63 79 45 54 28 69 73 59 78 4 44 81 50 41 85 7 27 56 64 21 17 30 16 74 62 76 12 39 58 67 88 51 -24 -82 -71 -23 -22 -26 -14 -57 -52 -43 -75 -38 -29 -86 -11 -46 -32 -40 -31 -97 -18 -65 -3 -53 -48 -95 0
76 87 82 71 35 52 11 96 90 33 69 64 73 34 59 89 53 3 21 77 2 67 75 27 36 86 8 49 94 5 83 78 28 37 45 88 38 54 58 39 41 24 -56 -70 -29 -50 -55 -31 -23 -40 -30 -17 -18 -72 -57 -4 -95 -84 -10 -92 -48 -22 -20 -19 -14 -7 -25 -1 -65 -12 -47 -74 -68 -44 -43 -32 -9 -80 -79 0
27 13 52 74 78 92 21 47 61 39 38 7 45 46 18 3 1 12 66 96 20 22 36 29 86 56 57 97 11 43 19 55 40 65 77 87 49 23 30 63 53 67 33 4 83 84 54 71 58 41 -8 -48 -68 -35 -69 -89 -17 -79 -90 -42 -82 -5 -28 -50 -15 -88 -6 -75 -72 -80 -51 -85 -76 -25 -94 -16 -2 -70 -9 -59 -24 -95 -93 -91 -44 -62 -60 -64 -34 -81 -14 -26 0
19 47 55 11 20 17 62 59 74 66 15 13 4 48 29 46 95 31 39 82 97 18 69 92 90 51 49 53 25 67 37 26 63 77 22 93 14 41 72 21 65 7 87 32 30 68 43 -81 -79 -94 -52 -24 -40 -78 -8 -34 -58 -27 -76 -28 -96 -86 -1 -12 -56 -71 -64 -73 -5 -36 -10 -61 -35 -3 -70 -88 -44 -85 -54 -9 -89 -75 -42 -6 -2 -16 -45 -60 -33 -84 -80 0
36 21 8 1 39 74 15 56 27 85 69 88 58 53 83 51 90 33 78 94 48 62 46 60 34 66 84 82 42 71 80 -30 -77 -3 -50 -61 -64 -19 -72 -86 -97 -95 -79 -10 -28 -67 -32 -81 -6 -75 -11 -5 -92 -4 -37 -12 -47 -76 -24 -45 -17 -89 -70 -38 -26 -31 -49 -16 -93 -63 -91 -57 -54 -9 -59 -65 -20 -7 -35 -2 0
57 76 24 41 48 53 92 97 65 84 20 16 3 19 37 10 58 80 62 83 21 52 44 18 30 15 47 8 85 7 56 74 51 88 91 67 40 32 -49 -69 -81 -9 -12 -64 -28 -34 -1 -79 -29 -2 -75 -46 -72 -71 -27 -38 -77 -33 -87 -23 -45 -26 -36 -17 -39 -96 -54 -42 -22 -95 -78 -35 -55 -43 -25 -63 -6 -5 -31 -61 -59 -11 -73 0
82 87 3 21 44 72 9 97 12 15 75 1 64 39 32 25 50 31 86 38 85 11 34 30 96 91 35 79 2 80 17 63 92 33 48 19 67 24 -8 -23 -4 -45 -43 -74 -93 -84 -6 -62 -95 -76 -59 -68 -57 -51 -53 -56 -46 -60 -55 -94 -20 -13 -10 -71 -49 -18 -37 -14 -47 -73 -58 -27 -29 -61 -65 -69 -88 -26 -70 -90 -66 -28 -5 0
75 6 39 49 34 74 22 92 61 40 -82 -8 -21 -38 -84 -35 -59 -79 -32 -43 -95 -48 -97 -96 -70 -73 -7 -31 0
21 49 85 17 44 31 11 57 40 22 50 10 5 4 60 71 64 56 14 25 38 76 24 45 83 46 37 29 96 58 77 20 97 80 72 61 12 43 63 16 55 89 28 6 73 8 -62 -94 -78 -91 -19 -42 -65 -93 -26 -48 -88 -67 -32 -3 -7 -90 -18 -84 -33 -30 -68 -69 -79 -47 -27 -66 -9 -39 -1 -35 -75 -70 -54 -52 -81 -36 -51 -92 -74 -53 0
22 75 29 -84 0
14 80 92 75 29 20 70 39 74 93 97 13 85 67 3 53 26 36 68 76 24 73 78 40 41 32 45 18 22 50 72 10 90 61 87 49 31 15 59 71 11 33 34 96 64 9 25 60 12 16 8 66 81 1 37 94 48 -27 -89 -7 -84 -79 -43 -65 -51 -47 -52 -57 -23 -69 -4 -30 -62 -83 -35 -58 -54 -77 -88 -28 -63 -46 -55 -17 -42 -19 -2 -86 -38 -56 -82 -5 -21 -44 -91 -95 0
51 67 1 94 15 86 53 95 49 47 96 48 36 72 70 18 76 73 77 24 55 54 97 59 19 -33 -42 -56 -7 -65 -90 -66 -29 -12 -75 -81 -35 -38 -43 -11 -32 -89 -8 -83 -78 -20 -41 0
50 -57 -10 0
52 31 34 67 75 85 16 59 5 54 53 3 91 17 92 39 57 73 83 87 2 41 11 55 10 88 71 51 23 96 44 76 68 65 -94 -6 -97 -27 -86 -24 -60 -13 -29 -95 -28 -79 -33 -35 -32 -74 -69 -49 -82 -42 -47 -36 -8 -25 -58 -14 -9 -26 -20 -62 -30 -90 -72 -46 -12 -18 -78 -1 -21 -80 -70 -38 -63 0
17 4 86 32 25 26 15 78 -8 -18 -58 -76 -13 -38 -63 -84 -21 -39 -89 0
74 21 -87 -26 -28 -14 0
61 73 71 53 40 62 51 1 17 96 76 -81 -28 -48 -39 -6 -56 -14 -97 -72 -30 -78 0
25 82 40 49 38 51 11 57 29 13 67 19 61 44 1 52 33 58 68 75 32 60 34 85 8 91 63 -5 -47 -95 -24 -59 -4 -65 -21 -14 -43 -73 -48 -39 -64 -53 -3 -97 -9 -74 -70 -2 -93 -72 -62 -96 -12 -22 -20 -7 0
28 17 42 64 88 62 14 49 9 19 -48 -96 -12 -68 -34 -95 -32 -59 -30 -41 -27 -6 -33 -80 -75 0
23 18 65 26 19 42 7 86 13 -76 -83 -91 -57 -51 -62 -80 -35 -3 -21 -9 -37 0
41 73 10 5 6 86 14 15 30 57 72 46 35 48 56 62 33 20 63 34 21 39 31 11 40 38 23 32 80 51 18 47 43 44 96 84 -4 -53 -79 -19 -66 -28 -74 -13 -9 -92 -2 -29 -87 -68 -60 -17 -58 -59 -71 -69 -24 -93 -52 -90 -45 -85 -36 -16 -26 -97 -94 -82 -88 -8 -7 -22 0
10 22 83 45 33 52 1 36 29 35 19 13 61 65 72 94 41 60 73 43 71 96 37 66 -59 -75 -30 -40 -6 -4 -5 -80 -53 -87 -68 -51 -76 0
27 75 90 69 51 95 67 36 4 63 89 40 16 86 3 60 47 94 82 21 15 7 71 92 54 46 23 39 33 34 72 83 57 64 20 97 18 32 76 12 26 61 41 -22 -53 -91 -68 -66 -81 -58 -37 -55 -74 -29 -44 -52 -11 -42 -30 -50 -19 -14 -35 -56 -13 -38 -80 -96 -88 -84 -73 -31 -10 -78 -79 -43 -25 -45 -28 -87 -1 -9 -65 -85 -59 -77 -5 -2 0
44 27 64 2 54 95 1 7 70 36 68 89 18 83 88 12 32 49 26 53 22 31 40 14 29 23 82 55 -66 -57 -51 -77 -46 -48 -30 -21 -79 -94 -81 -84 -56 -87 -85 -47 -13 -92 -35 -20 -4 -10 -78 -80 -69 -9 -34 -41 -3 -59 -63 -90 0
50 87 12 11 93 78 33 57 21 47 92 71 41 64 24 88 83 84 80 27 5 56 49 44 18 60 31 6 77 9 82 58 55 45 23 85 72 73 28 94 -75 -68 -22 -7 -96 -26 -38 -36 -79 -2 -14 -8 -39 -10 -43 -16 -95 -62 -1 -25 -54 -42 -90 -91 -74 -15 -53 -66 -48 -52 -40 -3 -70 -97 -4 -69 -86 -89 -34 0
18 46 84 85 60 87 76 -54 -69 -56 -41 -35 -64 -15 -12 -33 -71 0
41 1 27 37 87 25 23 67 12 90 42 59 66 3 68 91 53 49 92 85 26 74 63 55 65 34 83 88 46 94 36 56 39 28 78 79 16 21 15 2 13 50 52 33 95 24 -18 -89 -48 -9 -19 -77 -54 -11 -30 -60 -10 -93 -62 -97 -6 -31 -70 -47 -82 -38 -7 -51 -84 -80 -44 -81 -32 -8 -71 -29 -69 -73 -43 -61 -96 -4 -75 -20 -14 0
90 94 68 86 43 11 70 80 1 78 27 42 69 57 32 2 85 50 33 45 97 52 72 30 71 14 38 63 44 46 17 54 39 40 47 59 7 41 -18 -16 -87 -92 -34 -66 -31 -51 -8 -74 -83 -29 -67 -12 -9 -35 -88 -24 -19 -76 -10 -75 -22 -64 -95 -5 -13 -49 -61 -53 -62 -93 -79 -3 -89 -73 -4 -21 -81 -55 -26 -60 -96 -77 -36 -6 0
3 28 6 7 18 19 57 5 56 63 49 -86 -97 -66 -58 -46 -12 -92 -53 -90 -47 -11 -64 -36 -71 -95 -31 0
78 80 25 28 95 22 63 58 16 33 81 57 46 42 69 87 41 4 48 35 14 77 30 34 55 26 53 97 92 54 59 49 5 39 13 20 75 65 62 89 93 74 23 88 -73 -24 -94 -3 -51 -2 -56 -32 -43 -67 -60 -47 -40 -90 -64 -82 -68 -11 -79 -29 -66 -19 -50 -21 -18 -31 -6 -7 -1 -8 -17 -38 -76 -61 -91 -9 -86 -44 -96 -71 -10 -15 -12 -45 -27 -83 -72 -70 -36 -84 0
45 85 51 30 26 94 11 78 20 62 32 95 89 74 54 25 79 14 69 80 48 59 44 43 75 35 88 83 9 73 21 31 24 68 55 12 36 76 -18 -60 -42 -63 -13 -16 -34 -23 -1 -56 -71 -29 -66 -64 -40 -90 -52 -70 -91 -77 -53 -5 -41 -38 -49 -10 -97 -4 -6 -96 -81 0
27 24 -39 -51 -57 0
2 51 44 72 19 80 82 24 17 43 53 59 63 92 73 -94 -31 -1 -88 -12 -69 -58 -87 -74 -67 -77 -27 -81 -30 -25 0
95 7 -80 -14 0
6 74 28 40 15 80 12 50 46 14 35 76 18 92 85 9 87 30 47 7 31 37 38 48 73 25 17 86 -52 -61 -82 -83 -13 -53 -60 -70 -55 -16 -68 -59 -54 -42 -36 -43 -4 -64 -93 -91 -97 -2 -58 -65 -45 -10 -49 -57 -71 -44 -22 -19 -94 0
54 80 95 53 36 83 69 75 61 30 73 85 97 38 -24 -12 -3 -44 -50 -66 -87 -13 -76 -41 -79 0
60 14 42 54 17 58 55 31 59 40 51 36 76 49 38 83 91 32 48 93 89 24 57 8 73 97 92 7 23 66 53 87 94 67 81 86 34 30 11 70 -50 -16 -47 -9 -68 -13 -6 -39 -28 -80 -61 -22 -77 -10 -35 -52 -33 -46 -27 -18 -82 -56 -43 -78 -71 -64 -19 -85 -37 -65 -3 -75 -20 -12 -63 -41 0
72 41 2 89 24 56 64 86 4 65 29 91 80 11 45 27 82 76 23 66 53 55 97 12 49 67 60 39 21 62 85 28 16 -19 -3 -7 -34 -73 -74 -94 -1 -69 -20 -18 -90 -83 -48 -36 -44 -50 -75 -77 -87 -37 -15 -30 -81 -31 -38 -5 -32 -9 -54 -71 -58 -84 -47 -10 -59 -6 -79 -57 -26 -52 0
70 89 15 95 38 45 49 71 48 1 83 68 94 69 91 56 21 41 46 3 90 9 23 73 80 18 6 22 -12 -24 -40 -65 -78 -93 -31 -11 -7 -17 -32 -35 -43 -97 -20 -96 -44 -53 -87 -27 -66 -42 -8 -55 -92 -82 -57 -51 -84 -85 -4 0
93 11 1 36 95 20 86 82 41 15 -43 -52 -26 -22 -63 -5 0
56 47 72 29 57 55 11 25 87 95 40 49 86 76 82 5 96 2 61 54 34 90 32 31 41 58 53 64 69 68 65 79 51 63 17 48 3 -28 -18 -92 -30 -94 -23 -75 -44 -12 -16 -38 -33 -66 -62 -39 -89 -7 -4 -19 -73 -71 -9 -97 -81 -83 -93 -14 -43 -15 -88 -78 -80 -67 -91 -21 -74 -84 -27 -22 -35 -42 -37 -50 -20 -60 -46 0
44 97 13 39 22 46 88 64 92 10 40 73 77 41 60 33 12 96 31 14 55 27 -87 -57 -67 -71 -45 -54 -15 -79 -6 -83 -84 -36 -58 -2 -9 -3 -30 -38 -21 0
46 14 42 21 1 8 64 75 44 29 31 85 74 76 40 38 18 3 13 7 35 17 70 81 91 97 20 11 65 82 67 53 -48 -86 -55 -80 -54 -27 -93 -62 -23 -59 -66 -78 -88 -56 -5 -9 -57 -33 -47 -61 -52 -24 -10 -25 -39 -22 -30 -12 -72 0
96 97 8 83 47 68 23 86 5 17 60 4 10 82 79 87 32 74 93 51 63 20 33 28 55 6 76 53 88 90 70 43 37 25 48 16 84 81 54 -1 -85 -7 -61 -67 -49 -30 -50 -39 -22 -66 -62 -35 -11 -78 -31 -91 -12 -52 -58 -41 -19 -44 -65 -80 -77 -9 -18 -40 -71 -69 -59 -15 -24 -56 -72 -95 -3 -94 -42 -14 -92 -36 -13 -34 -46 -38 0
23 70 55 33 21 47 53 27 1 17 16 44 57 90 59 66 60 54 82 20 40 29 38 43 26 49 24 88 18 46 67 31 -65 -48 -34 -77 -12 -30 -15 -79 -39 -62 -75 -68 -69 -41 -45 -74 -2 -87 -78 -89 -7 -10 -32 -4 -81 -72 -19 -51 -63 -71 -96 -83 -35 -93 -5 -56 -95 -52 -91 -58 -42 -8 -76 -36 0
15 53 29 46 34 70 51 66 67 76 61 42 9 97 23 41 87 44 84 90 25 37 50 28 68 92 2 73 52 71 49 13 26 38 -58 -94 -21 -48 -43 -47 -81 -82 -3 -45 -85 -54 -16 -78 -22 -55 -62 -35 -59 -80 -27 -93 -86 -40 -33 -8 -4 -96 -60 0
65 42 5 66 7 48 11 12 57 2 36 9 90 60 85 77 1 67 88 53 19 75 29 73 95 35 -84 -74 -86 -82 -13 -70 -14 -50 -64 -6 -41 -44 -56 -94 -87 -39 -76 -38 -21 -49 -25 -46 -23 -80 -83 -55 -51 -27 0
61 58 53 31 20 44 79 37 87 32 65 41 74 34 43 55 52 35 30 77 4 82 63 26 66 70 85 45 76 49 72 7 64 19 90 38 92 -24 -81 -36 -60 -91 -71 -13 -83 -89 -6 -5 -33 -22 -48 -95 -68 -62 -11 -27 -10 -9 -67 -75 -73 -51 -16 -40 -93 -57 -56 -12 -39 -59 -8 0
30 92 21 29 11 97 87 41 47 54 67 93 83 33 71 62 39 70 42 48 26 12 53 43 68 40 74 46 36 6 76 8 5 72 88 61 15 78 22 13 75 -52 -91 -17 -59 -35 -2 -20 -58 -14 -64 -44 -79 -82 -19 -96 -3 -45 -28 -49 -7 -66 -18 -89 -86 -55 -60 -24 -32 -65 -1 -80 -84 -90 -85 -69 -27 -81 -73 -16 -77 -94 -9 -10 0
68 60 76 82 66 86 30 13 96 35 69 75 72 14 39 55 44 50 67 32 95 63 18 83 77 59 51 -36 -54 -57 -48 -93 -8 -23 -90 -6 -21 -46 -45 -81 -7 -85 -24 -56 -2 -91 -1 -26 -65 -19 -79 -20 -37 -53 -47 -10 -27 -34 -16 -43 -15 -4 0
85 92 61 9 68 53 69 28 89 23 27 45 3 71 73 37 77 14 74 31 90 30 19 66 88 62 46 34 35 2 42 43 82 11 41 39 63 -56 -10 -79 -65 -49 -12 -22 -86 -36 -1 -51 -50 -24 -48 -21 -67 -40 -47 -44 -7 -94 -81 -25 -83 -4 -5 -64 -76 -72 -20 -75 -78 -32 -84 -60 -59 -8 -18 -70 -15 -80 -29 -6 0
12 50 11 8 1 24 34 95 18 51 20 39 15 43 47 36 41 83 84 88 77 58 42 82 13 21 93 4 80 9 37 56 76 16 57 10 61 46 27 32 28 30 17 91 14 70 23 59 -89 -45 -31 -85 -92 -90 -48 -71 -97 -25 -96 -26 -78 -7 -3 -29 -72 -69 -60 -75 -44 -5 -62 -66 -40 -6 -68 -35 -52 -67 -33 -19 -54 -65 -86 -22 -87 -81 -74 -79 -2 -63 -94 -55 -49 -53 -38 -73 0
41 82 36 33 35 95 90 38 27 20 37 52 47 50 92 46 75 39 7 26 25 5 -60 -91 -4 -93 -42 -14 -68 -29 -96 -10 -70 -59 -76 -24 -8 -30 -94 -11 -87 -3 -12 -44 -62 -13 -51 -28 -63 -78 -55 -57 -19 -79 0
68 79 37 42 70 61 4 47 2 54 72 10 63 17 51 40 16 41 30 62 92 71 43 64 76 22 31 78 39 1 90 94 6 26 52 -7 -96 -66 -49 -25 -46 -87 -91 -53 -29 -15 -88 -3 -19 -86 -48 -33 -32 -12 -82 -36 -14 -84 -21 -5 -9 -45 -28 -97 -57 -13 -60 0
7 28 19 73 81 75 22 62 56 50 43 65 84 31 85 35 88 21 97 77 52 48 66 74 82 16 1 96 58 63 91 59 8 30 10 57 13 3 94 60 6 44 33 70 27 64 86 23 42 -79 -20 -14 -72 -49 -2 -39 -4 -41 -25 -90 -46 -69 -76 -80 -71 -45 -15 -51 -24 -61 -95 -5 -34 -54 -17 -78 -92 -38 -9 -67 -29 -53 -83 -36 -11 -87 -12 -32 -47 -68 -26 -18 -93 -89 -55 -40 0
30 92 36 48 29 24 66 20 25 7 75 80 84 21 64 44 10 61 88 42 50 12 94 85 46 77 81 1 63 33 70 72 37 60 71 -3 -54 -86 -59 -45 -31 -56 -49 -76 -89 -68 -97 -40 -43 -26 -53 -22 -9 -95 -18 -96 -91 -14 -34 -4 -28 -87 -19 -93 -17 -32 -11 -35 -41 -67 0
82 2 58 15 33 17 77 68 22 88 73 42 5 91 81 70 90 6 31 32 89 39 -25 -55 -86 -72 -75 -18 -37 -36 -92 -30 -20 -12 -79 -71 -56 -50 0
24 79 1 19 27 52 72 50 40 78 66 5 46 88 77 81 89 8 -42 -69 -43 -36 -22 -37 -85 -92 -55 -67 -57 -14 -34 -12 -94 -2 -76 -49 -11 -93 -84 -48 0
83 45 55 54 -17 -92 -29 -64 -18 -34 0
88 2 77 87 84 22 -12 -70 -33 -64 -67 -25 -92 0
3 85 74 76 92 12 84 31 79 93 80 26 34 23 2 24 5 72 18 89 -51 -48 -22 -64 -87 -55 -7 -33 -40 -78 -27 -97 -96 -10 -70 -65 -69 -49 -11 -90 0
85 14 68 37 27 45 7 76 4 77 9 -97 -15 -42 -26 -63 -47 -29 -46 -36 -56 0
41 -86 0
87 86 78 30 56 3 93 97 22 59 17 92 63 77 42 94 74 25 55 54 61 49 65 11 69 28 34 36 39 90 82 76 26 21 70 66 89 27 48 41 18 12 37 10 5 40 75 72 -91 -47 -24 -15 -6 -1 -38 -29 -80 -44 -23 -67 -85 -50 -58 -68 -20 -33 -7 -60 -73 -62 -45 -83 -9 -19 -79 -14 -16 -71 -32 -4 -13 -53 -95 -2 -88 -31 -46 -64 -57 -52 -35 -43 -8 -96 -51 0
9 15 70 93 82 50 52 18 79 35 54 40 88 14 17 42 84 45 10 5 19 68 64 73 67 72 76 24 32 6 80 94 69 61 8 95 7 51 86 2 53 36 4 16 28 -44 -63 -62 -89 -75 -81 -74 -3 -43 -57 -31 -65 -48 -27 -90 -87 -25 -55 -92 -97 -30 -59 -33 -41 -49 -21 -91 -39 -85 -29 -13 -38 -96 -34 -78 -47 -37 -60 -20 -12 -77 -83 -58 -11 0
69 55 49 63 17 18 2 76 12 85 93 37 31 3 33 52 44 86 90 79 51 11 10 40 48 81 57 68 60 19 39 58 94 23 50 66 74 78 -8 -14 -82 -21 -87 -67 -56 -9 -70 -24 -54 -1 -38 -28 -7 -25 -32 -15 -73 -36 -30 -75 -59 -6 -5 -43 -53 -89 -83 -34 -26 -92 -80 -72 -65 -61 -35 -95 -97 -84 -91 -47 -13 0
24 85 56 62 51 87 89 49 57 37 76 59 11 44 12 -46 -9 -75 -95 -90 -33 -48 -63 -6 -32 -58 -38 -42 -79 -15 0
80 91 94 70 73 28 4 39 10 31 88 75 45 61 90 86 96 64 6 78 1 63 46 85 65 52 14 53 89 -87 -9 -84 -27 -49 -56 -21 -11 -79 -44 -24 -81 -17 -92 -22 -18 -36 -54 -8 -33 -57 -50 -60 -30 -51 -77 -58 -59 -97 -42 -83 -40 -12 -38 -7 -3 -71 0
95 45 62 51 63 67 1 25 2 22 47 20 85 26 6 54 84 29 39 9 34 30 50 24 94 57 59 46 60 4 28 76 80 3 -89 -61 -27 -32 -12 -73 -49 -53 -90 -8 -71 -69 -86 -21 -17 -15 -23 -14 -91 -93 -44 -55 -92 -37 -40 -81 -97 -88 -16 -64 -65 -33 -7 -48 -19 -13 -96 -75 -31 -56 0
14 69 64 52 24 54 15 48 50 26 22 97 38 11 5 2 37 29 46 25 77 63 33 28 -61 -45 -21 -31 -60 -68 -72 -66 -9 -89 -39 -55 -59 -65 -13 -74 -12 -82 -70 -71 -76 -75 -30 -44 -88 -32 -27 0
73 15 24 32 81 11 63 83 76 97 31 22 85 5 35 47 74 87 60 49 19 36 93 18 -67 -72 -44 -39 -4 -37 -82 -56 -80 -27 -86 -10 -53 -94 -66 -34 -79 -84 0
77 70 55 37 47 56 61 2 73 96 95 79 14 -3 -4 -17 -42 -89 -69 -20 -67 -64 -88 -13 -48 -30 -24 -46 -52 -28 -50 -9 -65 -74 -58 0
86 10 22 91 78 83 93 45 47 92 70 59 58 89 37 63 40 33 7 66 61 28 16 56 96 50 6 12 84 48 23 38 5 19 15 14 81 8 13 41 54 17 36 57 85 94 51 53 87 73 -90 -75 -64 -1 -34 -2 -31 -32 -4 -52 -9 -80 -67 -18 -76 -74 -26 -62 -79 -95 -46 -71 -55 -29 -60 -35 -27 -82 -20 -39 -69 -30 -3 -44 -68 -65 -88 0
29 67 46 33 45 15 88 -63 -65 -23 -28 -34 -62 -90 -89 -14 -96 -56 -80 -57 -4 0
78 8 75 80 27 55 26 72 88 83 37 69 84 -77 -31 -43 -51 -17 -92 -19 -66 -57 -87 -13 -20 -9 -67 -3 0
24 78 27 96 23 30 11 93 33 -34 -80 -43 -29 -41 -48 -28 -37 -22 -60 -86 -70 -6 -59 -76 -71 -17 -39 -63 0
32 45 67 37 92 11 4 17 51 58 82 83 10 85 96 31 22 77 84 20 87 8 25 68 76 80 64 48 44 50 36 70 23 -52 -89 -91 -75 -6 -34 -16 -95 -7 -60 -54 -40 -69 -29 -59 -26 -56 -38 -13 -49 -74 -24 -90 -93 0
9 25 37 79 66 44 28 49 62 40 45 78 38 61 90 51 46 -7 -93 -22 -4 -67 -70 -75 -58 -74 -35 -52 -77 -59 -20 -8 -17 -88 -41 -12 0
38 86 64 21 66 54 29 79 46 -87 -27 -73 -69 -74 -90 -47 -68 -26 0
55 85 20 91 18 11 74 77 59 -5 -94 -17 -66 -63 -10 -41 -45 -84 -67 -6 -12 -71 -32 -2 0
81 35 74 3 50 7 36 25 9 73 24 -22 -71 -86 -88 -80 -40 -43 -90 -61 -97 0
11 59 79 22 6 85 68 83 87 88 18 34 35 9 76 97 61 95 33 14 13 49 30 86 78 73 1 94 42 5 -26 -38 -45 -67 -2 -29 -12 -44 -77 -75 -32 -55 -81 -96 -62 -72 -47 -8 -31 -24 -89 -54 -23 -27 -69 -15 -93 -41 -65 -19 -52 -56 -50 0
26 69 34 44 3 77 27 66 82 79 22 -36 -39 -84 -11 -32 -28 -42 -97 -70 -13 -71 -58 -4 -93 -55 -94 -86 -74 -80 0
49 50 28 97 17 54 38 -76 -21 -27 -69 -81 0
97 62 41 38 77 85 23 84 88 25 24 14 75 12 1 81 29 6 82 30 13 93 40 45 65 33 68 78 80 96 27 55 60 4 47 52 37 66 53 8 86 16 34 43 -83 -18 -46 -20 -51 -87 -71 -59 -57 -49 -36 -5 -64 -79 -92 -17 -72 -10 -56 -61 -31 -67 -9 -44 -15 -73 -89 -21 -11 -48 -7 -19 -39 -2 -91 -63 -76 -74 -58 -28 -70 -95 -3 -50 -54 -26 -35 -22 -90 -42 -94 0
61 78 73 9 88 90 50 70 39 6 92 91 82 1 95 -53 -4 -38 -43 -74 -45 -59 -77 -75 -66 -23 -52 -15 -69 -13 -40 -54 -64 -11 -86 -65 -42 -89 -21 0
86 18 -61 -96 -10 -28 -34 0
84 87 9 43 83 49 39 47 8 2 16 76 71 93 35 7 56 -25 -65 -33 -40 -41 -91 -42 -55 -58 -26 -4 -68 -18 -46 -88 -14 -11 0
3 7 75 96 5 73 77 90 11 66 76 67 62 17 72 65 83 56 74 15 48 81 50 87 13 53 51 54 33 57 82 34 40 1 80 61 39 10 89 12 21 19 -47 -95 -30 -25 -31 -32 -93 -85 -52 -27 -8 -4 -86 -92 -20 -44 -45 -22 -71 -41 -9 -59 -63 -46 -49 -84 -64 -43 -26 -36 -28 -55 -18 -97 -14 -16 -6 -69 -37 -94 -42 -24 0
4 22 8 31 71 82 13 64 -50 -39 -54 -89 -19 -6 -20 -56 -97 -11 -46 -32 -73 -44 -86 -47 -36 0
66 64 40 87 8 73 80 39 23 50 84 67 35 7 54 62 83 38 25 60 21 30 -45 -9 -19 -94 -36 -43 -72 -5 -86 -14 -1 -78 -37 -97 -82 -2 -52 -47 -27 -69 0
21 24 95 11 86 13 41 39 -10 -20 -7 -72 0
1 7 18 58 38 73 77 5 16 49 75 -32 -52 -31 0
96 68 40 5 79 19 23 46 28 14 9 53 15 52 39 29 77 60 57 58 93 90 45 37 94 48 24 71 63 22 50 80 11 20 97 67 31 76 51 -13 -21 -34 -17 -89 -59 -87 -88 -62 -69 -26 -64 -75 -47 -83 -30 -32 -55 -1 -18 -10 -43 -78 -92 -85 -2 -8 -74 -7 -65 -44 -42 -81 -16 -61 -3 -86 -54 -35 0
97 59 54 64 39 46 27 93 79 55 61 48 36 28 1 82 19 90 16 12 25 20 22 40 14 3 51 85 74 70 95 43 62 94 41 67 38 44 86 -83 -89 -88 -21 -78 -71 -87 -75 -68 -53 -56 -7 -63 -81 -5 -92 -11 -47 -72 -24 -17 -69 -6 -31 -10 -76 -57 -37 -49 -45 -66 -13 -42 0
88 85 36 67 64 94 71 32 12 26 -53 -54 -72 -47 -46 -30 -75 -68 -21 -41 -57 -55 -25 -51 -91 -61 0
68 72 4 96 51 58 29 -50 -70 -55 -20 -76 -46 -97 -94 0
80 47 95 82 67 74 29 7 1 72 8 90 75 58 76 68 21 13 59 77 10 45 3 27 28 53 56 20 87 33 73 64 -18 -69 -78 -84 -63 -17 -66 -41 -38 -71 -4 -32 -50 -30 -97 -36 -96 -60 -62 -55 -51 -94 -23 -6 -49 -70 -11 -22 -39 -34 -44 -43 -86 -42 -89 -31 -12 -14 -35 -15 -16 -88 -48 -54 -2 -52 -57 0
40 52 -7 -59 0
45 20 94 6 16 79 48 38 58 42 96 -37 -75 -77 -56 -4 -87 -40 -17 -11 0
92 31 86 87 24 18 91 95 55 93 37 80 75 36 23 49 53 35 44 13 12 41 68 11 96 19 34 56 76 78 32 8 25 3 16 50 54 -70 -42 -71 -62 -69 -61 -30 -89 -58 -72 -5 -67 -39 -51 -33 -88 -43 -57 -90 -2 -27 -38 -14 -22 -26 -84 -17 -94 -60 -52 -29 -48 -64 -21 -47 -9 -20 -97 -74 -63 -59 -7 0
90 68 57 64 86 87 39 83 54 35 34 1 69 40 78 17 73 8 -44 -58 -55 -79 -71 -75 -81 -50 -95 -6 -94 -26 -36 -93 -37 -76 0
72 25 7 82 18 91 30 88 20 83 17 54 -44 -68 -21 -5 -64 -75 -63 -51 -57 -86 -71 -35 -62 -94 -23 -84 -96 0
64 87 4 33 68 74 -29 -15 -93 -38 0
28 5 64 23 24 42 43 -44 -71 -8 -76 -36 -22 -50 -16 -45 -69 -85 -62 -89 0
73 8 76 85 89 92 33 18 30 54 65 25 35 9 29 44 16 80 78 2 24 95 32 75 87 50 79 90 21 6 17 14 46 11 19 56 48 37 34 74 82 23 20 96 81 43 -67 -27 -83 -61 -66 -7 -36 -40 -31 -22 -15 -42 -39 -64 -3 -77 -38 -52 -70 -68 -63 -49 -72 -69 -91 -60 -88 -10 -5 -84 -28 -55 -1 -13 -62 -45 -26 -59 0
50 60 84 18 68 38 78 27 17 89 51 95 91 81 28 77 39 23 45 10 47 57 58 42 72 85 55 97 8 19 90 31 40 80 9 6 63 67 73 53 74 88 26 24 70 44 -35 -30 -22 -76 -36 -79 -2 -4 -3 -61 -46 -86 -64 -93 -34 -41 -96 -20 -5 -14 -94 -29 -62 -69 -71 -25 -66 -82 -12 -48 0
19 76 50 77 52 24 97 66 54 5 46 88 28 89 83 85 14 36 64 1 2 90 3 30 95 86 71 34 12 27 4 53 25 15 79 87 20 -31 -80 -75 -10 -70 -26 -48 -56 -42 -49 -39 -41 -23 -13 -82 -16 -60 -74 -78 -84 -21 -72 -51 -40 -65 -22 -6 -11 -67 -29 -93 -94 0
13 11 43 70 73 24 55 58 89 65 69 59 80 21 15 -88 -8 -22 -1 -84 -87 -34 -12 -76 -79 -31 -44 -23 -32 -72 -78 0
37 71 35 38 27 72 -87 -28 -65 -29 -50 -40 -69 -42 0
1 20 38 95 58 36 24 51 82 74 -9 -94 -19 -63 -41 -92 -26 -80 -84 -62 -97 -10 -5 -76 -14 -44 -64 0
3 33 53 78 19 54 82 7 77 70 50 15 49 58 76 42 13 55 69 62 20 97 66 47 89 64 87 12 63 75 71 45 68 92 46 21 14 56 39 6 29 52 -94 -88 -28 -67 -96 -85 -65 -60 -91 -27 -90 -8 -10 -74 -25 -48 -26 -32 -73 -40 -95 -1 -35 -36 -79 -41 -43 -59 -24 -9 -22 -37 -31 -86 -5 -61 -57 -11 -72 -84 -81 0
53 87 9 96 16 47 11 82 90 17 46 28 91 73 40 42 5 44 48 19 -20 -22 -30 -60 -86 -75 -55 -85 -70 -1 -93 -56 -45 -88 -18 0
80 59 72 41 39 87 47 95 38 74 71 53 22 5 10 3 75 49 62 97 83 79 45 7 -64 -29 -36 -68 -48 -12 -2 -94 -84 -60 -20 -43 -15 -85 -32 -55 -34 -51 -66 -63 -76 -26 -96 -27 -81 -73 -77 -61 0
52 39 78 46 96 22 12 5 86 -34 -1 -13 -51 -40 0
78 5 12 24 77 75 19 96 86 38 -61 -64 -65 -94 -4 -81 -62 -28 -66 -21 -15 -60 -63 -10 0
85 87 45 14 41 49 72 58 65 -46 -47 -32 -30 -69 -55 -31 -66 -83 -76 -16 -22 -90 -50 -12 -26 -82 -35 -5 -93 0
92 51 68 96 41 28 36 43 11 -83 -85 -59 -45 -74 -82 -72 -89 -27 -48 -35 -88 0
28 95 13 19 56 93 40 48 20 67 33 3 62 63 7 97 16 50 25 61 91 76 71 8 47 24 78 60 -43 -23 -74 -58 -6 -88 -18 -9 -29 -30 -65 -72 -53 -73 -32 -1 -15 -84 0
71 6 24 18 65 83 16 68 10 47 78 39 64 53 8 12 -23 -48 -34 -67 -37 -22 -49 -5 -56 -76 -97 -11 -92 -69 -81 -46 -89 -19 -52 0
38 12 27 37 28 34 57 69 97 14 66 45 85 55 30 56 95 10 60 89 3 58 4 68 59 50 84 17 96 15 88 46 36 20 91 11 29 92 16 44 65 23 -86 -26 -25 -70 -40 -35 -7 -6 -43 -78 -18 -61 -62 -49 -76 -5 -22 -82 -71 -9 -51 -2 -52 -73 -77 -13 -19 -41 -39 -47 -87 -53 0
31 92 33 35 3 18 53 87 75 9 -25 -26 -54 -2 -97 -66 -69 -74 -93 -80 -21 -10 -4 -47 -58 -41 -67 -89 -38 0
53 89 13 80 14 17 9 55 -71 -59 -8 -7 -86 -66 -40 -73 0
90 70 7 14 89 34 81 74 85 66 60 27 52 78 44 97 31 21 19 1 88 75 47 35 4 96 29 50 41 80 42 32 10 30 39 95 51 33 72 83 53 15 25 48 23 93 82 54 5 49 -9 -77 -20 -61 -59 -38 -86 -13 -12 -94 -92 -18 -36 -64 -3 -68 -71 -87 -40 -24 -46 -58 -56 -73 -84 -45 -37 -43 -11 -69 -65 -67 -62 0
94 51 91 41 9 33 85 67 40 88 70 57 42 71 83 10 72 75 93 81 18 28 38 58 29 66 78 7 17 23 37 63 31 92 52 46 3 14 90 65 32 -4 -77 -34 -60 -1 -74 -47 -19 -59 -25 -54 -15 -36 -82 -13 -56 -50 -61 -20 -44 -53 -97 -73 -55 -49 -8 -21 -76 -48 -2 -62 -22 -16 -6 -35 -89 -68 -87 -24 -84 0
70 17 51 60 32 -3 -94 -86 -18 -28 -21 -47 0
93 87 49 90 -25 -82 -54 -42 -61 -73 -53 -14 -74 -19 0
51 8 31 75 45 12 7 90 5 19 71 17 85 50 69 53 42 13 65 79 6 14 37 33 70 24 97 39 44 35 25 40 56 96 72 64 80 84 46 54 83 58 95 23 62 73 20 -21 -63 -41 -68 -47 -67 -92 -76 -1 -88 -18 -59 -22 -32 -28 -82 -3 -9 -66 -29 -2 -93 -49 -77 -10 -74 -87 -38 -34 -91 -16 -86 -30 -48 -94 -78 -26 -57 -52 -15 -55 -81 -36 -60 -61 0
23 41 71 88 22 94 20 40 82 19 84 92 54 13 18 46 67 63 29 77 78 83 25 33 30 -38 -89 -97 -34 -11 -21 -68 -70 -31 -93 -64 -14 -37 -96 -81 -65 -4 -39 -91 -87 0
88 7 40 24 37 28 79 86 71 97 50 58 -45 -3 -85 -42 -60 -57 -25 -13 -9 -69 -47 -15 -46 -29 -77 -27 -36 -64 0
49 46 6 73 4 83 77 72 26 63 61 -30 -78 -91 -66 -19 -27 -32 -52 -13 -1 -76 -59 -62 -22 -45 -10 -81 0
33 77 35 26 94 78 64 34 4 55 76 43 49 16 22 40 83 96 12 19 85 8 72 11 56 75 45 82 42 14 70 51 -17 -89 -53 -25 -46 -91 -60 -18 -84 -58 -63 -31 -59 -93 -41 -67 -87 -48 -6 -23 -32 -38 -39 -80 -54 -27 -57 -2 -44 -24 -5 -97 -71 -30 -15 -20 -13 -21 0
90 88 39 42 2 28 63 37 80 17 19 73 52 44 23 8 35 54 32 41 60 13 59 47 58 65 34 72 89 29 77 70 78 16 6 82 27 48 20 15 83 7 92 86 -57 -97 -3 -96 -85 -46 -53 -21 -9 -94 -22 -10 -12 -75 -87 -4 -31 -45 -11 -18 -81 -38 -95 -93 -84 -76 -74 -55 -25 -24 -71 -33 -49 -56 -40 -5 -14 -30 -68 -36 -91 -26 -64 -51 0
24 45 21 20 91 39 27 10 52 9 62 87 80 18 13 54 15 78 68 55 56 75 65 31 67 6 48 33 23 97 2 66 7 74 25 92 5 72 46 -4 -93 -63 -64 -60 -84 -69 -88 -38 -16 -90 -17 -36 -42 -96 -1 -50 -43 -44 -57 -73 -29 -71 -40 -94 -77 -89 -95 -3 -19 0
15 42 75 83 89 4 -36 -82 -17 -77 -2 -9 -78 0
55 -91 0
84 28 40 91 -3 -11 -88 0
50 7 64 35 75 73 67 59 97 39 17 11 30 28 88 49 18 53 1 72 51 85 71 13 -70 -2 -96 -90 -68 -91 -92 -58 -65 -27 -47 -77 -46 -93 0
63 22 24 3 62 20 41 85 93 37 49 75 79 44 29 31 81 82 95 9 14 67 21 72 51 36 43 27 57 74 60 87 92 32 55 26 47 56 -34 -65 -6 -94 -84 -40 -4 -5 -11 -46 -39 -30 -12 -13 -89 -42 -35 -1 -88 -54 -52 -25 -86 -77 -71 -16 -96 -97 -58 -73 -83 -68 -91 -45 0
95 44 59 28 92 2 91 73 72 66 29 89 42 61 69 32 9 -64 -80 -52 -57 -83 -49 -46 -77 -86 -55 -10 -74 -71 -39 -16 0
50 90 53 85 80 24 6 96 39 23 8 18 3 89 76 38 97 25 47 2 65 91 69 1 59 58 16 92 55 66 9 56 40 77 43 13 -93 -32 -12 -52 -20 -21 -83 -68 -19 -35 -48 -22 -64 -84 -62 -87 -67 -95 -72 -37 -17 -57 -26 -11 -60 -10 -4 0
80 83 68 97 70 61 82 41 66 57 86 11 40 31 45 96 50 91 29 95 75 19 12 94 76 74 54 -69 -4 -60 -78 -58 -62 -88 -79 -17 -90 -81 -63 -37 -44 -92 -35 -13 -32 0
33 60 30 45 2 52 69 76 39 20 4 11 81 53 19 82 96 -36 -70 -93 -63 -55 -50 -42 -15 -54 -66 -18 -32 -75 -41 -78 -16 -57 -51 -47 0
76 62 17 66 48 87 60 57 10 79 74 44 15 24 14 82 63 35 77 81 52 69 3 68 61 25 36 7 43 -30 -18 -40 -58 -49 -80 -28 -47 -65 -56 -85 -12 -88 -78 -94 -2 -45 -86 -38 -9 -13 -23 -34 -46 -1 -27 0
95 96 69 44 66 30 74 81 39 24 46 84 2 14 54 35 65 19 90 5 29 1 49 48 32 37 45 43 75 64 9 97 -89 -80 -50 -82 -11 -57 -88 -62 -42 -51 -56 -38 -47 -67 -83 -27 -53 -6 -23 -3 -16 -63 -15 -94 -10 -58 -21 -59 -31 -70 -52 -36 -8 -93 -86 -33 -26 -71 -22 -76 0
73 23 74 95 93 3 56 21 31 89 12 43 61 60 1 2 28 92 53 44 72 -7 -39 -69 -16 -83 -41 -94 -24 -17 -10 -55 -46 -54 -50 -68 -63 -25 -57 -18 -15 -75 -58 -9 -32 -47 -33 0
32 59 35 27 77 42 26 31 16 36 89 10 21 12 18 51 22 3 23 78 52 2 19 -56 -69 -96 -82 -15 -50 -76 -62 -71 -58 -45 -94 -81 -14 -11 -24 -7 -67 -95 -48 -39 -29 -8 -68 -60 -92 0
49 87 48 9 54 10 88 12 25 81 70 40 27 69 65 76 59 77 41 53 61 30 97 13 52 3 94 29 62 44 -4 -37 -32 -75 -95 -58 -11 -71 -21 -82 -91 -17 -89 -20 -60 -8 -78 -67 -7 -96 -33 -6 -84 -36 -92 0
80 26 74 1 18 42 95 46 57 81 9 64 67 89 94 51 84 83 22 76 87 61 29 23 12 17 66 82 34 73 86 40 16 90 49 14 -78 -50 -71 -6 -68 -21 -28 -69 -85 -31 -65 -75 -70 -52 -32 -93 -4 -77 -97 -39 -2 -35 -62 0
97 67 33 51 79 23 81 69 42 9 47 71 88 -28 -87 -73 -38 -26 -80 -31 -82 -59 -39 -75 -91 -30 -76 -12 -8 -32 -16 -18 -20 -65 -64 0
82 37 4 48 13 33 14 95 64 59 45 3 86 21 93 18 73 6 46 91 78 62 60 94 80 47 32 65 63 97 40 74 75 38 22 70 17 39 90 19 89 27 -71 -67 -24 -96 -57 -49 -35 -56 -28 -68 -10 -41 -55 -54 -87 -52 -92 -51 -5 -43 -29 -11 -1 -7 -30 -88 -79 -83 -8 -53 -61 -16 -36 -50 -23 -84 -44 -20 -25 -69 -12 -85 -15 -9 -31 0
55 -37 -56 -43 -45 -70 0
1 13 33 40 48 20 62 84 4 41 12 71 2 29 50 34 26 5 81 68 97 59 46 47 55 21 64 76 78 18 96 83 9 24 35 -93 -69 -19 -6 -74 -38 -72 -53 -3 -57 -25 -10 -82 -43 -14 -91 -86 -15 -79 -77 -87 -56 -67 -54 -80 -42 -85 -22 -90 -7 -37 -61 -95 -88 -28 0
41 76 43 63 77 55 68 52 84 95 89 4 18 17 36 9 8 78 21 28 34 25 12 23 85 53 65 81 66 27 26 3 30 75 11 19 40 -6 -7 -45 -87 -37 -91 -20 -62 -80 -47 -22 -46 -29 -58 -49 -59 -74 -51 -94 -16 -72 -42 -54 -73 -71 -2 -70 -92 -56 -44 -13 -33 -10 -90 -69 -57 -15 -24 -60 -93 0
66 6 23 2 59 63 20 97 95 72 55 90 42 85 80 18 24 60 29 -58 -48 -35 -73 -47 -3 -19 -68 -52 -49 -67 -4 -56 -82 -8 -9 -62 -92 -30 -70 -44 -76 0
27 93 75 3 77 80 94 43 26 85 10 -68 -2 -62 -34 -95 -21 -89 -37 -57 -87 -73 -45 -12 -67 -46 -70 -17 -49 -88 -5 -41 -24 -51 0
74 42 50 23 77 87 67 96 70 45 37 2 48 44 72 53 88 9 33 41 12 24 84 43 36 90 25 78 61 7 -21 -95 -92 -62 -52 -56 -75 -20 -57 -5 -64 -66 -30 -32 -73 -15 -89 -55 -3 -60 -14 -11 -29 -13 -58 -54 -34 -82 -17 -1 -40 -47 -85 -6 -80 -39 -59 -76 -38 -22 -97 -69 -4 -18 -91 -79 -63 -19 -94 -27 0
37 70 20 40 82 15 77 10 55 26 53 64 5 84 12 31 25 54 19 46 1 13 85 97 -59 -7 -88 -79 -41 -94 -60 -6 -74 -51 -71 -72 -92 -78 -4 -29 -50 -80 -23 -93 -89 -63 0
47 6 32 31 66 55 68 75 9 15 53 52 80 5 62 1 34 94 95 38 22 7 33 40 14 10 65 88 23 74 60 28 8 16 57 35 19 84 87 73 79 54 25 70 12 71 -78 -11 -56 -93 -81 -96 -63 -29 -4 -26 -18 -51 -45 -39 -77 -50 -64 -72 -42 -67 -91 -3 -92 -90 -61 0
62 61 17 81 56 41 23 57 48 16 5 2 7 86 64 15 87 36 10 84 42 58 27 50 -26 -83 -29 -66 -4 -14 -74 -85 -33 -54 -90 -24 -31 -82 -89 -77 -63 -39 -30 -19 -73 -34 -46 -97 -49 -1 -80 -13 0
93 63 64 33 95 87 59 3 97 13 14 8 34 65 68 60 28 38 56 2 44 89 50 36 75 52 55 78 92 6 29 82 43 5 12 81 22 83 61 54 18 -35 -7 -37 -10 -69 -40 -46 -70 -72 -25 -53 -39 -84 -96 -91 -32 -62 -73 -27 -42 -11 -67 -85 -80 -30 -19 -48 -16 -66 -31 -49 -26 -20 -45 -1 -24 -4 -90 0
83 48 25 93 30 28 2 6 92 19 3 39 35 75 37 33 14 66 82 65 41 8 70 56 74 47 50 80 76 36 52 22 24 78 72 15 71 97 26 89 31 40 62 12 4 64 57 87 -51 -44 -81 -94 -67 -84 -59 -60 -46 -38 -42 -85 -95 -5 -68 -7 -61 -29 -55 -91 -54 -34 -13 -20 -96 -63 -21 -69 -43 -9 -45 -73 -90 0
68 -73 -45 -54 0
17 10 71 24 11 28 38 50 93 78 83 55 60 49 1 64 70 84 73 33 15 97 92 54 61 74 51 12 -46 -44 -59 -82 -42 -89 -30 -96 -76 -23 -13 -91 -2 -4 0
11 13 71 43 67 58 63 75 82 35 97 84 53 51 76 73 41 -81 -39 -28 -3 -80 -48 -50 -34 -45 -7 -91 0
8 50 74 78 83 41 24 95 47 60 54 10 43 36 -77 -38 -76 -6 -23 -49 -66 -19 -22 -48 -13 -72 -5 -27 -73 -63 -11 -25 -79 -9 -26 0
42 89 91 7 40 79 66 44 45 41 92 74 93 87 81 67 39 54 49 60 32 46 57 37 94 31 17 83 5 26 18 -90 -85 -55 -8 -71 -78 -15 -19 -77 -73 -48 -62 -88 -10 -56 -23 -75 -12 -35 -3 -4 -84 -86 -16 -13 -72 -11 -20 -50 -25 -80 -22 -61 -43 -14 -30 -64 -34 -53 -82 0
14 47 29 32 94 74 97 40 26 30 80 66 83 1 69 44 34 68 85 38 56 81 -70 -91 -73 -93 -37 -6 -31 -39 -35 -57 -25 -18 -72 -20 -78 -27 -46 -64 -22 -24 -4 -77 -9 -82 -5 -19 -75 -58 -71 -52 -55 -21 -33 -90 0
44 85 88 14 67 43 32 74 17 4 -46 -12 -2 -62 -73 0
42 12 54 96 94 13 23 71 48 87 68 25 45 89 35 81 86 26 72 97 77 65 50 41 -38 -32 -70 -27 -37 -21 -46 -19 -67 -52 -66 -15 -43 -64 -14 -53 -85 -82 -63 -24 -80 -49 -73 -51 -22 -5 -56 -10 -93 -62 -36 -61 -9 -30 -78 -91 -3 -40 -16 0
43 90 75 46 27 57 84 44 95 7 29 58 80 23 60 53 96 -14 -19 -31 -83 -51 -4 -34 -74 -86 -66 -91 -10 -82 -54 -48 -79 -73 -97 -32 -77 0
61 10 71 36 62 97 79 23 86 63 2 26 29 45 14 1 -64 -93 -31 -27 -76 -60 -40 -35 -33 -44 -21 -49 -66 -22 -4 -65 -28 -55 -42 0
16 12 7 47 82 3 92 17 68 44 72 73 50 61 60 20 6 14 27 5 64 23 77 96 48 30 31 49 67 46 79 9 11 86 65 85 33 90 22 42 36 4 59 -81 -10 -70 -41 -21 -18 -52 -57 -91 -66 -89 -37 -63 -54 -58 -87 -43 -32 -26 -13 -38 -28 -74 -24 -2 -62 -56 -69 -94 -29 -71 -40 -83 -88 -84 -93 -78 -1 -95 -55 -76 -45 0
69 72 68 27 1 96 -86 -58 -17 0
41 4 59 44 29 52 -10 -67 -32 -23 -65 0
9 94 -87 0
18 72 21 -8 -43 -35 -84 -28 -75 -7 0
4 48 10 59 50 30 92 87 41 32 83 65 5 94 81 91 39 54 35 80 69 27 84 22 15 96 74 52 67 -26 -44 -20 -79 -14 -88 -25 -17 -95 -38 -42 -7 -68 -90 -72 -18 -70 -71 -13 -29 -62 -93 -73 -6 -46 -2 -57 -47 -43 -3 -1 -61 -97 -34 -77 -76 -9 -16 -53 -11 -51 0
1 5 58 66 81 40 49 68 56 26 83 43 50 36 42 8 27 3 52 94 13 10 25 35 97 46 9 24 47 51 65 21 59 16 2 6 7 76 17 29 85 48 11 55 95 -19 -74 -28 -30 -60 -54 -4 -80 -92 -22 -44 -73 -39 -63 -53 -45 -41 -91 -20 -84 -62 -34 -93 -18 -64 -38 -75 -69 -70 -57 -87 -37 -72 -77 -12 -89 -15 -33 -61 -14 0
94 77 85 68 84 88 25 47 28 42 6 65 53 78 5 26 89 93 -43 -40 -19 -87 -96 -23 -33 -49 -97 -37 -22 -45 -46 -13 -92 -11 -27 -8 -14 -59 -58 -55 -48 -56 0
72 26 28 96 23 97 3 91 77 78 41 50 -88 -37 -5 -45 -94 -76 -20 -15 -92 -69 -48 -61 -1 -79 -54 -68 0
42 28 16 93 86 71 78 26 41 94 27 35 14 52 50 61 36 6 44 53 97 49 34 5 60 25 18 59 9 31 83 65 11 58 1 43 2 23 69 -48 -30 -90 -73 -81 -10 -88 -29 -74 -3 -55 -20 -95 -56 -54 -77 -32 -38 -21 -39 -45 -4 -33 -47 -17 -22 -62 -80 -57 -75 -84 -46 -37 -51 -85 0
5 3 2 33 11 92 41 85 56 -86 -14 -40 -34 -54 -73 -44 -61 -27 -69 0
55 62 37 25 96 19 28 88 44 35 16 9 20 43 49 38 12 85 57 15 4 67 65 79 74 1 69 -84 -24 -45 -58 -70 -66 -71 -40 -50 -21 -80 -48 -92 -3 -22 -36 -73 -68 0
-59 -76 -5 -15 -28 0
15 7 1 4 42 64 78 12 56 -90 -51 -61 -30 0
39 78 20 21 88 92 24 37 63 62 69 73 1 17 26 77 40 56 31 59 53 58 38 48 57 51 25 82 55 22 81 75 6 2 68 23 49 50 3 15 16 34 -42 -35 -47 -14 -54 -70 -32 -44 -18 -79 -28 -27 -96 -43 -41 -19 -61 -7 -76 -9 -36 -4 -46 -94 -64 -87 -12 -80 -84 -65 -85 -8 -33 -10 -45 -93 -67 -60 -91 -90 -74 -89 -30 0
4 26 39 38 92 29 43 5 82 33 78 10 -37 -28 -56 -64 -54 -88 -73 -2 -51 -70 -55 -77 -49 -36 -69 -31 -80 -96 -86 -84 -34 -74 -50 0
81 34 65 59 50 73 56 55 91 17 88 70 62 10 60 66 8 87 93 61 75 6 92 14 37 71 19 51 58 24 95 52 21 79 25 48 85 64 15 84 82 27 41 29 46 -63 -2 -9 -23 -57 -74 -32 -43 -72 -18 -20 -40 -53 -45 -26 -76 -80 -31 -5 -86 -1 -12 -36 -39 -13 -68 -42 -35 -3 0
62 44 84 82 39 52 69 28 65 30 41 8 4 1 43 58 57 75 70 48 68 -15 -55 -29 -23 -74 -96 -56 -76 -42 -97 -13 -85 -31 -86 -5 -88 0
26 12 41 31 87 67 36 61 16 6 68 48 84 51 57 -23 -63 -21 -62 -15 -88 -79 -34 -59 -25 -69 -30 -1 -45 -7 -64 -75 -52 0
8 65 35 1 76 81 53 46 41 82 80 62 78 28 66 67 20 14 16 44 19 83 27 55 89 5 4 96 38 36 22 42 77 87 88 94 21 48 23 59 6 58 75 2 -32 -95 -45 -26 -70 -84 -43 -3 -33 -29 -40 -25 -57 -47 -15 -92 -79 -71 -64 -17 -72 -49 -18 -31 -60 -90 -24 -37 -12 -30 -69 -85 -52 -97 -56 -86 -54 -9 -11 -50 -61 0
29 10 92 35 21 33 68 76 19 28 72 9 43 55 18 40 13 78 41 32 74 -73 -53 -20 -62 -46 -45 -58 -27 -17 -8 -49 -23 -51 -16 -67 -79 -39 -47 -93 -30 -70 -56 -86 0
47 41 39 16 78 51 88 56 85 7 95 42 72 21 75 22 1 40 67 83 24 35 48 50 44 92 60 45 46 87 30 4 61 12 28 31 2 27 89 18 49 -90 -20 -23 -9 -17 -19 -79 -91 -94 -25 -32 -8 -82 -65 -38 -59 -96 -58 -68 -73 -26 -33 -74 -10 -43 -97 -71 -11 -80 -15 -52 -70 -14 -37 -29 -76 -81 -53 -3 -55 -57 -69 -77 -93 0
22 61 10 19 51 24 71 62 67 59 40 44 26 37 57 54 66 -13 -2 -46 -55 -48 -94 -79 -8 -9 -1 -93 -27 -81 -50 -72 -25 -17 -28 -76 -38 -41 0
48 64 6 -60 -53 -89 -30 0
97 84 78 45 8 82 40 85 41 59 4 9 13 92 68 60 31 1 89 5 11 55 57 15 71 42 35 -83 -72 -86 -24 -39 -29 -26 -23 -76 -36 -19 -6 -44 -12 -25 -32 -20 -3 -21 0
52 74 86 22 65 89 95 61 49 77 25 45 32 10 14 83 84 46 93 9 63 70 17 79 16 72 71 18 75 30 21 88 5 69 53 7 62 64 55 97 31 47 59 82 56 37 12 60 66 -40 -4 -48 -28 -3 -23 -1 -15 -58 -54 -11 -29 -33 -19 -13 -92 -96 -78 -68 -42 -73 -44 -76 -85 -51 -91 -80 -2 -41 -50 -26 -36 -38 -27 -87 -20 -94 -57 -39 -67 -43 -6 0
23 92 71 53 80 45 60 72 46 56 1 89 85 63 57 21 3 39 69 49 88 42 7 84 24 97 44 65 96 91 82 -37 -51 -20 -26 -73 -78 -41 -67 -33 -54 -52 -38 -40 -29 -64 -5 -62 -17 -14 -68 -79 -31 -15 -87 -55 -11 -35 -34 -2 -90 -22 -50 -4 0
80 1 52 21 -81 -61 -74 -84 -13 0
29 67 45 17 53 72 25 18 9 34 11 6 57 76 32 51 35 70 92 22 -27 -95 -64 -43 -71 -48 -42 -19 -66 -60 -40 -68 -75 -88 -69 -13 0
42 62 8 79 75 46 82 5 64 26 33 44 72 55 35 89 74 61 67 38 1 65 23 -50 -97 -56 -10 -28 -93 -25 -58 -63 -91 -2 -40 -39 -60 -4 -13 -31 -21 -36 -17 0
61 4 15 85 87 14 76 88 33 26 75 22 96 13 48 68 47 63 2 74 59 30 70 16 44 -38 -42 -67 -84 -46 -89 -28 -50 -93 -1 -45 -23 -60 -57 -78 -91 -43 -52 -7 -56 -34 -18 0
66 3 82 44 20 13 27 78 53 52 36 61 87 41 69 26 57 58 22 48 30 24 85 55 51 68 -74 -73 -25 -77 -95 -47 -91 -14 -97 -59 -46 -19 -94 -12 -75 -84 -72 -31 -32 -39 -5 -16 -10 -60 -8 -71 -86 -7 -4 -42 -38 -23 -34 -92 -1 -17 -89 -29 -21 -2 -65 -93 -63 -96 -62 -50 -67 -33 -83 -80 0
5 14 94 83 42 34 92 6 88 -75 -20 -57 -32 -69 -51 -12 -11 -33 -67 -65 -82 0
96 80 73 53 49 42 97 36 54 1 86 35 82 81 32 3 92 58 -29 -67 -55 -62 -77 -23 -43 -76 -16 -14 -79 -88 -63 -68 -46 -74 -31 -59 0
66 67 43 26 71 33 58 44 42 10 68 29 50 62 18 95 24 64 85 23 19 78 69 20 5 21 57 12 93 28 79 92 -61 -46 -84 -47 -6 -88 -48 -63 -11 -74 -53 -16 -82 -7 -31 -34 -25 -77 -17 -87 -4 -97 -65 -41 -37 -14 -90 -56 -86 -80 -49 -30 0
74 39 76 48 70 95 47 71 91 46 79 16 63 3 21 60 24 84 78 31 40 32 17 18 57 33 13 35 82 2 43 77 45 41 73 72 50 36 42 4 25 96 30 75 7 28 80 86 -51 -44 -93 -27 -14 -29 -54 -52 -5 -88 -59 -49 -83 -15 -58 -55 -94 -9 -20 -69 -11 -90 -92 -37 -68 -10 -19 -1 -66 -64 -89 -67 -26 -34 -97 -85 -81 -62 0
77 95 51 16 5 84 31 88 11 33 56 9 90 81 91 20 19 74 42 68 13 75 24 93 47 27 89 65 14 40 70 85 46 35 63 8 67 92 41 79 48 64 52 55 15 44 25 57 37 62 78 96 58 54 53 -45 -66 -39 -83 -6 -38 -34 -26 -7 -29 -50 -71 -60 -72 -1 -32 -3 -73 -49 -12 -21 -87 -23 -59 -18 -69 -22 -80 -17 -2 -76 -43 -82 -86 -10 -61 -97 -36 0
66 62 90 -81 -25 0
15 53 73 11 94 55 51 3 63 1 85 9 76 27 5 45 56 10 22 64 61 2 24 75 42 68 28 59 57 62 30 77 95 83 33 21 19 46 -35 -23 -16 -66 -29 -92 -43 -26 -87 -71 -91 -80 -52 -32 -82 -49 -34 -72 -6 -36 -65 -86 -88 -38 -70 -13 -54 -37 -40 -14 -25 -90 -50 -8 -7 -74 -20 -93 -44 -47 -96 -60 -48 0
10 3 22 1 32 51 19 2 -13 -79 -31 0
19 58 40 34 29 61 83 72 46 16 74 43 73 85 11 -95 -14 -70 -45 -82 -55 -4 -63 -79 -90 -52 -68 -60 -12 -49 -26 -51 -38 -71 -10 0
90 78 42 49 36 66 52 76 16 35 89 91 12 32 61 3 1 30 17 23 81 53 11 4 43 95 31 45 -8 -44 -27 -21 -41 -83 -63 -51 -34 -7 -29 -50 -54 -25 0
66 33 78 79 94 41 4 37 42 95 40 69 67 61 91 68 27 90 84 85 97 20 21 24 57 65 18 52 59 81 54 83 -29 -93 -6 -64 -88 -48 -87 -13 -73 -8 -16 -76 -70 -45 -34 -14 -31 -5 -74 -25 -58 -22 -17 -50 -51 -36 -92 -3 -49 -1 -7 -39 -86 -44 -19 -55 -23 -77 -9 -11 -72 -75 -56 -15 -89 0
45 30 40 17 41 58 48 28 88 85 86 7 32 66 46 51 57 55 59 47 82 15 10 18 62 -22 -69 -37 -11 -23 -91 -34 -42 -24 -74 -54 -93 -65 -14 -36 -19 -49 -53 -80 -95 -92 -33 -6 -64 -56 -35 -97 -5 -61 0
49 7 52 82 66 84 42 38 9 29 8 57 31 93 4 37 71 27 21 73 20 -51 -11 -40 -58 -3 -43 -5 -70 -25 -36 -62 -90 -60 -33 -69 -45 -1 -41 -32 -13 -68 -94 -89 -10 -35 0
2 4 60 9 16 48 11 52 38 40 20 31 25 22 85 79 67 61 92 78 72 54 94 36 76 51 12 14 82 62 19 24 -23 -71 -91 -17 -53 -10 -18 -35 -50 -42 -41 -32 -26 -37 -49 -69 -87 -56 -73 -80 -44 -28 -45 -97 -89 -46 -96 0
55 66 33 30 19 38 67 53 -28 -59 -49 -52 -71 -78 -29 -88 -46 -9 -76 -91 -2 0
80 11 60 53 21 49 89 -72 -52 -12 -57 -62 0
52 33 67 49 85 32 86 66 34 48 19 96 56 88 74 50 79 70 29 93 14 90 15 63 58 23 2 3 31 6 54 87 20 37 9 28 53 57 82 -12 -40 -5 -92 -1 -43 -11 -17 -27 -72 -36 -75 -62 -59 -24 -44 -13 -84 -39 -55 -94 -45 -61 -65 -73 -83 -64 -89 -78 -69 -38 -35 -95 -30 -80 -26 -68 -77 -71 -81 -76 -4 -25 0
29 13 23 44 50 42 17 14 75 70 31 18 74 25 89 85 7 -83 -33 -57 -94 -39 -62 -60 -47 -95 -43 -38 -49 -34 -72 -66 -63 -9 -24 0
72 28 89 20 78 82 95 94 31 19 59 83 -11 -91 -73 -4 -38 -60 -51 -58 -6 -33 -50 0
1 13 97 30 25 91 40 77 83 62 38 23 41 3 21 80 87 28 74 84 11 17 59 94 10 69 18 56 29 53 48 8 76 19 35 26 -54 -51 -47 -20 -22 -33 -43 -36 -61 -9 -44 -79 -75 -27 -55 -49 -70 -92 -14 -67 -65 -4 -96 -34 -57 -93 -58 -16 -50 -7 -78 -15 -42 -31 -39 -89 -66 -24 -81 0
62 7 79 18 16 86 37 92 41 29 77 58 1 94 27 59 56 28 45 43 93 3 -20 -13 -50 -63 -25 -49 -33 -57 -78 -14 -75 -95 -38 -96 0
10 67 32 59 4 68 74 42 22 40 33 87 5 19 92 50 25 9 36 79 -2 -38 -16 -93 -13 -61 -58 -15 -30 -3 -81 -28 -96 -49 -84 -12 -69 -14 -71 -86 -45 -26 -46 -82 -43 -6 -17 -56 -72 0
70 29 85 47 50 42 93 76 25 63 58 28 71 26 -87 -73 -75 -40 -59 -33 -51 -53 -32 -65 -74 -24 -68 -39 -22 -44 -16 -52 -79 -23 -31 -55 -7 -6 0
36 15 46 88 37 2 26 62 54 19 -11 -71 -50 -42 -81 -30 -87 -27 -84 -20 0
23 81 31 16 79 17 18 8 94 76 57 19 36 37 28 51 15 40 88 25 85 96 44 30 73 93 1 29 27 65 39 49 43 87 7 32 35 72 67 82 13 78 84 48 4 95 62 12 86 24 89 68 2 -38 -34 -55 -97 -59 -26 -80 -64 -45 -47 -42 -11 -91 -53 -41 -21 -46 -50 -92 -14 -63 -71 -74 -77 -69 -60 -54 -33 -20 -83 -75 -5 -66 0
18 44 12 76 90 16 17 55 59 7 10 40 65 81 28 95 96 1 91 34 41 45 87 27 42 88 32 21 58 38 60 84 -49 -57 -82 -30 -22 -70 -36 -54 -89 -79 -78 -13 -46 -51 -37 -69 -33 -66 -14 -47 -24 -75 -35 -4 -20 -77 -62 -6 -11 -8 -31 -72 -43 -2 -74 -39 -26 -5 0
2 18 95 44 71 20 28 17 1 70 54 66 69 47 59 27 8 83 16 52 53 14 84 13 22 11 19 43 4 79 63 34 6 68 89 76 77 -31 -73 -90 -81 -41 -96 -67 -94 -23 -42 -37 -29 -38 -39 -10 -97 -46 -57 -33 -80 -65 -87 -48 -93 -5 -40 -74 -61 -62 -24 -51 -75 -7 -15 -72 -85 -25 -45 0
67 57 17 59 76 66 54 12 26 82 15 38 69 24 50 43 86 31 79 96 62 4 29 80 21 20 83 40 58 90 70 71 32 25 8 3 -23 -78 -93 -95 -48 -73 -35 -11 -55 -28 -36 -88 -77 -5 -91 -14 -42 -65 -97 -61 -18 -72 -7 -87 -94 -39 -64 -33 -16 -44 -10 -13 -68 -81 -45 -46 -85 -37 -34 0
50 93 58 9 28 92 30 23 84 10 76 40 83 35 14 65 62 97 41 22 5 54 46 29 2 90 26 75 57 64 20 38 24 32 52 -88 -94 -82 -45 -61 -12 -51 -4 -78 -21 -44 -27 -91 -59 -71 -47 -36 -73 -11 -16 -95 -60 -77 -31 -3 -13 -37 -86 -96 -7 -18 -69 -48 -49 -1 -6 -42 -17 -70 -80 -43 -67 -89 -33 -8 -74 -81 -72 -85 -63 0
26 17 71 86 75 19 16 68 95 33 82 22 65 25 97 80 43 76 15 1 4 9 69 93 8 64 72 78 38 21 20 10 67 3 6 51 89 60 5 88 13 83 58 84 42 49 48 23 35 54 -14 -90 -41 -87 -31 -79 -28 -7 -66 -12 -27 -44 -40 -34 -59 -30 -2 -50 -62 -92 -18 -45 -74 -24 -52 -29 -56 -73 -61 -57 -36 -91 -94 -39 -32 -70 -81 -47 -77 -96 -11 -53 -37 -85 -46 -55 0
37 59 48 17 1 82 92 88 2 11 30 93 56 25 71 63 4 62 40 8 87 60 72 9 79 66 47 94 24 27 36 6 49 21 97 69 42 7 -22 -84 -96 -52 -80 -74 -50 -33 -23 -89 -32 -20 -10 -83 -61 -76 -5 -57 -13 -77 -16 -46 -43 -31 -91 -68 -85 -51 -73 -19 -15 -28 -29 -86 -75 -41 -64 -70 0
56 93 53 79 27 2 52 43 6 47 59 31 39 13 11 68 17 21 91 73 23 32 48 87 15 10 14 22 19 45 28 34 57 88 70 55 18 4 84 65 41 96 75 94 -51 -76 -82 -25 -36 -63 -83 -77 -81 -46 -74 -29 -8 -9 -26 -95 -89 -7 -30 -58 -67 -12 -54 -33 -90 -78 -85 -62 -50 -64 -69 -20 -44 -16 -86 -66 -61 -72 -60 -5 -35 -92 -42 -24 -80 -49 -71 0
55 0
84 70 92 -12 -21 -87 -88 -44 -17 0
9 56 8 39 94 25 72 58 76 43 82 7 53 50 42 68 15 63 41 -28 -2 -95 -55 -45 -59 -81 -69 -73 -18 -90 -6 -74 -12 -34 -91 -88 -86 -22 -31 -26 -14 -87 0
25 5 69 83 40 73 23 32 12 82 38 11 13 27 68 30 70 86 2 1 57 76 79 42 50 44 49 26 46 81 72 52 8 24 53 35 -95 -80 -67 -85 -62 -19 -21 -54 -64 -74 -94 -58 -18 -89 -6 -91 -20 -63 -28 -29 -75 -77 -14 -17 -93 -10 0
84 27 15 13 36 12 90 41 81 60 9 75 6 4 40 31 54 64 76 19 87 70 51 -71 -16 -72 -8 -53 -61 -67 -92 -39 -24 -21 -35 -17 -23 -20 -10 -2 -29 -59 -22 -74 -55 -58 -97 0
19 62 43 21 49 29 5 25 42 59 6 72 60 12 73 75 89 96 4 34 74 9 82 40 56 14 23 88 57 67 91 7 83 86 15 31 50 70 71 37 -85 -52 -81 -10 -55 -92 -38 -26 -11 -93 -63 -53 -77 -61 -97 -33 -48 -32 -17 -76 -68 -47 -13 -28 -94 -8 -27 -16 -84 0
73 16 84 54 75 -3 -57 -39 -92 -59 0
16 90 73 40 61 56 48 37 68 21 60 4 29 45 14 47 8 31 65 52 42 15 41 72 7 55 25 62 -88 -26 -49 -51 -24 -38 -28 -94 -3 -71 -76 -86 -63 -17 -27 -79 -69 -13 -30 -35 -78 -34 -80 -57 -43 -44 -83 -12 -59 -87 -95 -58 -22 -70 -92 -89 0
73 86 79 52 82 71 -83 -29 -35 0
91 55 89 0
14 67 81 17 80 62 42 84 28 39 79 74 88 50 48 15 37 55 31 78 11 69 6 25 18 52 91 73 86 63 49 7 83 16 27 2 40 90 29 -32 -95 -1 -9 -53 -61 -20 -58 -38 -97 -8 -72 -12 -68 -33 -70 -47 -44 -85 -54 -35 -87 -45 -77 -76 -64 -24 -43 -21 -46 -19 -93 -75 -23 -13 -3 -57 0
49 74 40 91 59 25 31 4 12 15 90 70 14 20 83 81 97 75 41 52 45 32 65 94 69 66 24 38 82 36 58 -21 -50 -16 -17 -53 -34 -62 -57 -19 -85 -26 -88 -43 -78 -11 -30 -71 -29 -5 -47 -3 -8 -60 -1 -7 -27 -61 -37 -54 -96 -86 -87 -42 -80 -63 0
75 36 3 23 85 61 52 49 39 29 60 82 86 6 83 2 24 42 38 48 33 21 53 78 7 66 74 97 56 14 73 80 47 -44 -68 -37 -95 -93 -34 -81 -5 -84 -15 -76 -88 -67 -90 -71 -10 -9 -65 -72 -20 -63 -43 -79 -26 -19 -27 -46 -12 -45 -58 -54 -59 -64 -8 -30 -13 -41 -17 -91 -25 -55 -18 -62 -31 -32 -70 -1 -92 -77 0
74 41 64 -28 0
29 9 41 71 11 24 79 87 68 31 55 93 14 42 17 81 88 52 22 74 65 64 80 38 57 35 20 33 32 5 25 27 6 7 69 45 26 -3 -96 -53 -36 -43 -90 -76 -54 -39 -60 -50 -1 -15 -13 -47 -4 -86 -84 -19 -49 -73 -44 -78 0
33 86 63 65 8 79 1 83 68 88 77 34 51 24 52 -9 -44 -35 -12 -61 -81 0
96 90 32 38 10 47 6 57 95 97 2 61 54 9 81 65 16 93 37 67 40 39 24 12 34 -74 -44 -48 -21 -8 -62 -26 -92 -70 -88 -77 -25 -11 -79 -76 -17 -66 -4 -59 -51 -89 -33 -60 -27 -13 -52 -50 0
47 48 40 43 81 14 91 1 45 18 83 87 9 64 8 32 51 68 12 46 16 24 6 5 -85 -22 -59 -92 -80 -21 -10 -35 -93 -72 -57 -77 -2 -39 -60 -20 -3 -4 -30 -50 0
66 3 55 7 24 5 27 67 79 81 73 33 -59 -91 -97 -83 -47 -65 -68 -93 -87 -12 -84 -42 -90 -94 -43 0
1 15 16 57 9 10 72 77 76 56 94 34 51 20 38 41 80 37 12 49 93 85 30 48 46 -89 -64 -91 -26 -96 -6 -54 -50 -74 -21 -4 -25 -68 -81 -19 -5 -2 -22 -24 -60 -59 -45 -71 -18 -32 -69 -44 -78 -95 -52 0
35 89 38 96 72 22 23 60 65 62 87 1 94 30 85 49 59 42 53 25 93 58 2 76 56 9 40 75 27 61 70 86 13 -5 -33 -67 -45 -11 -12 -20 -81 -26 -7 -21 -66 -74 -15 -4 -64 -83 -97 -73 -54 -37 -84 -55 -29 -41 -71 0
8 32 46 43 5 53 49 13 40 97 25 7 12 -68 -18 -89 -84 -11 -1 0
52 33 9 -73 -65 -97 0
36 88 5 -63 -53 -90 -58 -24 -93 -85 0
31 57 63 12 27 50 35 72 76 78 81 5 96 6 32 64 25 71 92 49 11 67 20 46 23 87 39 61 7 83 36 38 16 69 28 22 75 10 80 97 21 -59 -14 -17 -34 -66 -62 -74 -41 -45 -86 -15 -51 -55 -19 -56 -4 -40 -95 -2 -9 -48 -84 -43 -37 -65 -26 -13 -94 -90 -53 -52 -44 -42 -30 -89 0
76 45 96 93 61 29 19 5 89 60 74 7 64 59 97 38 70 87 47 81 9 40 69 43 25 57 52 34 77 11 42 68 72 26 6 82 -30 -67 -8 -51 -54 -48 -24 -44 -35 -36 -65 -73 -84 -78 -85 -41 -58 -80 -50 -10 -92 -21 -2 -33 -14 -94 -13 -3 0
73 19 17 74 78 57 64 70 1 14 10 86 3 32 49 59 50 81 36 72 33 96 63 92 84 61 82 -29 -68 -39 -6 -5 -76 -69 -23 -67 -31 -66 -83 -25 -13 -21 -18 -12 0
89 43 80 35 44 51 85 1 27 56 6 34 66 49 17 73 97 10 41 37 5 19 70 84 72 94 83 18 38 87 46 93 30 11 68 4 82 75 88 36 59 13 7 -20 -74 -8 -29 -50 -21 -64 -53 -57 -92 -77 -23 -63 -86 -55 -3 -60 -24 -14 -52 -78 -79 -90 -62 -16 -9 -2 -31 -28 -45 -47 -71 -96 -81 -26 0
18 19 64 42 84 97 43 96 39 50 9 35 59 11 80 5 95 74 -66 -15 -91 -22 -62 -71 -14 -36 -67 -90 -37 -57 -41 -56 -12 -68 -46 -21 -23 -30 -16 -53 -10 -94 -34 -72 -3 -88 -92 -83 0
44 73 17 13 61 78 36 26 96 56 89 2 19 15 27 52 93 76 6 24 25 90 -65 -62 -18 -70 -49 -3 -92 -51 -12 -58 -75 -30 -14 -45 -88 -60 -94 -77 -47 0
32 91 53 6 89 78 39 3 48 67 -28 -71 -41 -10 -34 -19 -86 -76 0
8 83 80 58 63 64 86 14 26 82 20 23 89 90 25 12 24 6 2 57 75 95 39 65 -35 -16 -7 -61 -73 -70 -13 -46 -1 -54 -69 -62 -18 -52 -27 -49 -74 -91 -85 0
24 42 87 68 49 91 47 9 90 31 81 8 75 52 36 59 30 79 38 96 19 20 83 43 14 39 13 70 78 16 74 76 67 37 -66 -5 -53 -84 -93 -29 -58 -82 -51 -69 -27 -86 -64 -71 -55 -32 -63 -89 -22 -17 -88 -21 -35 -77 -7 -41 -10 -46 -11 -18 -48 -50 -4 -6 -25 -92 -33 0
32 77 71 72 23 82 68 33 1 34 9 51 10 42 76 54 36 14 50 56 90 64 97 20 79 -49 -43 -24 -95 -12 -80 -29 -84 -47 -17 -22 -94 -11 -21 -2 -65 -48 -5 -26 -30 -63 -59 0
9 46 91 11 63 82 36 39 57 18 -72 -12 -44 -80 -84 -45 -97 -3 0
10 34 21 46 66 86 52 48 69 92 91 6 23 81 -59 -1 -40 -43 -37 -70 -25 -42 -4 -58 -62 -55 -7 -76 -18 -82 -96 -15 -90 0
72 55 -57 -83 -86 0
72 27 82 64 24 63 18 39 20 33 44 79 57 77 71 30 13 97 76 12 54 67 68 94 87 -11 -52 -48 -49 -5 -85 -42 -50 -59 -40 -22 -93 -2 -43 -70 -23 -61 -6 -66 -15 -14 -31 -10 -46 -74 -55 -3 -4 -19 -92 0
48 6 28 51 69 37 38 34 10 27 89 3 17 22 46 77 24 75 65 35 78 64 21 41 71 94 33 67 9 74 96 18 90 53 57 66 -70 -42 -25 -85 -81 -2 -23 -68 -93 -31 -72 -91 -79 -45 -20 -4 -95 -29 -36 -97 -62 -50 -7 -49 0
11 44 21 94 45 90 9 40 89 52 81 72 65 73 86 75 37 8 47 3 55 92 57 82 25 23 28 69 19 27 17 -22 -10 -95 -39 -13 -33 -15 -63 -54 -14 -66 -79 -30 -18 -16 -60 -43 -35 -68 -29 -46 -77 -64 -31 -20 -61 -36 -87 -59 -88 -78 -50 -24 0
52 6 46 69 16 25 54 41 30 42 47 76 79 57 37 3 38 78 23 59 68 18 -58 -32 -60 -26 -63 -74 -95 -81 -66 -22 -90 -86 -50 -73 -94 -45 -4 -5 -64 -20 -43 -80 -53 -77 -82 -55 -51 -61 -13 0
46 86 10 69 76 35 84 95 89 77 49 32 17 97 80 56 75 38 11 16 59 12 34 21 6 65 1 5 67 87 47 33 -7 -74 -72 -82 -41 -57 -91 -13 -51 -24 -64 -79 -44 -42 -40 -68 -4 -45 -9 -70 -48 -54 -60 -26 -96 -90 -29 -53 -25 -63 -43 -37 -8 -94 -58 -61 -73 -23 -15 0
67 47 28 43 30 26 71 51 95 5 80 74 14 12 56 86 36 55 27 57 35 22 66 48 42 50 68 59 -62 -19 -83 -9 -52 -85 -29 -20 -63 -58 -33 -40 -3 -18 -37 -96 -2 -73 -93 -32 -11 -97 -10 -34 -53 -91 -21 -78 0
