c NeuroCodeBench 2.0 CNF formula with verdict Sat
p cnf 29 240
15 5 -14 -24 -4 0
25 26 15 5 23 17 20 18 8 6 21 7 10 -3 -27 -24 -14 -19 -29 -4 -2 -16 0
16 22 18 2 -10 -8 -9 -6 -28 0
20 22 28 13 24 14 19 9 5 -3 -16 -11 -4 0
13 24 17 15 14 -22 -19 -20 -12 -1 -7 -8 0
29 2 26 7 16 10 -3 -25 -4 -15 -14 -21 0
9 22 11 15 4 21 29 14 17 10 19 -16 -5 -2 -27 -8 -26 -28 -23 -3 -12 -24 -25 -7 0
16 25 27 23 3 11 18 10 28 21 17 13 15 5 -20 -29 -12 -22 -4 -8 -1 -7 -9 -14 -2 -19 -26 0
17 19 16 4 8 3 13 15 28 5 18 7 29 21 -14 -24 -1 -20 -25 -11 -27 -2 0
3 25 22 19 17 11 14 24 -29 -12 -2 -18 -21 -20 -13 -16 -9 -7 -23 -15 0
25 27 16 15 23 28 9 5 6 3 19 1 -29 -20 -17 -24 0
9 17 -1 -24 -10 -8 0
20 14 11 10 21 16 5 -13 -12 -15 0
17 19 28 15 11 18 2 16 14 22 -26 -21 -5 -9 -3 -12 -10 -13 -24 0
5 27 7 24 -11 -23 -22 -6 0
28 14 19 18 9 23 4 11 10 2 29 -3 -17 -5 -22 -26 -27 -21 -7 -24 -8 -12 -25 0
28 4 8 -25 -12 -15 0
16 12 25 22 28 10 24 4 20 13 27 -11 -29 -26 -17 -23 -9 -1 -6 -8 -18 -15 -7 -19 -5 0
7 22 16 -6 0
26 3 22 24 15 12 14 -17 -28 -27 -25 -21 -5 -23 -13 -18 0
-29 -10 0
18 15 2 19 1 23 3 29 26 9 4 11 8 14 5 22 7 20 24 16 12 -13 -27 -28 -17 -10 -6 0
18 26 8 29 13 27 2 15 4 22 9 19 -23 -20 -10 -5 -21 -28 -3 -12 -17 -11 -25 0
5 26 3 24 12 28 9 7 15 14 25 1 20 6 21 22 16 -29 -2 -18 -13 -17 -4 -23 -27 -19 -11 0
15 12 19 29 20 8 23 21 13 22 1 -17 -18 -9 -11 -27 -14 -24 -26 -28 -25 0
7 6 22 23 28 16 -8 -25 -5 -29 -26 -21 0
17 4 14 29 18 27 16 3 12 10 -20 -19 -22 -28 -21 -5 -9 -15 -6 -23 -2 -25 -24 -7 -1 -8 -26 0
26 28 18 22 13 0
25 12 19 4 2 -6 -21 -27 -24 0
1 2 20 7 12 24 13 17 21 -29 -9 -28 -22 -3 -18 -19 -26 0
20 24 7 4 26 21 22 1 6 12 16 13 3 5 8 -15 -18 -28 -27 -29 -23 -17 0
26 11 1 25 28 4 20 9 3 21 18 12 7 -13 -14 -23 -2 -10 -27 -8 -16 -5 0
19 23 17 29 28 -5 -11 -1 -21 -24 0
2 10 23 20 19 16 26 12 7 5 28 -22 -4 -24 -14 -27 -9 -21 -25 -13 -6 -8 -1 -17 -15 -3 -29 -11 0
15 24 26 -6 -13 -25 -14 -27 -9 -23 -22 -20 -19 0
22 0
3 27 6 21 15 23 20 18 28 7 1 25 26 29 17 5 -13 -24 -19 -9 -10 -14 -4 -2 -22 -12 -16 0
18 5 27 21 8 9 1 2 28 13 -14 -25 -12 -16 -11 -19 -3 0
8 10 25 7 19 9 14 28 23 17 -20 -5 -6 -12 -26 -3 -13 -24 -22 -27 -11 -2 -16 -4 -29 0
4 -23 0
-15 0
5 -25 -27 0
1 26 11 19 13 23 -20 -6 -21 0
10 20 15 -26 -25 -3 -12 -2 -14 0
8 22 2 21 10 12 28 7 -23 -3 -16 -24 -6 -9 -17 -4 -11 -27 0
2 18 20 7 21 16 22 19 27 15 12 28 1 4 26 6 24 25 11 -8 -14 -9 -17 -5 -10 -29 0
22 24 17 18 21 28 11 26 1 -15 -2 -10 -14 -8 -23 -7 -16 -6 0
4 20 18 9 28 25 29 17 26 5 8 23 13 19 27 2 14 7 10 16 -15 -11 -3 -22 -12 -24 0
21 2 11 9 22 4 14 16 18 7 23 10 -5 -3 -29 -28 -25 -12 -6 -19 -15 -27 -1 0
2 14 9 25 17 18 29 26 24 4 28 27 -20 -8 -22 -21 -23 -6 0
18 12 -3 -20 0
27 23 25 4 22 -21 -10 -17 -9 -24 -11 0
4 1 16 -7 -25 0
21 5 6 28 13 2 17 27 15 7 14 22 26 -10 -20 -11 -19 -16 -23 -4 -18 -29 -25 -3 -1 -24 0
26 20 7 2 3 -27 -5 -24 -11 -28 -10 -23 0
9 24 7 1 17 27 12 -13 -3 -6 -19 -11 -4 -18 -20 -14 -22 -26 -25 -15 -10 -28 -21 -8 0
18 12 4 25 -17 -26 -23 0
15 4 -8 -27 -23 0
8 -21 -9 -3 -4 -27 0
17 24 10 2 5 19 28 3 21 18 14 -7 -15 -1 -23 -8 -4 -29 -13 -9 -26 0
11 16 9 20 2 18 8 4 5 3 25 28 14 -23 -10 -21 -12 -27 -19 -17 -26 -24 -7 -15 -13 -22 0
7 19 15 18 -24 -1 -16 0
2 27 6 5 16 4 8 14 17 12 20 29 18 11 23 -25 -1 -10 -26 -3 -9 -22 -13 -19 -21 0
5 18 27 24 26 3 25 22 23 20 14 4 6 8 13 21 19 -16 -11 -29 -1 -2 -10 -12 -28 -17 -9 0
25 2 24 7 28 17 11 14 8 9 23 27 -6 -4 -15 -20 -21 -1 0
10 28 24 6 -8 -22 -17 -26 -16 -12 -4 -3 0
28 7 13 4 14 -18 -2 -23 0
26 24 17 19 14 -10 -7 -9 -15 -18 -21 -23 -12 0
18 9 12 28 -15 -4 -19 0
9 24 5 -19 0
5 13 15 8 18 26 1 19 7 27 21 22 9 6 23 20 4 -11 -16 -2 -12 -14 -28 -29 -25 -24 -3 -10 0
5 15 1 11 -17 -13 -16 -4 -24 0
24 23 17 29 10 8 11 26 16 -12 -28 -5 -20 -6 -18 -1 -22 0
4 19 13 7 23 24 9 20 22 2 -8 -18 -6 -5 -11 -25 -27 -15 -14 -26 -17 0
11 2 18 17 21 8 3 29 13 20 -9 -7 -24 -1 -6 -14 -22 -4 -19 -26 -12 0
10 14 22 7 13 28 8 -15 -20 -29 -6 -23 -24 -5 -17 -11 0
10 20 29 25 12 2 4 21 23 17 -1 -15 -8 -11 -16 -22 -3 -24 -5 -19 0
9 8 10 27 18 3 24 4 16 25 17 22 11 14 2 23 -26 -7 -19 -6 -15 -28 -21 -29 -20 -12 -1 0
19 21 1 13 7 5 15 28 17 24 -23 -10 -11 -20 -6 -25 -26 -22 -3 -2 0
5 7 14 27 3 -25 -29 -9 -4 -18 -11 0
3 2 10 21 7 20 28 9 11 12 4 -13 -26 -24 -17 -15 -1 -16 -23 0
13 22 8 4 16 21 27 20 2 -9 -15 -11 -3 -5 -25 -7 -12 -18 0
7 -22 -16 0
11 23 1 3 4 -24 -29 -21 -27 -26 -9 -19 0
17 19 10 8 23 4 9 3 14 16 2 22 -20 -27 -13 -18 -21 -1 -12 -5 -6 -11 -28 -29 -25 -7 0
2 -26 0
25 11 -9 -15 0
28 5 23 2 29 12 10 -6 -16 -24 -17 -19 -8 -9 -4 -21 -27 -7 -26 -20 -25 0
-6 -9 0
11 14 15 24 4 -19 -17 0
19 22 5 23 29 2 18 11 13 10 4 3 -15 -20 -25 -12 -24 -8 -28 -26 -21 -7 0
24 20 4 18 17 1 27 6 15 28 9 16 -19 -3 -29 -13 -21 -8 -23 -22 -26 -10 0
10 20 26 2 1 24 -14 -12 -21 -29 -16 -17 -19 -25 -22 -28 -9 -13 -4 -18 -3 -6 -8 0
29 17 5 22 10 9 20 4 1 7 14 21 -13 -27 -2 -3 -25 -18 -8 -11 -28 -26 -16 -24 -15 -23 -19 0
22 6 13 27 5 10 3 8 12 4 15 28 2 -17 -11 -19 -1 -7 -24 0
6 11 1 -27 -25 -26 -4 -24 0
18 29 -13 -3 -23 0
11 12 25 15 19 27 28 22 -5 -10 -17 -9 -13 0
15 16 6 28 27 29 7 -10 -23 -25 -18 -3 -13 -14 -2 0
-27 0
8 18 15 16 22 26 28 23 -27 -13 -1 -11 -4 -3 -19 -29 -9 -25 -20 -5 -17 -14 -6 0
24 8 23 22 10 15 13 29 19 -3 -20 -7 -17 -5 -16 0
4 28 -22 -24 -10 0
20 -15 -11 -19 -4 -10 0
5 11 20 -10 -6 -29 -28 -15 -1 -23 -13 -12 -19 0
23 8 6 7 5 21 9 14 29 12 17 -25 -24 -19 -27 -10 -11 -22 -3 -15 -20 -13 0
11 6 24 22 -8 -14 -9 -13 -17 -7 -26 0
15 9 12 23 16 28 14 5 1 -18 -19 -4 -8 -13 -25 -3 -11 -29 -20 -6 -21 -22 -17 0
15 12 9 3 11 26 6 8 -21 -1 -16 -10 -18 -14 -19 -27 -24 -23 -22 0
14 3 21 8 27 2 17 12 24 23 9 -19 -22 -10 -26 -25 -28 -20 -13 -4 -16 -18 0
18 21 28 22 26 -16 -8 -17 -6 -27 -19 -13 -4 -29 0
12 10 24 6 22 -7 -11 -23 -2 -29 -17 -16 -4 -19 -5 -8 -20 -26 -3 0
23 20 26 7 16 9 29 18 21 -11 -25 -8 -2 -27 -12 -15 -1 0
5 27 -24 -11 -16 -26 0
7 4 27 12 18 16 22 11 29 20 -17 -8 -2 -28 -15 -1 -19 -9 -3 -26 -10 0
10 -13 -20 -21 -27 -19 -28 0
24 13 21 5 2 20 10 15 14 8 -19 -4 -18 -7 -1 -29 -28 -11 -16 -9 -17 0
3 13 20 19 17 1 10 4 21 8 -7 -18 -5 -16 -12 -27 -24 -14 -15 -22 -25 0
29 2 18 22 14 -23 -8 -28 0
4 6 8 20 12 21 19 26 14 13 2 27 28 29 23 1 -25 -17 -24 -3 -7 -18 -11 -16 -22 -9 -15 0
3 8 9 15 13 19 4 25 16 1 29 27 26 -7 -10 -20 -6 -21 -24 -23 -5 -17 -22 -28 0
12 5 23 27 25 18 -17 -26 -4 0
2 24 13 28 16 8 22 14 26 18 3 10 23 -4 -11 -15 -7 -29 -12 -9 -21 -17 -27 -5 0
21 6 5 16 10 20 28 2 11 12 22 19 18 7 -17 -1 -24 -14 -3 -13 -9 -4 -26 0
6 17 25 -26 -2 -14 -11 0
11 27 24 13 29 28 16 9 10 -3 -6 -19 -12 -1 -20 0
4 25 2 27 -23 -16 -22 -5 -28 -1 0
10 14 4 19 28 23 29 8 7 13 -1 -24 -18 -21 -15 -11 -26 -9 -3 -6 -12 -16 0
17 21 18 25 14 9 12 29 13 1 2 26 8 -6 -23 -3 -20 -5 -16 -10 -28 -7 -22 -27 -24 0
-16 -9 0
17 9 1 -27 -15 -23 -13 -11 0
18 23 1 2 15 12 14 26 5 21 -11 -6 -24 -27 -8 -17 -29 -22 0
21 18 27 17 25 -24 -12 -29 -20 -16 -15 -22 -10 0
15 10 4 1 21 11 16 29 8 28 12 -17 -26 -22 -9 -3 -27 -19 -24 -7 -13 0
-13 0
28 12 1 15 26 6 20 24 3 2 17 4 22 11 14 27 -10 -5 -19 -9 -18 -13 -21 -23 0
6 22 4 2 10 23 11 27 17 13 -19 -1 -24 -12 -8 -29 -26 -14 -25 -9 -7 -18 -20 0
10 18 14 21 7 16 25 15 -20 -12 -5 -8 -28 -4 -27 -23 -29 -9 0
16 28 7 5 14 21 3 23 -9 -15 -27 -17 -26 -25 -4 -22 0
22 15 10 16 3 7 19 14 21 18 5 6 -25 -20 -24 -11 -23 -12 -4 -26 -29 -8 0
5 24 23 2 27 8 28 29 9 4 10 1 12 11 3 25 26 -20 -15 -19 -18 -22 -16 -6 -21 -17 0
18 12 6 8 5 25 2 26 -11 -24 -16 -23 -9 -27 -4 -22 -29 -28 -17 -10 0
22 24 15 0
16 3 11 18 23 26 1 13 21 14 17 5 -8 -27 -7 -19 -4 -15 -10 -28 -2 -12 0
18 28 25 16 19 15 7 1 3 -4 -29 -8 -12 -6 -27 -11 -13 -24 -2 -26 0
21 20 23 8 25 -15 -6 -11 0
11 23 20 21 27 2 4 15 24 3 28 10 -6 -19 -16 -7 -26 -29 -12 -25 -18 -1 -9 -13 -22 0
26 14 4 15 7 21 13 1 29 9 -25 -24 -3 -12 -20 -18 -5 -2 0
20 11 24 26 14 1 7 12 23 3 2 16 -13 -4 -21 -29 -5 -8 -15 -6 -25 0
8 11 10 13 23 24 4 29 12 2 5 -3 -17 -6 -16 -18 -20 -25 -27 -9 -7 -1 -14 -19 -28 -22 -21 0
10 15 14 20 -7 -19 -24 -3 -13 0
7 26 6 14 27 16 23 -25 -18 -10 -4 -20 0
2 12 18 20 28 9 29 6 14 7 17 -26 -8 -22 -23 -19 -10 -5 -11 0
28 27 12 15 -5 -18 -25 -4 0
13 24 23 18 2 11 9 1 28 25 17 -6 -10 -27 -26 -4 -7 -19 -8 -16 -20 -15 -22 0
1 22 -14 -27 -9 -6 -3 -23 -4 -26 -28 -17 -24 -18 -13 -21 -16 -15 -7 0
22 13 0
11 7 3 17 23 2 6 9 28 5 18 25 27 21 4 1 -19 -24 -15 -8 -10 -29 -22 -20 -13 -14 -12 0
9 17 15 14 2 1 22 28 19 11 13 12 29 21 26 10 16 -20 -18 -4 -23 -6 -5 0
20 15 16 4 5 13 26 18 7 11 12 27 9 3 19 -1 -2 -10 -8 -25 -28 -24 -23 -6 -29 -17 0
1 28 14 21 10 22 12 7 6 3 27 24 5 9 23 -18 -26 -16 -20 -4 -17 -13 -8 -11 0
4 11 28 26 29 20 17 23 16 5 1 19 18 -24 -9 -13 -14 -8 -12 -3 -10 -21 -27 -2 0
5 21 15 17 20 23 25 7 10 16 -14 -18 -8 -27 -29 -26 -13 -24 -11 -19 -28 -22 -6 -1 -2 -12 -3 0
4 13 8 26 10 22 24 1 23 19 9 -2 -6 -5 -15 -11 -12 -17 -14 -20 -16 -27 -18 -3 -28 -25 0
7 5 25 -29 -11 -28 -3 -26 0
27 5 -11 -24 -18 0
18 14 13 12 10 25 7 2 22 17 -3 -4 -16 -26 -15 -20 -23 -5 -11 -8 -28 -9 -24 -6 0
16 12 7 4 -22 -9 -15 0
9 24 10 14 8 -16 -18 -27 0
5 17 27 -23 -6 -22 -7 -9 -25 -15 -4 -10 -24 -8 0
19 16 -11 0
20 19 -25 -3 -1 0
7 23 25 22 -17 -19 -2 0
19 7 29 14 17 15 1 24 22 20 28 8 27 25 13 -11 -10 -23 -16 -6 -21 -4 -2 0
16 28 1 14 15 17 25 6 -3 -10 -20 -27 0
8 17 23 1 25 -11 -6 -29 -4 -12 -14 0
15 4 19 27 0
15 21 25 26 6 27 18 5 28 12 2 3 9 4 8 -20 -7 -10 -13 -23 -17 -22 -1 -16 -29 0
10 13 8 14 16 24 -29 -11 -26 -17 -20 -28 -2 -1 0
17 7 16 20 13 18 14 23 27 19 -9 -8 -26 -5 -1 -15 -3 -11 -4 -29 -12 0
22 -3 0
13 15 25 10 1 14 5 16 23 19 9 22 -4 -8 -11 -12 -21 -27 -26 -17 -18 -29 -24 0
6 17 13 5 -3 -2 -19 -27 -10 -16 -21 -28 -8 -20 0
29 8 19 7 23 1 14 -26 -6 -13 -22 -2 0
13 8 20 -6 -19 -16 -28 -1 -24 -23 0
16 28 20 27 1 -29 -23 -14 0
14 26 12 27 29 20 23 -24 0
15 8 2 12 1 11 9 -3 -21 -17 -27 0
22 14 29 10 16 8 2 28 11 25 26 15 3 20 13 9 -6 -19 -23 -12 -21 -5 -24 -17 -7 -27 -4 0
23 17 19 20 16 -2 0
18 13 22 -28 -10 -3 -29 -21 -11 0
14 11 7 4 -24 -27 -5 -8 0
23 10 13 11 28 -5 -12 -27 0
15 4 23 27 19 -17 -6 -10 -12 -29 -14 0
-11 -26 -8 0
25 2 3 13 6 8 9 19 11 16 26 20 21 -17 -14 -1 -4 -24 -10 -7 -15 -18 -28 -23 -22 -12 -29 -27 0
13 14 12 18 8 15 20 6 -23 -4 -19 -5 -10 -27 -11 -22 -25 0
22 10 25 8 7 12 17 23 27 19 14 4 29 -18 -2 -15 -20 -21 -28 -9 -26 -5 -16 -3 0
2 8 25 26 23 20 29 22 10 4 -7 -17 -15 -19 -1 0
2 16 17 3 5 7 -21 -9 -1 -20 -24 -6 -25 -8 -11 -4 0
15 7 8 29 16 -11 -4 -5 -23 -1 -3 -12 -18 0
12 24 17 11 5 6 23 9 19 25 1 20 -16 -18 -4 -27 -3 -14 -2 -26 -22 -7 -21 -8 0
20 3 24 22 13 14 -23 -29 -9 -19 0
27 3 -9 -25 -1 0
-14 0
7 6 19 28 23 9 3 8 -21 -20 -14 -26 -11 -27 -24 -29 -25 -22 -2 0
12 15 4 14 29 26 17 -18 -28 -1 -25 -13 -16 -21 0
-5 0
22 18 10 9 15 19 14 8 25 17 20 23 27 -1 -5 -21 -3 -2 0
29 14 22 19 9 6 28 12 -24 -23 -13 -4 -7 -18 0
9 11 14 18 -8 -6 -19 -23 -1 -4 -17 -2 0
22 27 29 15 11 -10 -28 -4 -2 -18 -26 -16 -14 0
3 17 24 23 20 1 11 2 6 -22 -26 -18 -28 -27 -4 -12 0
4 1 26 3 20 -12 -19 -13 -21 0
19 24 27 20 28 2 14 6 23 4 5 -16 -9 -17 -12 -22 -8 -1 -13 -21 -25 -11 -18 0
4 8 1 29 9 -2 -5 -10 -23 -21 -16 -15 -11 -19 0
5 2 21 25 7 10 -24 -12 -9 0
6 17 20 14 -27 -19 -29 -18 -5 -12 0
29 1 25 23 7 -9 -22 -26 -15 -4 -14 -21 -6 -11 -5 0
4 19 18 29 23 22 28 6 26 -21 -9 -14 -1 -7 -16 -24 -8 -27 -25 -13 -10 -15 0
29 20 6 10 22 3 11 7 5 9 4 21 25 24 -2 -26 -14 -28 -8 -15 -1 -27 -19 -16 -13 -17 -23 -12 0
11 1 22 25 20 24 26 -23 -29 -9 -21 -2 -6 0
24 12 26 15 10 11 9 20 14 23 -22 -28 -18 -1 -8 -5 0
17 11 19 5 6 1 28 3 15 20 9 -12 -14 -23 -7 -8 -4 -26 -29 -2 -24 -22 -27 0
8 -4 -7 -18 -14 -9 0
27 12 7 26 -16 -17 -23 -11 -24 0
27 23 8 6 2 18 19 17 15 29 9 10 -12 -20 -21 -1 -5 -24 0
10 22 1 3 14 27 7 21 26 19 29 6 28 9 4 18 23 17 -20 -2 -11 -24 -5 -16 -25 -13 0
21 16 18 22 29 3 15 28 -2 -8 -6 -13 -7 -20 -5 -12 0
13 12 23 -4 -3 -24 -1 -8 -10 -17 -22 0
4 2 29 15 23 24 19 17 3 25 -6 -11 -9 -27 -8 0
13 6 18 15 2 23 24 7 8 27 16 14 26 -29 -25 -3 -28 -10 -9 -12 -5 -17 0
27 19 28 24 3 17 12 14 -18 -6 -7 -8 -25 -9 -11 -10 -5 -26 -29 -4 -23 0
15 1 9 21 3 26 27 13 22 17 18 -10 -23 -16 -7 -19 -20 0
24 28 26 15 2 4 -21 -20 -9 -25 -19 0
22 8 26 -24 -28 0
24 21 19 27 23 28 22 8 26 7 17 1 20 5 12 11 10 3 13 -16 -6 -9 -14 -2 -4 -25 -15 -29 0
23 11 7 26 10 3 25 -5 -1 -21 -28 0
12 29 25 27 18 1 20 7 2 17 19 13 -22 -14 -26 -16 -6 -10 -5 -23 -9 -8 -21 -28 0
21 12 28 16 1 10 2 27 25 7 14 3 24 26 -23 -29 -18 -6 -4 -15 -19 -8 0
