c NeuroCodeBench 2.0 CNF formula with verdict Sat
p cnf 98 359
51 15 84 96 65 23 19 26 29 92 63 25 36 82 34 90 40 83 94 9 6 72 54 57 64 78 49 42 14 59 87 11 89 74 31 32 21 58 88 66 55 85 30 69 56 93 44 13 75 -53 -5 -27 -46 -50 -62 -28 -68 -8 -43 -76 -2 -41 -16 -3 -24 -95 -79 -12 -39 -20 -1 -97 -71 -86 -60 -18 -67 -73 -48 -22 -37 -35 -38 -45 -4 -91 -80 -81 -47 0
18 10 65 76 33 34 36 54 26 94 55 20 13 19 1 80 45 64 83 79 95 16 62 71 72 44 53 9 88 22 73 61 15 50 68 21 37 66 5 3 84 57 78 23 41 14 89 81 60 56 74 49 -63 -7 -24 -31 -93 -75 -92 -38 -39 -85 -40 -2 -30 -32 -48 -8 -91 -52 -77 -4 -17 -12 -97 -28 -11 -46 -25 -35 -42 -69 -43 -47 -58 -59 -98 -51 -90 0
66 82 41 18 81 71 80 77 51 75 54 45 -27 -29 -3 -36 -68 -37 -95 -12 -59 -91 -24 -30 -49 0
55 77 45 2 79 70 56 35 14 16 97 21 -36 -74 -4 -59 -94 -34 -32 -3 -49 -44 -88 -24 -37 -52 -23 -19 -27 -69 -58 -10 -25 -95 -86 -48 -26 -29 0
88 57 39 87 94 10 28 35 20 27 79 78 32 7 93 74 18 72 96 73 56 55 63 25 21 17 38 70 46 29 36 44 2 -95 -65 -61 -33 -62 -77 -37 -82 -51 -5 -3 -34 -75 -54 -6 -30 -19 -12 -97 -8 -22 -58 -49 -31 -53 -40 -66 -76 -47 -69 -4 -89 -45 -52 -43 -64 0
23 41 2 74 21 29 26 58 6 62 50 18 31 53 82 22 17 72 11 19 76 45 96 90 20 69 3 15 13 63 47 79 78 57 30 16 42 14 40 1 33 61 75 65 95 7 92 94 -80 -66 -25 -71 -44 -9 -8 -24 -60 -49 -89 -36 -91 -98 -34 -85 -12 -77 -93 -83 -56 -37 -10 -46 -52 -54 -88 -38 -28 -97 -48 -70 -64 -86 -84 -73 -5 -51 0
24 37 61 3 7 32 30 87 28 10 82 25 70 76 88 58 2 26 90 54 35 53 55 14 56 60 85 17 81 89 45 78 94 42 48 -67 -96 -72 -9 -5 -68 -51 -80 -4 -31 -44 -86 -63 -91 -40 -50 -46 -65 -27 -98 -8 -47 -23 -13 -92 -73 -1 -12 -36 -64 -21 -79 -83 -59 -71 -20 -39 -19 -62 -22 -16 -34 0
93 63 5 13 88 17 64 55 56 48 2 4 83 8 81 11 43 66 65 97 59 75 58 -30 -57 -76 -91 -67 -27 -98 -70 -84 -53 -77 -68 -85 -33 -15 0
-22 -25 -15 -70 -19 0
57 13 17 56 26 39 50 34 94 -65 -58 -28 -23 -46 -80 -52 -64 -75 -37 -11 0
52 13 10 12 96 39 81 55 18 43 45 4 33 82 5 58 19 93 46 24 71 77 42 88 69 -41 -67 -85 -56 -38 -3 -61 -64 -6 -80 -54 -63 -30 -40 -73 -68 -94 0
86 40 75 44 59 21 18 23 69 94 30 80 50 52 62 -3 -14 -16 -84 -37 -60 -58 -71 -76 -82 -65 -31 -27 -6 -1 -66 0
39 34 27 41 12 29 50 58 60 24 16 26 51 94 19 98 74 56 61 5 62 17 79 87 31 85 73 96 18 80 20 37 67 23 3 30 72 68 9 11 77 52 15 28 -35 -22 -2 -75 -78 -32 -36 -43 -44 -54 -65 -42 -70 -40 -57 -82 -46 -90 -81 -95 -33 -89 -48 -14 -8 -13 -69 -84 -49 -66 -6 -7 -64 -45 -1 -38 -83 -21 -91 -92 -71 -47 -88 -4 -86 -63 -10 -59 -97 -76 -55 -25 -53 0
5 39 7 56 9 34 46 77 96 35 16 69 30 85 65 22 15 8 27 90 51 95 40 13 29 70 32 3 28 86 4 31 -36 -98 -61 -14 -68 -73 -84 -97 -45 -87 -44 -89 -81 -17 -60 -43 -83 -52 -82 -33 -23 -10 -42 -94 -50 -93 -72 -41 0
29 57 3 28 82 86 52 12 41 71 74 73 92 42 44 50 77 78 8 54 49 11 36 -19 -91 -55 -33 -46 -70 -40 -39 -7 -10 -65 -31 -26 -21 -90 -72 -32 -51 -4 -81 0
68 65 42 -76 -19 -73 -22 0
25 85 86 28 75 47 13 5 44 67 78 94 92 29 52 59 71 82 10 91 17 81 55 97 15 66 79 88 60 49 45 57 7 72 19 4 9 90 23 3 74 96 95 89 61 69 40 32 56 73 41 62 31 -65 -87 -58 -53 -20 -48 -21 -50 -42 -30 -80 -93 -26 -2 -38 -34 -84 -12 -63 -8 -83 -70 -1 -68 -46 -36 -18 -22 -35 -6 -37 -51 -27 -64 -98 0
2 95 98 24 81 68 9 8 54 35 79 80 60 58 86 10 82 90 55 34 13 56 97 51 49 33 65 96 42 43 76 61 22 37 50 84 15 53 5 67 26 85 94 29 1 -57 -45 -19 -25 -74 -27 -23 -83 -36 -16 -87 -30 -11 -69 -32 -21 -73 -28 -39 -7 -44 -31 -3 -91 -18 -17 -66 -93 -40 -38 -89 -47 -75 -71 -62 -59 -12 -63 -70 -52 -88 -20 -78 -64 -14 -72 0
47 86 73 6 36 52 60 55 41 92 96 30 12 85 18 72 16 50 2 81 95 11 23 63 14 35 39 64 19 74 49 54 1 24 93 9 46 59 7 82 69 51 56 20 37 62 17 43 42 -84 -75 -29 -78 -70 -66 -22 -10 -89 -91 -32 -98 -67 -5 -31 -80 -57 -4 -25 -34 -90 -8 -71 -88 -87 -97 -15 -94 -3 -53 -79 -77 -33 -28 -61 -44 -65 -26 -13 -68 -38 -48 -40 -27 -76 -83 0
10 26 83 96 81 33 23 82 13 93 29 15 2 9 61 73 48 36 74 86 -95 -45 -53 -31 -78 -89 -41 -69 -3 -94 -4 -14 -27 -19 -5 -68 -32 -34 -51 -24 -87 -39 -20 -59 -42 -50 -63 -67 -54 -8 -21 -70 -18 0
17 98 10 57 78 34 8 76 53 28 14 58 70 44 54 68 27 9 81 86 26 1 72 91 52 47 5 41 74 88 24 56 92 79 89 22 -50 -61 -83 -31 -38 -95 -18 -67 -66 -65 -16 -43 -84 -64 -60 -80 -23 -73 -35 -21 -33 -62 -82 -40 -63 -4 -97 -2 -11 -6 -96 -12 -49 -93 -51 -36 -48 -46 -30 -75 0
68 54 75 35 50 73 15 87 51 58 14 61 93 2 -39 -12 -78 -5 -10 -47 -70 -72 -60 -48 -59 -57 -53 -30 -42 -43 -56 -71 -80 -67 -81 -86 0
9 81 36 7 55 48 54 44 56 46 15 79 86 8 35 92 64 32 12 74 23 4 84 40 97 58 75 34 87 60 5 -27 -51 -77 -30 -71 -62 -93 -26 -19 -43 -83 -42 -90 -38 -22 -18 -59 -89 -50 -68 -73 -10 -85 -24 -6 0
67 61 82 6 58 20 21 8 84 33 89 92 87 68 24 42 40 71 38 25 45 19 22 56 64 12 73 4 -1 -31 -10 -36 -72 -93 -43 -50 -16 -44 -76 -2 -14 -18 -15 -95 -17 -46 -98 -57 -94 -60 -34 -35 0
38 20 68 42 40 97 60 -8 -81 -5 -70 -3 -30 -24 -28 -83 -35 -80 -90 -95 -31 0
61 77 87 4 42 51 84 54 79 96 75 30 31 85 23 98 25 89 26 17 29 15 94 -39 -34 -57 -95 -63 -52 -49 -28 -93 -82 -46 -47 -27 -65 -20 -16 0
47 27 96 75 16 90 72 33 97 70 62 40 83 45 58 7 73 22 9 53 46 14 82 3 6 92 54 11 88 41 89 78 64 23 84 49 29 4 63 86 74 81 65 66 44 42 -32 -57 -1 -59 -25 -79 -24 -15 -34 -50 -98 -18 -36 -61 -80 -21 -8 -68 -67 -94 -10 -38 -55 -17 -87 -91 -30 -76 -60 -31 -26 -43 -39 -37 -20 -95 -71 -93 0
17 14 25 92 43 90 89 76 12 54 40 77 18 -22 -67 -49 -21 -13 -24 -26 -23 -27 -10 -36 -41 -79 -55 0
88 83 16 52 -54 -7 -71 -69 -95 -76 -15 -9 0
74 98 93 22 76 3 41 43 71 45 81 82 92 56 42 28 -37 -40 -73 -77 -21 -17 -36 -12 -78 -23 -35 -94 -60 -50 -9 -2 -19 -25 -57 -13 -44 -97 -54 -11 0
4 53 97 18 28 59 95 43 42 68 71 60 63 56 15 9 92 8 75 1 89 96 23 55 -80 -61 -93 -26 -14 -33 -17 -82 -22 -65 -36 -64 -32 -13 -40 -12 -39 -30 -10 -21 -66 -52 -70 -90 -29 -67 -20 -50 -84 -74 0
37 91 40 19 71 26 96 67 14 34 18 17 46 7 47 64 80 13 66 57 1 92 29 12 48 25 38 65 43 89 45 59 87 82 35 52 32 36 85 95 -11 -16 -55 -9 -4 -44 -94 -54 -8 -15 -78 -63 -6 -77 -30 -50 -61 -3 -93 -31 -2 -62 -90 -69 -51 0
44 73 35 75 96 61 7 90 53 20 28 10 69 41 85 29 52 56 54 95 -34 -70 -17 -24 -2 -1 -98 -21 -64 -57 -55 -23 -76 -27 -91 -60 -38 -71 0
9 70 68 97 86 61 96 94 51 13 47 38 2 60 93 19 71 74 84 34 -54 -39 -7 -36 -46 -4 -35 -81 -1 -31 -65 -26 -75 -8 -21 -92 0
23 12 96 16 35 27 63 30 2 18 36 56 38 40 5 73 26 17 83 34 47 42 97 82 41 20 68 -25 -81 -93 -66 -74 -88 -72 -13 -4 -92 -65 -15 -49 -94 -75 -39 -85 -53 -95 -60 -77 0
24 23 34 56 3 22 12 54 16 -35 -14 -1 -94 -44 -50 -71 -51 0
65 26 51 36 37 82 29 71 75 88 21 83 25 7 48 27 39 31 49 52 57 63 24 34 18 87 95 42 16 6 41 -22 -94 -62 -55 -68 -92 -9 -40 -79 -74 -78 -35 -89 -28 -64 -66 -17 -56 -23 -50 -19 -85 -5 -90 -84 -2 -14 -45 -67 -73 -3 -59 -96 -43 -93 -53 -15 0
56 98 19 29 39 62 43 34 73 94 48 74 8 50 51 83 20 63 84 77 37 97 61 31 17 5 91 3 1 38 65 22 95 49 57 15 80 -16 -33 -23 -71 -70 -40 -42 -69 -11 -72 -12 -44 -13 -46 -30 -26 -27 -90 -89 -35 -60 -24 -82 -81 -67 0
87 59 12 90 80 18 64 26 98 35 91 21 63 61 13 33 79 3 40 95 7 20 30 52 15 55 92 1 24 28 42 69 51 -11 -74 -16 -58 -39 -2 -56 -62 -32 -57 -82 -43 -66 -76 -46 -53 -36 -78 -14 -8 -94 -77 -83 -85 -68 -31 -93 -5 -81 -9 -48 -4 -45 -44 -17 -60 -41 -27 -89 -29 0
92 83 60 11 36 40 44 59 51 89 22 69 41 1 55 82 77 50 19 86 25 97 90 31 94 70 56 76 54 17 45 64 15 65 85 96 48 91 74 10 37 -75 -46 -18 -62 -4 -72 -73 -84 -53 -26 -98 -32 -24 -95 -87 -21 -52 -29 -78 -27 -57 -13 -81 -80 -2 -63 -9 -61 -5 -58 -33 -66 -8 -34 -39 -30 -35 -68 -79 -49 -3 -20 -12 -93 -38 -23 -43 -67 -7 0
43 64 87 4 81 76 27 66 59 31 17 36 25 34 68 83 58 33 56 22 42 85 84 51 63 30 20 9 29 70 53 97 -46 -93 -67 -1 -12 -39 -16 -19 -94 -92 -23 -91 -50 -2 -32 -38 -55 -98 -77 -73 -15 -10 -40 -86 -75 -89 -35 -18 -65 -82 -88 -90 -48 -8 -37 -72 -69 -14 -60 -5 0
66 89 45 26 14 75 69 79 44 58 77 40 82 15 83 35 30 94 19 65 62 67 17 13 70 10 9 39 32 34 68 -1 -33 -36 -57 -51 -87 -50 -31 -81 -24 -88 -95 -61 -80 -21 -4 -84 -43 -28 -74 -53 -71 -18 -23 -55 -85 -59 -16 -48 -25 -92 0
93 76 90 58 5 72 67 88 30 15 22 12 79 96 53 4 56 19 84 42 37 60 73 92 95 20 43 87 45 47 10 46 48 98 -66 -36 -49 -16 -55 -63 -28 -74 -54 -2 -18 -21 -75 -1 -61 -41 -35 -34 -86 -31 -6 -29 -78 -38 -71 -50 -89 -51 -85 -39 -80 -11 -27 -23 -94 -62 -57 -8 0
50 61 26 62 66 48 12 11 58 88 93 77 56 14 3 73 96 83 71 32 51 89 84 69 60 29 6 91 8 42 80 87 30 81 13 57 27 -97 -63 -23 -15 -65 -45 -4 -68 -2 -5 -47 -53 -75 -46 -54 -52 -25 -21 -10 -94 -64 -18 -85 -24 -44 -90 -28 -74 -33 -98 -86 -38 -36 -78 -76 -70 -40 -82 0
2 58 95 72 51 24 8 46 45 15 60 54 40 26 49 74 42 68 67 4 73 89 -12 -3 -56 -93 -84 -37 -7 -92 -90 -69 -62 -33 -25 -43 -36 -11 -96 -87 -13 -81 -10 -6 -18 -77 -70 -9 0
96 17 54 16 70 86 57 3 35 28 -89 -39 -67 -71 -95 -66 -79 -32 -31 -81 -22 -56 -87 -88 0
70 83 41 9 24 73 38 37 42 69 -95 -14 -86 -51 -80 -71 -72 -54 -89 -19 -62 -22 -43 -85 -91 -53 0
81 57 97 74 -17 -86 -15 -27 -72 0
81 26 52 24 47 1 51 63 83 44 92 78 -48 -40 -55 -34 0
3 85 81 4 93 62 9 1 61 68 18 79 97 44 74 73 64 2 41 46 69 19 59 66 45 82 29 57 63 7 15 39 22 92 53 25 50 6 78 65 17 -13 -89 -56 -33 -76 -83 -35 -49 -34 -8 -16 -98 -26 -20 -87 -90 -48 -31 -88 -5 -12 -47 -27 -95 -23 -91 -28 -67 -75 -94 -11 -40 -32 -43 -71 -77 -86 -37 -10 -21 -38 -72 -51 -58 -54 0
44 57 33 13 86 -80 -7 -31 -45 -3 0
23 19 4 84 27 17 96 28 40 50 8 74 98 41 35 73 86 95 46 57 15 54 -29 -10 -97 -34 -66 -90 -21 -7 -13 -14 -94 -72 -25 -76 0
47 84 86 91 41 55 15 34 85 11 38 32 19 7 40 45 5 87 51 53 -44 -24 -18 -33 -75 -76 -74 -64 -66 -93 -78 -31 -72 -36 -81 -80 -73 -79 -49 -42 -26 -65 -29 0
18 37 35 8 61 60 1 2 27 54 51 41 13 4 87 26 29 73 38 86 25 74 23 75 7 28 97 42 76 40 17 81 88 69 19 39 93 12 20 47 46 30 66 5 64 -36 -32 -45 -48 -96 -90 -22 -89 -85 -6 -55 -63 -59 -15 -34 -14 -24 -98 -53 -31 -50 -44 -94 -33 -95 -72 -78 -71 -79 -9 -43 -68 -16 -49 -52 -80 -56 -67 -57 -65 -11 -3 -83 -58 -91 -92 -84 -82 -77 -10 -70 0
40 53 12 26 13 85 55 69 1 75 94 73 43 27 37 84 46 23 45 57 19 14 10 5 77 96 4 78 11 36 18 34 25 24 6 15 -39 -95 -98 -38 -79 -59 -52 -49 -70 -97 -80 -44 -72 -86 -21 -9 -16 -32 -76 -33 -93 -17 -68 -51 -48 -71 -2 -54 -91 -89 -83 -30 -87 -58 -60 -82 -65 -62 -92 -29 -22 -88 -64 -28 -67 -8 -3 -7 0
55 71 90 25 39 58 62 94 -93 -98 -97 -88 -48 -80 0
36 96 69 93 82 89 40 72 64 41 68 80 48 24 17 18 43 29 47 70 26 84 -33 -28 -2 -35 -9 -98 -39 -7 -32 -22 -44 -50 -21 -62 -75 -83 -45 -86 -1 -38 -3 -66 -13 -92 -23 -16 -59 0
72 42 64 26 86 83 9 35 56 69 66 23 -15 -89 -67 -91 -73 -18 -90 -19 -55 -34 -33 -30 0
18 28 83 25 69 49 39 10 76 9 5 56 73 94 59 37 67 86 74 60 40 88 64 6 13 50 -26 -38 -43 -80 -70 -32 -79 -21 -90 -61 -27 -46 -17 -48 -93 -2 -54 -35 0
80 34 7 52 87 63 20 81 88 45 21 22 6 17 49 92 68 19 76 70 82 -14 -1 -62 -11 -44 -29 -66 -60 -50 -56 -65 -24 -41 -89 -64 -95 -13 -37 -15 -35 -75 -59 -51 0
21 14 -26 -96 -23 -54 -50 -83 -82 -97 -10 -62 0
36 74 13 22 69 32 4 44 89 28 94 90 15 40 82 72 10 51 91 29 88 46 14 39 25 97 71 66 5 96 85 18 63 3 61 34 17 70 -54 -53 -84 -19 -83 -60 -20 -6 -37 -42 -31 -45 -1 -23 -47 -93 -41 -86 -76 -33 -43 -35 -49 -52 -21 -77 -78 -95 -62 -98 -2 -26 -92 -81 -58 -8 -64 -9 0
35 6 67 60 7 58 38 69 29 -49 -31 -21 -92 -33 0
89 18 80 35 2 56 74 9 27 92 6 33 71 73 87 31 97 45 69 -53 -81 -38 -50 -85 -60 -19 -84 -93 -64 -22 -49 -72 -10 -66 -68 -5 -21 -48 -11 -42 0
32 74 40 45 96 84 29 33 18 9 70 30 59 93 58 71 92 80 82 10 73 98 78 65 23 43 90 76 24 15 28 16 37 12 44 95 54 25 86 52 42 61 64 60 87 -69 -2 -20 -97 -56 -57 -77 -91 -4 -35 -31 -21 -51 -38 -72 -22 -88 -75 -34 -79 -66 -14 -48 -36 -83 -19 -41 -5 -81 -6 -49 -63 -17 -89 -85 -50 -67 -3 -55 -94 -8 -1 -46 -47 -11 -7 -53 -39 -13 -26 -62 -68 0
1 27 58 33 69 41 28 11 68 18 13 16 73 70 84 74 21 54 49 40 80 85 94 71 9 96 89 82 50 79 87 2 -15 -34 -67 -64 -25 -23 -51 -76 -75 -31 -56 -92 -45 -95 -37 -46 -12 -20 -63 -81 -8 -32 -88 -57 -36 -59 -62 -47 -65 0
82 65 33 16 13 71 47 98 42 79 31 14 2 15 54 84 55 61 91 19 18 78 56 37 89 86 36 35 60 48 94 76 80 -3 -11 -59 -17 -9 -25 -7 -8 -53 -81 -4 -73 -29 -68 -22 -5 -58 -44 -32 -6 -26 -67 -30 -57 -66 -21 -85 -63 -23 -1 -69 -45 -50 -24 0
19 42 34 16 41 68 56 78 67 61 26 74 31 91 73 92 44 32 70 94 64 3 5 48 45 57 81 72 6 54 85 8 75 36 22 2 52 69 30 62 49 33 82 98 55 29 12 35 -7 -4 -1 -50 -28 -18 -76 -39 -65 -93 -79 -66 -46 -21 -27 -14 -96 -59 -97 -63 -38 -40 -47 -15 -9 -53 -17 -77 -23 -11 -90 -43 -89 -80 -58 -88 -24 -10 -95 -25 0
25 11 -69 0
6 42 72 33 18 25 82 75 27 70 57 62 22 55 73 3 13 26 68 29 8 91 38 63 37 7 46 23 20 16 34 28 5 50 51 -93 -60 -87 -1 -97 -43 -65 -86 -76 -15 -30 -78 -49 -61 -71 -54 -56 -88 -64 -69 -32 -79 -44 -90 -89 -85 -4 -98 -24 -59 -67 -47 -52 -14 -31 -19 -95 -48 -21 -74 0
39 50 34 53 31 20 23 10 5 43 74 6 28 40 56 89 62 96 30 25 16 44 32 69 68 29 15 65 97 21 87 57 37 71 66 3 19 60 93 11 72 81 47 91 83 7 45 92 14 -77 -49 -64 -26 -54 -85 -12 -90 -79 -82 -22 -95 -86 -78 -73 -24 -75 -35 -4 -76 -33 -8 -27 -58 -98 -80 -55 -63 -70 -17 -41 -61 -38 -59 -18 -51 -13 -88 -1 -84 -9 -36 -52 -46 0
72 90 60 68 71 31 2 88 20 82 28 48 44 87 64 81 14 15 76 40 3 98 18 70 33 57 84 29 23 30 27 93 95 94 -89 -35 -11 -36 -59 -75 -22 -10 -97 -39 -92 -26 -45 -91 -17 -6 -50 -86 -34 -85 -66 -78 -46 -58 -53 -9 -42 -43 -19 -25 -65 -13 -7 -51 -67 -49 -41 -21 -62 -38 -8 -61 -96 -32 -55 -47 -24 -56 -5 -83 -77 -79 -69 -12 -80 -1 -74 -63 -54 -16 -73 -4 -52 0
10 33 7 63 8 95 50 83 51 54 74 71 56 29 72 23 88 66 12 42 65 67 52 37 30 14 81 86 40 68 16 46 69 49 73 24 22 85 48 84 28 60 90 43 78 76 41 3 -91 -75 -55 -2 -4 -44 -35 -89 -93 -57 -59 -5 -79 -38 -77 -92 -6 0
79 3 40 38 63 33 47 81 56 36 87 25 83 39 50 22 86 98 -71 -1 -6 -4 -31 -12 -65 -95 -69 -84 -91 -7 -32 -34 -15 0
77 26 71 6 -94 -15 -1 0
80 65 22 61 4 96 12 31 39 68 69 10 47 1 44 5 -40 -64 -42 -32 -74 -54 -93 -94 -88 -23 -37 -50 -46 -76 -83 -45 -82 0
19 62 87 96 75 78 65 81 47 22 18 33 97 14 5 20 30 79 67 10 86 31 46 54 95 27 48 16 73 90 50 43 94 24 42 -72 -64 -60 -1 -85 -53 -45 -17 -71 -80 -92 -66 -89 -40 -55 -59 -70 -68 -21 -8 -11 -63 -32 -41 -74 -3 -91 -25 -34 -82 -98 -77 -2 -69 -38 0
30 20 49 10 98 83 38 55 31 53 51 28 36 34 37 50 89 -46 -43 -74 -5 -52 -57 -24 -78 -72 0
13 44 37 52 75 46 12 21 18 17 66 70 15 91 73 33 56 27 20 16 57 7 77 61 42 72 1 38 53 84 97 8 62 31 9 -10 -29 -59 -39 -60 -28 -87 -25 -36 -76 -30 -34 -49 -83 -2 -11 -26 -69 -90 -89 -4 -48 -43 -88 -41 -22 -96 -86 -23 -19 -35 -24 -40 -54 -94 -95 -58 -74 -50 -68 -55 0
57 79 40 33 84 63 45 28 64 94 68 36 14 61 19 6 70 34 4 8 44 11 27 -98 -85 -86 -88 -20 -37 -7 -18 -5 -3 -29 -16 -50 -60 -2 -39 -25 -10 -87 -56 -51 -41 -78 -97 -30 0
70 22 52 92 65 43 -79 -24 -28 -56 -91 -17 -80 -38 0
79 27 60 26 74 10 43 97 55 -19 -96 -37 -63 -36 -47 -5 -38 -14 -51 -39 -32 -33 -7 -13 -73 -30 -42 -21 0
35 92 58 53 9 28 51 30 96 45 19 87 97 71 91 72 14 36 54 90 26 83 7 42 84 76 68 77 48 64 40 50 4 43 61 3 80 32 95 33 2 17 74 57 39 -59 -86 -21 -89 -11 -27 -65 -88 -62 -1 -5 -15 -63 -24 -8 -23 -6 -38 -55 -85 -69 -10 -60 -22 -82 -49 -73 -20 -79 -25 -41 -81 -12 -56 -75 -31 -98 -52 -37 -67 -47 -18 -94 -29 -70 -46 0
40 7 84 98 81 35 26 73 65 9 92 32 51 86 48 58 91 62 96 97 74 68 57 61 -43 -4 -95 -67 -10 -25 -33 -46 -77 -29 -27 -76 -38 -19 -12 -5 -53 0
24 1 10 81 51 70 13 39 89 42 80 38 60 43 19 72 88 26 68 75 40 98 61 77 85 55 9 45 -25 -34 -27 -94 -4 -67 -56 -30 -58 -91 -12 -35 -28 -97 -66 -22 -5 -65 -3 -95 -11 -7 -37 -63 -8 -79 -32 -92 -31 -47 -71 -96 0
15 19 69 31 -24 -10 0
47 89 59 75 86 80 96 55 62 -40 -92 -46 -16 -35 -34 -65 0
96 74 63 47 66 1 3 85 28 29 38 16 39 56 10 15 14 87 36 75 52 58 48 68 51 21 22 76 95 -31 -69 -41 -73 -33 -23 -64 -81 -60 -59 -90 -44 -88 -20 -65 -98 -84 -72 -49 0
60 69 26 68 73 50 82 98 3 47 95 38 49 33 81 48 46 7 42 75 34 -55 -92 -54 -76 -89 -36 -72 -6 -77 -58 -5 -52 -12 -8 -35 -88 -32 -90 -10 0
91 17 86 77 -88 -67 0
28 16 65 25 55 66 83 67 48 1 47 26 79 89 33 80 73 78 8 82 58 9 71 43 52 4 -54 -70 -18 -51 -69 -56 -14 -22 -98 -76 -77 -15 -35 -45 -96 -93 -23 0
5 37 30 91 6 69 64 83 65 24 51 68 74 75 1 47 44 58 29 26 27 93 9 13 21 56 89 70 4 87 71 97 77 16 49 7 45 60 67 -22 -33 -17 -59 -35 -78 -61 -38 -95 -62 -72 -46 -94 -54 -85 -23 -82 -50 -96 -39 -43 -73 -57 -86 -36 -66 -42 -84 -92 -40 -88 -32 -76 0
27 96 72 -28 -93 0
56 32 51 59 53 93 76 75 52 50 1 13 69 -41 -42 -54 -89 -27 -19 -33 -16 -31 0
58 31 53 34 -94 -6 -30 -98 -62 -92 -90 -59 -26 -4 -69 -64 0
82 19 2 49 70 45 24 67 30 18 25 42 57 8 10 78 33 15 60 56 13 16 88 1 73 3 32 89 55 97 12 84 44 7 23 26 65 63 71 90 -69 -52 -50 -96 -37 -58 -83 -47 -87 -80 -11 -51 -98 -29 -6 -48 -77 -27 -59 -94 -41 -35 -64 -75 -79 -54 -68 -74 -92 -93 -31 -14 -34 -53 -9 -5 0
89 90 50 30 57 81 6 10 67 21 45 62 3 25 79 9 41 51 42 28 71 -31 -37 -83 -27 -12 -70 -63 -60 -97 -84 -54 -16 -35 -22 -72 -11 -13 0
21 98 7 94 97 15 67 30 24 8 20 72 41 60 42 57 55 87 83 78 81 27 26 92 62 17 89 3 44 70 34 11 32 56 86 53 75 47 12 -43 -6 -91 -68 -28 -74 -9 -5 -50 -73 -10 -61 -25 -52 -71 -66 -40 -77 -51 -46 -13 -82 -59 -18 -80 -85 -49 -88 -95 -4 -2 -90 -96 -33 -37 -63 -79 -45 -58 -48 -31 -64 -76 -69 -1 -19 -65 0
86 50 18 38 12 61 25 60 94 81 26 76 71 74 58 79 73 46 23 51 3 85 29 17 13 98 33 24 56 5 31 4 65 53 55 28 82 16 45 52 69 90 -27 -34 -84 -72 -11 -64 -20 -15 -78 -89 -19 -87 -92 -91 -80 -44 -37 -97 -36 -70 -22 -62 -57 -21 -2 -42 -83 -9 0
36 30 38 43 81 87 70 32 20 79 86 41 29 66 55 39 22 45 88 92 48 64 59 78 96 49 54 13 9 53 62 67 93 76 21 28 27 34 15 40 31 6 57 23 68 89 71 14 25 60 10 46 2 84 82 44 77 52 -95 -75 -5 -12 -33 -37 -1 -73 -8 -4 -94 -90 -7 -19 -26 -3 -17 -18 -11 -69 -24 -50 -80 -58 -85 -72 -16 -65 -83 -56 -35 -47 -98 -91 -42 0
59 58 13 54 90 52 45 96 37 51 64 33 16 18 44 82 93 10 43 92 28 53 85 29 94 65 57 34 26 76 1 66 -60 -67 -74 -40 -30 -62 -46 -12 -7 -70 -79 -95 -22 -89 -88 -5 -87 -47 -19 -73 -84 -15 -75 -11 -32 -69 -63 -77 -49 -71 -68 -27 -48 -38 -6 -4 0
38 7 20 68 44 11 49 35 28 67 21 43 -85 -86 -3 -47 -46 -9 -10 -27 -58 -23 0
5 61 31 53 58 88 41 37 83 55 36 74 78 85 52 90 71 24 92 96 60 27 32 81 11 95 77 16 1 -42 -14 -86 -45 -57 -98 -46 -23 -30 -49 -54 -75 -65 -29 -63 -7 -76 -38 -47 -12 -82 -72 -69 -68 -70 -40 -19 -91 -66 0
46 52 69 34 62 68 87 84 63 93 79 18 4 1 72 57 91 48 95 31 7 44 -19 -73 -74 -41 -14 -75 -22 -23 -89 -59 -97 -47 -86 -32 -98 -25 -21 -64 -94 -6 -17 -85 0
8 12 61 51 29 73 15 84 30 37 38 3 68 24 33 91 23 32 49 4 50 72 63 26 42 79 77 27 90 21 22 83 17 5 -78 -11 -98 -35 -88 -67 -74 -66 -53 -6 -81 -2 -14 -10 -19 -36 -58 -76 -62 -44 -89 -39 -94 -9 -20 -96 -47 -40 -70 -56 -41 -28 -97 -7 -34 -95 -85 -1 -57 -25 -82 -65 0
12 84 -49 0
69 35 38 46 22 13 12 18 70 4 16 89 54 -78 -85 -33 -83 -94 -61 -50 -44 -28 -3 -92 -29 -45 -59 -93 -5 -39 -40 -47 0
78 59 98 41 74 90 53 43 42 36 7 89 63 9 69 85 21 57 22 48 38 44 72 -6 -81 -32 -68 -91 -96 -12 -19 -26 -17 -14 -37 -82 -47 -61 -8 -4 -86 -1 -20 -39 -55 -73 -10 0
38 62 40 32 67 30 59 3 2 31 93 15 4 16 11 72 19 63 28 86 20 92 66 24 69 42 1 23 45 76 78 12 75 10 35 88 -50 -47 -90 -85 -14 -73 -26 -68 -41 -6 -27 -7 -51 -13 -48 -55 -82 -98 -37 -25 -49 -52 -18 -43 -56 -34 -53 -84 -57 -22 -70 -33 -46 -97 -5 -8 -83 -65 -95 -87 -21 -60 -54 -58 -77 -36 -80 -71 -74 0
31 88 84 59 78 1 34 64 61 73 18 23 68 74 86 43 50 92 17 58 71 30 49 37 79 51 72 38 -90 -7 -57 -19 -32 -10 -28 -44 -95 -97 -54 -85 -45 -62 -3 -60 -29 -87 -33 -9 -77 -83 -47 -39 -70 -69 -22 0
24 19 35 18 70 56 62 83 65 98 85 77 55 45 67 79 72 97 11 42 58 46 88 16 -7 -48 -49 -27 -86 -80 -66 -90 -9 -96 -73 -47 -82 -15 -50 -32 -20 -3 -93 -43 -54 -31 -64 -1 -12 -5 0
39 55 73 26 1 2 51 -28 -10 -80 -37 0
-7 -41 -57 -19 0
90 92 58 33 3 65 38 21 61 7 17 53 15 32 47 22 34 78 52 66 2 46 20 75 41 81 9 37 89 39 79 8 59 69 23 84 13 44 94 82 29 6 60 43 5 30 50 -74 -18 -24 -25 -55 -98 -45 -28 -56 -19 -40 -16 -26 -80 -72 -95 -87 -85 -70 -57 -93 -11 -54 -42 -71 -27 -77 -35 -91 -88 -62 -48 -64 -96 -63 -68 0
15 95 49 87 2 73 50 60 31 3 53 -54 -64 -81 -35 -90 0
55 51 3 31 23 29 69 56 14 67 2 84 16 9 88 75 32 6 49 21 48 11 53 62 5 -19 -30 -24 -57 -70 -71 -76 -79 -73 -95 -72 -25 -77 -96 -7 -37 -8 -64 -52 -34 -45 0
97 74 49 3 46 95 42 34 5 59 35 73 37 82 72 62 96 51 33 14 36 25 79 8 4 10 26 86 24 67 41 80 29 65 81 -7 -45 -38 -93 -55 -43 -56 -91 -76 -69 -57 -44 -70 -52 -83 -23 -92 -13 -15 -98 -6 -60 -31 -22 -2 0
54 37 27 66 84 25 22 35 93 30 31 74 91 42 94 16 85 4 88 86 52 9 55 20 57 61 78 50 90 80 87 73 40 77 82 34 56 5 68 41 11 43 -15 -36 -89 -53 -13 -12 -7 -97 -6 -83 -17 -8 -67 -3 -29 -14 -33 -21 -75 -60 -48 -98 -70 -71 -65 -38 -76 -18 -19 -1 -63 -24 -59 -69 -23 -28 -64 -32 -81 -72 -47 -39 -44 -45 -95 -10 0
29 11 44 69 43 2 48 49 51 5 31 83 30 23 66 17 88 28 61 67 98 62 70 93 8 20 92 90 73 72 64 1 -75 -42 -22 -58 -87 -78 -45 -63 -3 -16 -97 -65 -91 -40 -50 -7 -25 -89 -35 -18 -26 -41 -57 -9 -52 -95 -15 -81 -79 -46 -80 -53 -47 -85 -10 -96 -36 -34 -82 -56 -6 -24 -59 0
75 84 98 5 87 50 72 80 29 56 22 88 -34 -10 -15 -95 -43 -40 -91 -71 0
94 28 62 47 39 49 40 8 -52 -43 -20 -33 -64 -12 -65 -89 -36 -27 0
60 68 2 25 23 69 92 1 5 94 81 33 3 85 76 97 22 -70 -27 -9 -4 -43 -44 -75 -39 -24 -29 -21 -65 -82 -36 -51 -89 -37 -42 -14 -58 -13 -87 -54 -95 -30 -8 -59 -67 0
75 68 46 72 45 94 51 73 25 40 28 85 22 2 80 14 56 41 27 96 24 59 86 5 33 31 57 17 66 95 39 55 89 12 77 58 13 21 81 79 -15 -65 -49 -9 -54 -8 -36 -26 -87 -35 -74 -20 -10 -90 -34 -76 -38 -4 -52 -61 -64 -71 -19 -84 -83 -43 -70 -18 -47 -48 -62 -78 -42 -11 -92 -53 -29 -67 -6 -97 -88 0
27 17 18 6 10 43 78 53 13 65 14 33 57 51 19 52 75 58 98 3 1 48 74 77 -47 -88 -28 -70 -67 -91 -84 -94 -45 -80 -32 -68 -92 -21 -11 -29 -50 -66 -36 -8 -2 -86 -35 -23 -61 -55 -54 -59 -83 -87 -60 -89 -41 -79 -72 0
83 17 96 29 98 31 12 87 76 26 49 81 19 64 79 88 67 35 68 28 82 33 57 37 56 22 53 13 16 75 74 93 11 46 97 55 5 90 92 86 60 45 25 63 -15 -27 -21 -54 -7 -89 -34 -10 -52 -59 -20 -80 -36 -1 -30 -24 -62 -48 -3 -6 -84 -23 -73 -39 -2 -9 -94 -42 -47 -58 -69 -38 -51 -70 -40 -61 -8 -4 -66 -65 -85 -91 -44 -72 -77 0
25 66 63 24 48 89 14 81 27 40 38 86 59 93 95 29 4 21 80 -64 -33 -56 -11 -91 -37 -47 -55 -6 -43 -85 -51 -79 -12 -3 -22 -8 -87 -49 -58 -23 -36 -68 -18 0
30 36 14 92 69 13 -17 -57 -60 -84 -89 -48 0
31 2 67 38 80 -59 -81 0
35 39 14 84 95 29 44 27 58 78 69 87 88 56 55 20 80 92 67 11 15 2 30 60 26 24 37 66 89 49 93 46 10 83 7 98 9 8 43 96 33 38 57 51 47 90 5 41 97 18 76 59 82 17 63 13 12 73 72 23 -54 -3 -79 -6 -50 -94 -36 -19 -42 -70 -81 -71 -91 -22 -65 -64 -74 -40 -16 -31 -25 -86 -28 -32 -21 -53 -1 -4 -61 -75 -34 -48 -68 -77 -62 -52 -45 0
14 36 59 75 98 56 29 84 15 19 8 -33 -7 -58 -97 -57 -13 -41 -83 -26 -54 -16 -40 -30 -60 -51 -31 -86 -34 -44 -37 -22 -23 -4 0
78 34 55 42 98 92 33 91 46 97 48 6 57 74 61 32 85 65 13 86 58 5 2 14 45 88 11 31 50 90 62 94 59 52 -29 -87 -1 -63 -54 -80 -49 -56 -41 -47 -72 -40 -39 -10 -28 -22 -19 -66 -79 -69 -83 -36 -95 -9 -96 -12 -20 -76 -17 -60 -18 -73 -51 -30 -89 0
89 77 7 18 74 49 15 22 32 19 78 50 30 -80 -12 -27 -92 -40 -65 -54 0
50 6 58 98 40 25 9 62 1 24 63 55 57 91 36 51 35 54 72 37 79 87 88 56 44 78 74 39 73 59 22 45 90 29 4 76 97 28 89 95 77 68 60 82 23 33 32 -96 -7 -48 -93 -19 -71 -14 -85 -42 -17 -11 -18 -30 -12 -3 -31 -16 -81 -52 -26 -49 -15 -34 -66 -27 -65 -10 -80 -5 -2 -83 -92 -20 -38 -46 -61 0
80 77 88 45 37 97 15 75 43 83 62 90 31 18 14 95 79 59 10 64 34 30 86 48 65 72 98 36 61 67 94 50 52 55 85 7 93 -71 -53 -49 -2 -41 -91 -69 -11 -8 -66 -56 -16 -68 -76 -89 -96 -51 -27 -33 -9 -82 -73 -22 -74 -87 -78 -38 -4 -58 -40 -92 -19 -29 -39 -63 -81 -54 -28 -12 -32 -21 0
57 56 53 34 92 50 19 23 45 49 69 2 3 10 28 82 47 14 80 24 22 48 60 72 81 68 71 30 91 -62 -55 -65 -9 -90 -8 -5 -89 -32 -36 -42 -70 -18 -26 -44 -39 -58 -61 -33 -97 -95 -77 -4 -88 0
50 30 93 65 13 88 29 48 79 81 40 31 57 67 14 34 18 39 61 27 12 44 -26 -19 -41 -8 -42 -20 -51 -55 -89 -63 0
61 56 34 3 41 49 25 90 28 84 12 18 52 16 87 22 71 94 -47 -68 -97 -9 -8 -39 -40 -72 -67 -77 -23 -73 -75 -26 -64 -96 -98 0
13 17 41 64 90 14 4 84 -47 -27 -85 -31 -38 -36 -53 -39 -46 -63 -82 -66 0
6 75 92 34 7 71 17 93 21 5 1 22 51 9 73 24 10 26 58 31 28 27 81 14 -13 -74 -8 -32 -36 -50 -29 -59 -91 -54 -20 -48 -38 -45 -61 -52 -42 -82 0
39 63 58 -44 -9 -91 -47 0
70 38 21 8 73 81 42 69 43 76 6 23 1 22 63 17 13 26 24 89 34 98 37 72 94 71 4 92 36 91 25 48 52 27 2 97 -75 -41 -61 -66 -31 -77 -9 -18 -56 -29 -84 -19 -51 -11 -53 -64 -88 -68 -50 -95 -47 -30 -83 -14 -35 -85 -87 -10 -65 -15 0
74 52 61 21 49 18 68 35 51 97 44 67 69 79 4 87 77 17 78 90 59 33 76 20 89 10 24 32 65 56 13 27 45 53 -94 -36 -31 -9 -22 -14 -15 -43 -72 -75 -6 -5 -88 -98 -66 -96 -57 -81 -64 -85 -30 -50 -92 -42 -82 0
94 78 52 3 25 -4 -98 -82 -17 -57 -16 -39 0
30 21 13 8 67 64 1 19 39 52 5 82 96 71 43 72 79 47 84 40 16 51 41 10 94 61 63 59 93 24 9 60 57 27 35 97 87 26 12 90 3 65 38 2 66 14 54 -20 -78 -22 -11 -32 -76 -81 -53 -34 -58 -25 -88 -62 -91 -6 -45 -44 -50 -42 -86 -75 -55 -85 -92 -89 -23 -69 -83 -37 -46 -31 -98 -17 -56 -49 -4 -77 -29 -95 -15 -73 -7 -18 0
66 0
61 46 70 51 84 87 56 63 6 44 95 1 54 14 49 64 58 37 10 96 53 8 38 9 36 55 -59 -4 -79 -39 -2 -17 -34 -23 -67 -7 -50 -16 -52 -98 -45 -74 -18 -31 -72 -66 -62 -86 -3 -20 -76 -92 -81 -97 -43 -60 -80 -73 -21 -83 0
38 34 70 86 45 37 63 74 58 54 96 95 94 73 3 11 21 44 69 23 30 67 15 79 17 60 36 6 55 25 8 10 98 77 46 97 -31 -41 -89 -43 -22 -12 -87 -93 -49 -47 -66 -90 -75 -61 -83 -27 -62 -5 -71 -35 -39 -51 -72 -56 -82 -52 -42 -92 -2 -68 -88 -7 -24 -80 -1 -64 -16 -32 -91 -9 -53 -59 -4 -84 -29 -81 -28 -65 -19 -26 -13 -76 -57 -18 -85 -48 0
34 55 83 13 89 65 85 64 28 87 32 38 9 26 46 14 22 6 45 44 94 92 1 17 54 88 49 81 90 3 25 86 67 91 11 15 37 74 -2 -39 -73 -41 -78 -5 -29 -33 -43 -62 -69 -56 -57 -71 -60 -31 -50 -35 -75 -95 -66 -80 -59 -52 -77 -20 -19 -24 -84 -68 -21 -63 -79 -58 -4 0
81 64 54 67 37 18 55 51 49 8 97 89 22 82 5 35 31 13 76 41 96 46 33 4 88 80 -9 -84 -60 -7 -11 -75 -63 -73 -1 -50 -87 -92 -93 -27 -28 -53 -29 -77 -43 -23 -52 -65 -34 -66 -2 -61 -32 0
-87 0
40 60 26 69 73 8 36 55 5 45 10 3 71 52 62 87 61 11 77 42 41 18 56 81 95 35 57 29 7 94 33 79 74 13 27 84 39 54 76 4 2 47 16 34 19 82 -15 -21 -17 -32 -85 -64 -30 -70 -96 -14 -6 -88 -46 -91 -53 -1 -65 -28 -12 -51 -20 -90 -24 -67 -49 -23 -50 -78 -25 -83 -72 -80 -58 -22 -37 -92 -9 -66 -75 -93 -44 -86 -59 -97 -89 0
4 39 56 31 19 81 73 62 60 2 69 50 12 96 82 44 22 41 16 68 21 53 65 52 -30 -36 -13 -58 -93 -24 -9 -3 -71 -32 -35 -61 -84 -49 -77 -42 -88 -46 -34 -87 -54 -14 -72 -33 -43 -67 -95 -64 -29 -40 -23 -94 -89 -83 -85 -48 -1 -17 0
93 52 1 16 96 50 46 66 42 86 97 59 45 47 7 54 57 37 39 53 49 48 20 8 67 4 36 24 25 95 71 44 11 74 26 72 21 30 76 40 55 98 -70 -2 -65 -14 -83 -33 -15 -91 -32 -12 -90 -68 -6 -56 -35 -10 -78 -43 -94 -81 -29 -60 -27 -28 -82 -19 -22 -51 -61 -41 -79 -75 0
4 42 89 14 47 40 64 70 37 9 48 95 87 90 62 61 77 53 91 19 55 21 41 16 60 65 73 98 57 94 58 34 44 80 78 72 66 22 96 10 50 63 28 92 23 1 31 -59 -81 -38 -84 -82 -88 -7 -85 -36 -83 -35 -74 -29 -18 -51 -67 -27 -6 -26 -13 -68 -75 -33 -15 -20 -54 -76 -12 -24 -32 -86 -39 0
56 85 54 92 87 76 8 45 51 68 2 69 28 43 81 78 82 26 80 94 31 11 93 83 77 34 61 22 4 9 74 84 39 96 60 29 62 19 5 53 -46 -10 -48 -30 -15 -79 -44 -58 -97 -42 -35 -98 -41 -37 -33 -40 -17 -64 -21 -95 -65 -18 -7 -90 -89 -16 -13 -50 -72 -20 -25 -52 -38 -55 -59 -86 -73 -14 -24 -49 -67 -88 -6 -66 -12 -71 -47 0
4 70 40 18 -8 -10 -1 -20 0
26 58 97 35 47 28 18 39 20 77 9 69 8 2 70 87 19 38 45 93 3 79 32 94 71 92 25 89 48 54 -14 -12 -98 -15 -74 -22 -5 -10 -46 -1 -66 -24 -81 -44 -43 -23 -51 -40 -76 -61 -53 -34 -57 -59 -90 0
68 78 58 96 54 24 47 97 23 30 19 26 72 11 55 32 91 84 92 95 50 41 5 16 80 45 -20 -38 -21 -63 -94 -90 -1 -44 -82 -88 -18 -3 -43 -70 -64 -66 -4 -35 -9 -34 -86 0
10 87 72 92 93 3 6 50 52 68 45 83 7 88 82 22 1 60 20 56 35 32 14 37 91 51 97 31 62 64 71 57 38 63 2 61 96 -94 -34 -26 -18 -24 -76 -13 -28 -47 -25 -65 -23 -95 -17 -4 -15 -41 -42 -19 -27 -78 -79 0
53 74 94 76 36 79 10 38 35 40 69 27 84 96 83 90 2 43 26 20 22 13 70 78 11 33 29 -66 -67 -71 -46 -88 -30 -39 -34 -92 -16 -68 -57 -45 -91 -47 -61 -31 -77 -62 -1 -41 -44 -97 -95 -64 -25 -89 -59 -4 -65 -6 -17 -60 0
86 33 15 8 73 27 2 91 14 64 55 43 1 13 96 47 83 20 44 68 79 53 65 88 70 94 89 3 18 34 25 93 -59 -7 -74 -69 -5 -81 -72 -23 -76 -77 -24 -85 -63 -26 -9 -48 -30 -62 -32 -46 -42 -12 -71 -66 -31 -41 -92 -40 -45 -6 -10 -58 -38 -50 -17 0
53 96 79 1 31 50 3 62 34 29 86 85 45 13 9 60 63 42 7 76 12 94 89 95 -72 -51 -39 -14 -22 -59 -41 -87 -58 -21 -55 -16 -82 -33 -92 -90 -35 -15 -52 -57 -46 -61 -56 -69 -38 -65 -4 -93 -54 -64 -49 -98 -8 -5 -71 -84 -70 -40 0
67 92 62 15 52 82 64 45 56 10 13 49 70 71 4 1 59 23 37 94 7 91 35 55 8 72 61 26 84 20 9 85 27 2 3 -33 -6 -73 -43 -41 -75 -90 -83 -98 -57 -88 -18 -22 -89 -39 -21 -78 -51 -32 -81 -25 -76 -66 -44 -19 -24 -50 -47 -74 -14 -69 -58 -68 -63 -77 0
87 42 46 2 89 50 22 68 92 39 57 88 19 49 53 86 15 12 18 47 30 66 -26 -69 -58 -63 -77 -7 -5 -29 -61 -23 -64 -1 -97 -81 -56 -32 -20 -24 -9 -95 -8 -51 0
96 -41 -18 -25 -63 0
28 74 -84 -14 -31 0
18 19 23 89 63 9 38 90 21 51 93 88 64 35 87 27 82 42 -56 -86 -95 -62 -16 -34 -57 -72 -92 -79 -10 -65 -59 -83 -36 0
65 35 32 50 5 80 81 52 9 34 4 68 83 44 36 72 16 54 -84 -89 -31 -42 -97 -61 -28 -13 -40 -62 -33 -74 -95 -20 -59 0
37 17 82 18 40 60 42 93 49 4 66 89 90 76 53 71 85 75 95 1 7 3 36 35 57 86 65 67 58 50 80 52 84 38 28 8 41 98 61 25 63 88 -13 -83 -45 -54 -34 -47 -20 -16 -10 -43 -33 -27 -87 -9 -96 -91 -2 -69 -78 -94 -59 -48 -70 -23 -24 -72 -12 -81 -11 -31 -15 -68 -22 -97 -64 -55 -5 -29 -14 -56 0
13 29 68 97 16 25 12 52 64 51 93 69 84 2 32 40 91 27 37 63 48 94 72 28 66 80 30 10 79 1 33 54 62 14 22 47 55 7 57 -82 -81 -15 -8 -77 -76 -90 -87 -61 -75 -86 -39 -42 -56 -17 -24 -38 -65 -70 -49 -95 -46 -96 -78 -98 -50 -9 -92 0
52 63 28 27 71 68 77 24 26 39 5 84 29 31 69 2 1 67 10 72 44 58 96 33 -17 -95 -91 -48 -82 -76 -73 -16 -30 -15 -12 -9 -92 -35 -37 -22 -55 -80 -61 -54 -4 -13 0
98 70 60 41 56 77 74 53 93 -43 -1 -47 -65 -95 -76 -81 -39 -32 0
20 51 50 6 68 5 43 4 63 -26 -88 -27 -73 -90 -62 -58 -53 -7 -82 -94 0
92 90 9 57 33 8 77 34 30 82 10 56 73 52 65 54 29 31 27 43 98 68 14 78 71 64 46 20 69 24 95 3 91 22 41 72 38 32 49 -7 -74 -48 -25 -36 -66 -84 -39 -26 -97 -35 -37 -51 -88 -11 -86 -59 -23 -96 -18 -13 -53 -5 -70 -83 -81 -62 -28 -79 -17 -58 -19 -6 -50 -4 -80 0
86 56 24 54 61 88 57 29 80 49 51 91 26 76 11 60 35 20 41 58 6 83 8 1 30 -44 -82 -77 -34 -53 -21 -69 -85 -87 -50 -66 -46 -68 -70 -78 -17 -74 -67 -42 -3 -48 0
47 1 85 70 8 22 90 39 58 50 63 81 86 45 20 27 34 93 35 77 18 16 32 74 6 14 48 37 -62 -53 -83 -51 -95 -66 -57 -42 -87 -13 -60 -36 -89 -44 -33 -10 -12 -71 -73 -38 0
21 18 78 -63 -73 -8 -97 -57 -10 -55 -74 -38 0
54 66 69 37 90 56 39 53 92 41 17 12 33 20 77 68 22 65 43 46 35 27 81 84 16 42 6 62 34 87 82 25 57 -3 -60 -79 -40 -96 -93 -5 -24 -23 -4 -63 -70 -29 -80 -30 0
46 85 89 25 21 40 63 15 83 92 26 20 29 90 7 76 86 -53 -87 -1 -22 -24 -32 -67 -35 -9 -72 -82 -58 -2 -84 -79 -69 -27 0
50 91 56 5 36 60 1 31 64 40 54 26 41 81 14 37 52 -65 -42 -79 -58 -39 -38 -47 -93 -78 -28 -24 -48 -2 -98 -85 -30 -17 0
56 1 93 57 42 -27 -89 -96 -77 -71 -78 -20 0
35 72 95 7 63 12 32 62 50 48 68 29 6 15 88 85 30 78 90 36 46 28 34 10 79 18 43 52 -21 -51 -60 -59 -65 -19 -80 -41 -64 -47 -26 -56 -1 -84 -67 -75 -5 -76 -40 -55 -20 -2 -17 -92 -24 -39 -9 -93 -89 -38 -3 -54 -37 -27 -98 -16 0
60 16 79 44 4 19 15 -40 -65 -11 -72 -84 -75 -8 -57 -49 -31 -45 -67 0
75 78 17 98 65 41 82 -4 -63 -46 -28 -23 -21 -2 -66 -16 0
62 88 86 97 32 2 35 45 19 53 85 46 5 27 -77 -31 -11 -61 -87 -44 -68 -3 -57 -82 -89 0
36 25 63 20 57 44 3 84 37 95 8 10 52 6 79 9 46 33 68 45 53 54 61 12 73 -41 -91 -82 -13 -14 -92 -77 -49 -65 -69 -42 -98 -27 -76 -66 -90 -4 -88 0
67 3 72 85 26 94 34 86 14 35 10 20 30 13 81 28 71 80 66 38 16 69 78 90 57 1 6 62 68 9 5 97 52 22 46 60 39 32 79 -21 -24 -98 -96 -29 -89 -43 -88 -33 -91 -74 -87 -61 -95 -36 -76 -45 -55 -44 -83 -15 -93 -41 -54 -51 -48 -23 -8 -40 -75 0
32 83 21 52 18 19 33 96 61 14 95 22 10 16 56 85 81 78 88 84 27 30 4 42 71 90 29 75 12 79 35 77 -31 -67 -44 -46 -58 -74 -41 -36 -87 -86 -45 -43 -59 -82 -55 -93 -94 -13 -89 -66 -24 -39 -73 -76 -5 -97 -65 -34 -23 -72 -98 0
56 27 13 16 76 26 58 32 50 52 25 31 15 34 55 37 77 84 80 98 14 17 86 96 23 29 11 71 18 28 53 43 73 60 7 82 21 22 51 44 38 92 75 35 42 62 45 74 19 -88 -72 -41 -47 -36 -95 -66 -24 -91 -79 -94 -83 -3 -46 -1 -20 -39 -69 -8 -63 -49 -97 -10 -68 -33 -87 -4 -30 -89 -54 -57 -90 -2 -67 -5 -9 -78 -81 -48 0
94 73 88 70 53 15 10 43 59 68 33 8 3 90 31 55 96 98 67 12 46 95 39 78 42 21 84 24 83 9 20 58 62 79 92 40 36 1 75 5 13 47 52 77 48 -64 -63 -69 -76 -23 -4 -35 -80 -87 -2 -82 -66 -93 -81 -32 -86 -18 -28 -14 -45 -56 -61 -91 -27 -30 -6 -97 -85 -41 -17 0
95 10 45 72 12 67 30 38 50 66 44 27 75 26 19 -70 -59 -77 -21 -79 -25 -18 -37 -76 -47 -24 0
29 28 8 76 70 54 53 88 47 36 57 50 83 58 18 -51 -59 -65 -33 -43 -23 -63 -12 -37 -56 -74 -66 -17 -97 -68 -14 -49 -64 -79 -77 -84 -41 0
51 33 61 27 10 31 62 66 5 84 88 92 53 83 93 4 38 86 98 73 32 78 45 20 90 26 40 28 16 94 52 13 25 59 17 58 70 6 -12 -30 -24 -75 -63 -2 -8 -82 -34 -1 -95 -41 -54 -15 -35 -89 -48 -44 -14 -60 -80 -67 -29 -57 -3 -65 -22 -69 -74 -56 -49 -11 -9 -46 -91 -64 -23 -97 -96 -81 0
97 20 76 94 93 33 3 50 10 26 23 78 66 62 82 71 5 96 39 29 32 43 87 98 65 91 80 36 49 34 -42 -47 -25 -13 -90 -16 -60 -70 -57 -7 -61 -44 -14 -9 -56 -18 -81 0
7 13 -3 0
60 87 17 37 52 29 32 23 73 92 81 42 35 76 38 98 13 59 6 31 68 97 56 88 18 72 19 55 15 22 58 75 -28 -66 -77 -95 -57 -69 -30 -89 -50 -94 -67 -71 -80 -3 -93 -20 -85 -2 -1 -51 -5 -11 -86 -41 -46 -91 -84 -36 -90 -79 -74 -27 -7 -61 -43 -45 -34 -49 -53 -70 -65 -16 0
57 9 40 30 53 5 14 82 70 37 48 11 78 96 66 28 65 2 27 21 98 83 52 81 60 56 15 79 8 80 88 18 13 23 87 29 92 74 32 1 36 84 -45 -67 -33 -43 -44 -31 -41 -34 -90 -55 -63 -76 -12 -58 -39 -7 -54 -64 -77 -93 -68 -46 -51 -69 -6 -20 -25 -95 -49 -4 -24 -16 -3 -62 -75 -35 -10 -73 -91 -61 -47 -86 -89 -26 -85 -94 -38 0
53 10 32 22 34 8 91 29 97 57 26 85 67 54 64 39 58 46 68 31 2 63 43 65 87 79 33 86 74 1 76 96 28 30 36 12 40 -95 -81 -19 -90 -94 -60 -59 -48 -71 -35 -49 -17 -98 -72 -69 -16 -83 -4 -23 -77 -50 -93 -21 -11 -41 -44 -89 -24 -75 -37 0
98 10 23 72 7 48 67 60 76 80 81 13 40 6 53 42 -44 -47 -33 -26 -66 -73 -88 -61 -25 -5 -93 -30 -92 -52 -17 -75 -90 -77 -58 -4 -15 -74 -69 -91 -16 -71 -20 0
1 6 55 98 37 49 84 82 29 85 83 4 39 8 10 17 -58 -92 -31 -15 -32 -25 -16 -2 -69 -28 -45 -78 -7 0
20 71 23 32 94 11 83 74 53 12 28 30 4 93 61 35 3 6 64 43 25 13 57 40 97 72 62 8 -85 -50 -49 -63 -15 -87 -46 -1 -38 -96 -42 -80 -68 -60 -14 -48 -7 -65 -82 -41 -98 -77 -29 -73 -27 -39 -56 -55 -95 -22 -67 -59 -91 -81 -86 -78 0
54 38 80 40 90 89 39 37 32 96 20 35 58 3 97 59 36 88 43 46 33 34 70 19 28 69 85 86 94 81 11 77 82 24 67 -57 -95 -12 -53 -48 -21 -87 -73 -44 -74 -65 -71 -23 -31 -45 -42 -1 -93 -51 -60 -92 -16 -9 -64 -7 -62 -66 -25 -30 -72 -55 -78 -63 -49 -61 -50 -27 -84 0
85 42 40 27 6 55 41 39 98 34 73 11 51 47 19 28 59 74 91 -65 -57 -4 -69 -50 -22 -38 -26 -37 -79 -13 -32 -46 -17 -75 -95 -67 -24 -49 -25 -77 0
30 72 63 -74 0
47 8 29 48 35 13 91 58 51 55 24 92 41 84 4 72 71 68 25 10 52 94 30 7 63 32 85 83 69 28 59 38 95 34 17 20 26 50 5 79 80 49 61 42 -77 -87 -39 -23 -82 -2 -73 -11 -56 -36 -43 -9 -33 -64 -75 -60 -22 -74 -40 -93 -65 -57 -21 -98 -70 -53 -12 -15 -18 -88 -46 -16 -90 -81 -89 -31 -37 -97 -14 -3 -45 -54 -67 -86 -62 -44 0
45 44 86 22 66 77 75 -31 -17 -62 -28 -34 0
80 55 23 70 43 53 46 47 59 87 61 3 37 38 89 63 67 58 40 78 66 41 16 93 72 13 69 2 77 82 24 19 20 92 71 33 -81 -7 -42 -22 -74 -68 -65 -8 -44 -11 -54 -21 -75 -97 -32 -88 -26 -85 -12 -30 -29 -1 -98 -95 -64 -14 -9 -18 -34 -39 -4 -45 -90 -94 -62 -36 -27 -79 -86 -51 -15 -28 -10 -57 -25 -49 -84 -48 -83 -91 -56 0
62 31 88 9 98 89 -51 -60 -16 -63 -90 -28 -48 -72 -70 0
23 91 83 46 26 81 30 33 79 62 19 39 20 71 72 82 67 84 90 52 -7 -69 -63 -17 -14 -28 -88 -22 -61 -40 -24 -38 -43 -51 -16 -31 -58 -12 -59 -97 -54 -6 -93 -56 -29 -76 -3 -42 -95 -5 -87 -53 -86 -64 -1 0
94 47 38 20 85 56 49 58 23 6 12 2 27 11 54 77 29 17 90 71 4 65 74 63 18 59 75 19 67 15 1 5 41 14 57 45 70 32 80 7 87 35 78 26 81 53 76 -92 -91 -37 -62 -73 -16 -96 -42 -50 -97 -13 -64 -51 -82 -44 -10 -60 -61 -52 -98 -31 -40 -9 -66 -39 -55 -68 -33 -46 -30 -93 -36 -83 -86 -79 -25 -8 -34 0
34 8 82 22 41 88 89 43 17 38 85 9 10 21 31 24 64 69 92 12 26 63 65 62 -81 -96 -51 -58 -87 -75 -14 -11 -19 -7 -61 -91 -49 -36 -16 -66 -84 -15 -60 -13 -29 0
14 30 43 93 89 49 2 78 22 90 38 56 66 57 17 58 33 15 72 96 26 8 70 91 27 59 77 82 42 7 28 1 31 98 4 -32 -40 -69 -53 -20 -73 -71 -64 -84 -97 -81 -37 -60 -55 -79 -50 -39 -51 -83 -3 -41 -23 -35 -21 -10 -36 -54 -11 -52 -29 -48 -47 -45 -80 -61 -86 -67 -46 -95 -63 -87 -44 -62 -16 -75 -5 -68 -74 -76 0
85 26 61 65 25 22 30 84 47 45 56 24 95 94 37 41 1 14 68 83 36 44 82 17 4 92 91 87 31 28 6 16 10 78 90 72 42 57 76 58 66 79 74 21 59 15 -23 -12 -80 -50 -97 -63 -46 -19 -64 -69 -5 -38 -70 -54 -55 -33 -93 -88 -8 -62 -35 -73 -13 -40 -96 -29 -32 -18 -11 -71 -49 -98 -34 -20 -77 -86 -2 -60 -3 -27 -67 -75 -48 -9 -39 -53 -51 -52 -43 -89 -81 0
82 20 79 6 17 4 -60 -80 -59 -75 -84 0
38 94 61 85 58 71 -18 -59 0
58 33 36 39 19 80 54 9 43 49 35 45 48 69 20 32 23 34 90 7 83 13 77 -29 -6 -98 -30 -15 -40 -24 -72 -46 -17 -8 -16 -27 -42 -88 -61 -38 -95 -67 -26 -94 -25 -44 -63 0
89 31 37 94 62 95 70 32 35 6 55 74 60 58 52 90 26 84 39 21 85 47 67 76 97 87 72 66 91 92 -28 -38 -24 -80 -19 -64 -86 -54 -36 -77 -98 -10 -68 -61 -46 -51 -82 -57 -83 -50 -13 -73 -78 -42 -20 -75 -56 -2 -3 -43 -96 -7 -15 -8 -40 0
35 15 12 20 83 39 49 81 46 88 69 5 16 31 41 8 71 53 54 48 30 78 21 4 56 40 98 27 38 85 67 36 75 90 17 68 59 -76 -19 -37 -95 -79 -26 -9 -43 -65 -32 -13 -24 -66 -11 -94 -91 -34 -14 -74 -44 -77 -3 -89 -55 -18 -23 -58 -2 -60 -84 -22 -62 -93 -61 0
42 6 69 86 21 45 57 60 1 64 73 5 90 14 19 15 94 98 62 80 85 29 46 8 77 4 96 76 55 48 34 81 75 53 54 89 38 65 16 9 3 -84 -44 -52 -37 -12 -26 -95 -71 -39 -2 -49 -97 -87 -68 -22 -67 -23 -93 -35 -83 -66 -28 -7 -41 -47 -82 -31 -92 -30 -50 -58 -32 0
59 32 25 93 30 87 34 74 91 77 84 22 58 96 60 27 26 70 14 13 44 -55 -81 -66 -62 -8 -10 -98 -92 -57 -15 -52 -65 -46 -86 -9 -88 -47 -78 -35 -19 0
83 75 29 62 35 45 48 18 8 -28 -12 -20 -85 0
73 6 10 20 72 81 92 24 52 54 56 14 11 74 77 61 21 53 95 40 34 32 68 97 85 41 48 64 50 26 46 90 76 82 45 25 80 62 58 8 -29 -2 -4 -88 -35 -71 -42 -44 -22 -60 -33 -3 -49 -47 -84 -86 -27 -12 -70 -75 -1 -9 -98 -66 -55 -30 -39 -36 -93 -7 -87 -51 -79 -17 0
71 -10 -9 -15 0
24 93 50 48 61 32 81 -78 -85 -45 -19 -64 -21 -8 0
9 26 70 69 41 65 90 62 73 33 13 95 56 7 20 96 77 45 88 84 78 23 10 43 6 75 -47 -27 -63 -67 -22 -19 -83 -60 -3 -98 -49 -31 -12 -87 -52 -57 -42 -80 -14 -81 -16 -37 -97 -53 -30 -40 -21 -25 -93 -64 -1 -74 -24 -72 -15 0
4 74 75 5 84 66 17 64 15 23 67 2 88 98 86 70 65 38 12 43 68 45 39 60 53 63 27 96 31 72 93 -49 -80 -37 -56 -82 -32 -3 -18 -51 -29 -94 -91 -8 -52 -89 -1 -28 -58 -22 -40 -69 -59 -71 -85 -54 -44 -77 -35 -33 -87 -90 -50 0
67 26 78 91 -40 -88 -19 -6 -8 -50 -45 -24 -30 0
29 26 91 3 60 89 18 15 4 95 44 36 86 84 9 98 66 37 12 46 34 28 -54 -82 -76 -32 -35 -88 -21 -71 -25 -40 -33 -69 -39 -96 -62 -55 -10 -59 -14 -47 -51 -52 -67 -63 -73 0
36 68 74 11 22 8 29 5 39 89 25 -1 0
31 51 45 76 65 5 35 62 40 30 95 96 32 38 12 36 67 93 39 15 68 33 37 74 97 1 92 79 80 -24 -47 -46 -66 -58 -20 -78 -82 -53 -21 -57 -3 -85 -14 -22 -6 -29 -2 -52 -26 -7 -4 -28 -88 -16 -70 -72 -48 -41 -64 -18 -13 -83 -8 -34 0
40 59 92 38 29 80 72 32 43 61 89 13 97 85 77 68 75 63 48 5 15 30 79 22 71 65 8 47 60 17 27 34 66 21 88 52 41 9 70 -23 -56 -42 -94 -98 -90 -74 -18 -73 -93 -3 -19 -46 -58 -53 -82 -33 -31 -28 -62 -49 -69 -96 -67 -76 -78 -51 -44 -95 0
35 81 96 15 58 20 21 31 46 40 2 57 42 37 19 95 80 44 59 29 92 65 3 85 17 11 90 30 8 73 66 6 -68 -5 -32 -9 -86 -24 -36 -97 -48 -83 -72 -45 -61 -38 -88 -34 -64 -56 -71 -43 -18 -50 -10 -26 -12 -91 -22 -55 -63 -39 -28 -47 -52 -23 -54 0
39 84 23 69 61 60 41 10 62 21 65 82 96 73 3 98 46 26 25 18 16 22 87 89 55 54 2 11 68 14 92 58 -13 -64 -72 -51 -63 -44 -33 -57 -88 -36 -48 -43 -52 -37 -40 -67 -77 -90 -6 -81 -34 -45 -27 -93 -47 -97 -42 -35 -85 -49 -70 0
86 85 46 14 57 28 39 16 36 59 11 55 92 41 49 88 63 18 26 34 80 58 54 82 1 31 87 35 79 67 6 24 17 52 56 98 65 74 94 68 44 -2 -5 -30 -9 -78 -96 -84 -25 -62 -47 -45 -20 -81 -23 -37 -12 -83 -19 -61 -33 -51 -53 -89 -64 -22 -8 -77 -76 -91 -38 -40 -29 -10 -3 -95 -72 -97 -27 -71 -43 -32 -7 -66 -4 0
36 93 59 27 66 58 4 -72 -79 -45 -49 -83 0
24 88 68 29 13 77 8 46 90 18 39 47 52 73 81 9 33 2 25 84 20 97 50 23 67 27 48 43 35 79 61 92 21 42 32 44 74 19 4 54 -49 -65 -82 -26 -70 -41 -72 -69 -55 -11 -30 -45 -17 -56 -15 -53 -64 -94 -63 -36 -76 -98 -58 -1 -96 -66 -91 -7 -95 -62 -34 -6 -86 -60 -78 -83 -57 -16 -85 -31 -89 -22 -87 -40 -71 -80 -38 -5 -37 -59 -51 -14 -28 -12 -3 0
1 91 78 93 98 9 47 83 64 68 67 57 25 -40 -66 -70 -11 -38 -72 -74 -88 -24 -59 -79 -14 -26 0
30 32 10 5 3 53 14 98 11 82 28 79 96 1 86 16 84 19 56 8 63 -70 -50 -61 -39 -94 -22 -36 -92 -65 -71 -41 -9 -52 -15 -81 -49 -44 -74 -76 0
86 24 6 66 80 72 83 44 40 54 36 64 14 47 9 22 51 87 70 28 34 81 58 10 7 49 56 16 60 76 19 30 -82 -48 -90 -97 -61 -4 -32 -79 -31 -52 -39 -71 -65 -35 -96 -3 -2 -74 -57 -1 -45 -59 -33 -43 -50 -17 -63 -75 -42 -89 -68 -37 -67 -12 -62 -18 0
26 31 56 6 30 10 12 19 76 73 2 53 91 38 68 69 64 33 45 63 85 21 97 44 93 27 16 -15 -41 -94 -28 -61 -59 -57 -79 -37 -51 -47 -54 -78 -67 -62 -17 -24 -23 -11 -77 -55 -32 -7 -22 -98 -25 -90 -14 0
33 18 98 37 40 9 7 69 54 5 57 13 96 70 71 49 32 31 -58 -41 -8 -88 -2 -61 -16 -43 -62 -10 -12 -34 -76 -46 -79 0
32 40 59 13 93 58 82 91 51 54 25 45 17 23 94 30 15 9 68 88 83 28 6 95 69 86 37 73 50 11 35 44 33 14 41 18 57 66 34 -89 -61 -55 -12 -20 -84 -22 -52 -65 -21 -64 -31 -19 -26 -92 -36 -71 -27 -79 -90 -1 -3 -74 -63 -85 -53 -77 -24 -38 -78 -46 -70 -43 -48 -47 -72 -62 -5 -8 -87 -98 0
30 44 71 98 48 32 72 84 46 52 5 -90 -62 -22 -91 -97 -83 -69 -39 -26 -45 -1 -64 -85 -2 -21 -66 -86 -17 -42 -4 0
78 44 26 7 87 52 76 95 90 54 -37 -3 -32 -33 -69 -58 -41 -19 -12 -31 -75 -21 -50 -43 -81 -10 -42 -34 -17 -20 -27 -47 -96 -93 -62 -72 0
60 75 46 92 82 65 78 88 16 56 47 66 7 96 29 76 11 43 50 87 69 53 40 63 49 30 24 83 6 57 91 1 58 70 39 13 12 34 -15 -36 -93 -77 -72 -21 -48 -37 -4 -64 -18 -61 -32 -9 -86 -27 -19 -73 -67 -97 -38 -17 -33 -35 -95 -8 -41 -52 -26 -14 -74 -2 -20 -59 -85 -23 -89 -94 -31 -10 -80 -44 -81 -84 -5 0
56 81 41 36 18 71 48 30 26 20 91 95 28 9 97 50 37 2 11 31 42 4 38 79 70 86 87 74 1 96 92 63 65 33 3 5 77 14 32 29 55 73 13 22 12 15 47 16 46 19 -85 -24 -68 -76 -10 -53 -23 -80 -88 -83 -43 -58 -66 -72 -78 -98 -82 -89 -75 -67 -6 -52 -35 -21 -51 -94 -34 -7 -40 -39 -90 -17 -60 -62 -64 -25 -59 -69 -44 -61 -84 0
12 24 89 13 23 31 85 53 52 67 19 15 37 71 88 80 63 54 64 28 86 4 76 45 34 44 25 41 3 14 32 78 33 75 95 9 84 46 87 8 83 16 40 94 21 60 65 27 43 6 61 92 77 91 -58 -29 -66 -30 -69 -11 -73 -5 -70 -51 -17 -59 -62 -56 -38 -57 -81 -72 -39 -47 -1 -10 -35 -42 -2 -26 -90 -97 -36 -20 -48 -93 -74 -22 -7 -96 -55 -79 -50 -98 -82 -49 0
9 19 78 32 30 85 -71 -86 -40 -62 -42 -98 -35 -81 -11 -73 -18 -97 0
92 93 97 95 21 46 87 47 88 42 73 29 86 68 96 22 63 31 94 10 79 7 3 82 1 66 51 18 54 41 70 81 5 48 36 64 91 -58 -26 -60 -27 -33 -6 -39 -11 -8 -69 -56 -19 -50 -71 -35 -72 -98 -62 -44 -15 -49 -24 -17 -84 -45 -37 -43 -38 0
80 22 15 57 11 55 66 67 84 46 82 54 59 83 88 38 90 73 52 43 71 3 37 89 9 13 49 21 26 62 93 51 12 14 50 6 58 44 30 64 47 60 63 -74 -42 -25 -86 -20 -35 -36 -31 -81 -77 -53 -16 -33 -68 -85 -24 -39 -2 -40 -72 -70 -98 -34 -96 -1 -8 -18 -92 -4 -28 -10 -41 -29 -7 -48 -91 -75 -45 -5 -94 -17 -97 -95 -78 -87 -19 -61 -32 -69 -27 -79 -23 0
28 -35 -29 -67 -51 -39 0
6 49 21 40 92 63 5 94 60 41 61 98 56 11 8 93 25 43 38 26 20 83 70 64 22 86 57 55 54 59 74 39 7 18 34 77 47 84 29 -48 -50 -27 -33 -17 -42 -73 -82 -37 -1 -75 -24 -32 -62 -51 -72 -52 -28 -19 -10 -16 -14 -85 -35 -81 -3 -15 -53 -80 -9 -58 -13 -23 -69 -44 -4 -91 -12 -79 -66 -76 -87 -97 -46 -88 -96 -95 -65 -78 -67 -30 -45 0
10 25 37 88 47 22 57 41 75 67 27 82 45 35 89 53 7 -1 -12 -4 -8 -20 -73 -68 -61 -90 -19 -18 -60 -26 0
40 84 24 48 12 3 39 2 7 80 20 44 23 6 34 90 37 95 49 71 83 27 8 52 41 60 85 35 96 72 67 33 -54 -88 -21 -75 -28 -59 -56 -46 -63 -79 -82 -22 -66 -74 -16 -57 -38 -17 -11 -36 -89 -42 -91 -1 -69 -55 -58 -19 -78 -97 -51 -47 -73 -92 -32 -68 0
18 89 93 14 43 1 49 4 54 98 77 82 56 74 75 38 87 60 44 -50 -33 -19 -95 -63 -48 -80 -57 -24 -37 -5 -64 0
49 40 70 3 85 72 14 57 33 65 47 60 44 21 8 69 35 37 79 13 29 2 51 64 17 62 38 89 1 34 19 11 98 20 78 24 59 93 88 9 16 -63 -97 -6 -12 -7 -73 -75 -92 -26 -32 -36 -61 -90 -53 -30 -96 -66 -76 -56 -54 -87 -23 -91 -48 -28 -50 -39 -77 -74 -94 -67 -95 -86 -84 0
84 33 17 86 40 45 64 63 79 62 66 89 34 47 12 1 75 4 -69 -81 -59 -57 -48 -55 -38 -77 -23 -29 -91 -39 -53 -92 0
35 39 83 24 55 32 29 53 81 95 49 7 6 14 17 37 13 90 76 65 71 5 43 4 72 19 80 54 57 75 67 87 86 93 12 16 58 62 74 25 23 92 60 70 40 59 46 64 -30 -77 -1 -9 -18 -96 -38 -26 -21 -3 -56 -28 -63 -50 -11 -42 -41 -52 -20 -69 -91 -22 -47 -78 -97 -48 -34 -98 -66 -82 -85 -61 -45 -36 -10 -15 -8 -73 0
78 14 40 87 51 96 62 1 47 71 94 43 86 11 23 34 35 73 27 63 3 69 68 65 92 70 56 83 22 66 6 32 82 37 49 38 88 54 48 -89 -84 -7 -85 -53 -15 -31 -41 -52 -29 -75 -33 -64 -16 -28 -46 -13 -2 -98 -67 -93 -79 -12 -10 -61 -8 -30 -50 -97 -76 -55 -80 -42 -90 -58 -26 -19 -81 -57 -59 -95 0
22 1 18 54 10 14 73 21 71 69 40 81 76 39 32 27 30 41 16 47 5 26 56 29 52 78 62 25 42 80 -94 -45 -64 -50 -74 -28 -77 -6 -49 -53 -35 -63 -55 -91 -12 -2 -4 -3 -97 -87 -65 -37 -13 -24 -7 -9 -83 -8 -48 -51 0
76 13 31 62 5 34 15 9 36 66 40 11 33 73 90 47 84 35 4 53 12 88 38 78 54 16 89 82 69 63 27 -67 -45 -56 -55 -43 -46 -74 -37 -17 -93 -70 -58 -14 -23 -57 -20 -41 -91 -97 -6 -98 -3 -44 -65 -80 -25 -30 -85 -59 -10 0
63 79 47 21 33 61 3 42 91 11 67 50 20 22 10 51 37 41 65 77 72 75 39 44 14 40 45 80 48 6 43 4 32 -62 -49 -60 -78 -8 -73 -96 -90 -69 -83 -28 -53 -74 -57 -31 -2 -94 -76 -52 -5 -88 -85 -70 -86 -59 -38 -25 -29 -17 -30 -84 -98 -15 -54 -27 -12 -95 -89 -97 -35 -68 -66 -16 -23 0
4 16 57 85 5 33 77 35 73 70 46 89 9 60 64 29 69 78 96 8 41 95 14 75 61 2 93 43 1 30 49 74 27 13 10 88 68 12 56 67 80 63 72 59 47 39 21 97 90 91 -24 -15 -84 -51 -34 -25 -28 -98 -37 -94 -32 -71 -48 -79 -6 -38 -3 -76 -52 -23 -62 -65 -82 -92 -7 -40 -81 -86 -20 -44 -50 -83 -22 -18 -11 -26 -17 -66 -36 -58 -54 -42 -87 -45 -19 -31 0
87 11 53 80 34 54 9 40 10 1 5 3 66 93 45 58 35 4 20 15 41 43 33 69 83 75 67 49 98 88 23 25 27 17 60 78 76 91 19 77 31 73 72 -68 -28 -84 -44 -63 -89 -79 -97 -59 -70 -64 -2 -47 -55 -6 -38 -46 -21 -92 -65 -50 -30 -61 -96 -24 -16 -7 -14 -42 -62 -94 -32 -95 -13 -26 -8 -39 0
58 55 10 94 12 5 80 96 71 82 81 91 3 78 15 6 98 11 64 88 53 57 48 77 90 45 30 50 51 42 40 66 28 17 38 97 31 56 25 -43 -83 -39 -14 -63 -70 -13 -92 -86 -34 -1 -76 -44 -16 -62 -2 -29 -32 -69 -67 -84 -87 -26 -60 -4 -33 -36 -37 -18 -20 -75 -89 -21 -9 -8 -19 -73 -68 -79 0
46 60 49 61 1 78 52 27 39 95 71 43 77 98 84 28 94 36 96 40 31 11 69 3 91 90 50 37 67 21 89 35 83 56 -4 -7 -51 -86 -10 -24 -75 -70 -8 -88 -12 -30 -72 -6 -29 -48 -65 -57 -20 -42 -76 -13 -41 -25 -18 -93 -44 -68 -38 -5 -62 -73 -80 -92 -17 -81 -58 -32 -63 -64 0
92 18 20 24 17 15 58 75 68 89 80 38 69 3 46 64 95 65 30 -8 -48 -79 -53 -4 -83 -42 -60 -62 -40 -84 -72 -35 -26 -50 -57 -59 -90 -39 -85 -7 -32 -67 -2 0
65 73 90 91 87 82 12 92 46 44 35 79 61 6 47 33 23 83 95 77 19 8 62 88 16 89 86 20 72 59 74 10 21 40 -1 -18 -84 -57 -25 -4 -41 -5 -17 -69 -11 -52 -76 -26 -54 -53 -2 -63 -32 -58 -22 -56 -68 -93 -80 -98 -96 -48 -71 -78 -70 -29 -34 -14 -42 -38 -39 -43 -7 -3 -9 0
73 64 21 63 90 47 83 50 49 78 23 98 -20 -60 -71 -94 -8 -38 -40 -46 -58 -28 -4 0
42 24 54 78 98 43 25 87 37 66 59 36 21 85 55 69 49 76 57 39 63 56 75 92 15 -29 -10 -96 -12 -7 -84 -40 -41 -27 -94 -30 -58 -53 -38 -31 -72 -61 -65 -48 -74 -47 -71 -20 -70 -79 -28 -44 0
30 89 41 91 19 83 16 23 1 51 44 50 24 6 52 97 43 36 96 20 -73 -3 -31 -13 -47 -54 -59 -35 -57 -26 -42 -64 -27 -61 -29 -80 0
40 53 77 25 95 57 55 81 61 60 38 71 12 91 35 87 -58 -49 -22 -15 -46 -93 -26 -27 -23 -73 -44 -2 0
31 19 95 60 22 35 28 52 44 81 42 39 82 84 -8 -13 -40 -21 -86 -79 -94 -36 -98 -67 -20 -85 0
58 83 9 77 43 64 51 17 60 7 25 35 11 92 57 68 39 84 95 54 30 37 82 71 10 -38 -41 -93 -44 -8 -63 -98 -62 -18 -52 -24 -5 -67 -33 -85 -46 -40 0
57 96 82 22 81 59 86 65 11 23 94 30 28 42 24 87 85 9 33 64 2 25 70 68 37 72 55 15 90 84 43 27 80 5 95 54 36 75 79 32 6 62 40 63 20 83 10 49 48 -91 -74 -12 -53 -1 -69 -67 -60 -93 -19 -76 -44 -8 -31 -18 -73 -29 -13 -61 -77 -97 -35 -45 -78 -92 -3 -51 -52 -47 -34 -46 -26 -16 -66 -14 -41 -58 -50 -56 -39 0
73 23 81 84 2 79 64 78 21 51 67 94 89 26 86 11 19 12 93 80 10 61 72 16 32 69 29 56 65 6 5 3 98 60 47 -58 -7 -97 -52 -4 -31 -44 -66 -9 -57 -14 -40 -24 -50 -43 -22 -71 -46 -37 -91 -95 -39 -76 -28 -8 -68 -42 -41 -77 -75 -17 -87 -48 -27 -53 -55 0
26 24 7 56 68 66 67 9 52 13 92 42 75 60 72 23 47 34 96 40 31 58 39 48 3 33 43 73 16 97 41 81 6 1 91 22 27 4 77 25 87 80 62 64 2 8 55 78 71 54 5 11 10 -19 -28 -76 -14 -70 -20 -59 -17 -63 -86 -30 -65 -45 -51 -12 -83 -98 -46 -15 -84 -61 -29 -49 -18 -32 -89 -74 -50 -90 -35 -69 -85 -88 -53 -37 -44 -38 -79 -36 -95 -82 -94 0
71 46 35 59 19 32 84 83 26 93 34 8 98 38 43 1 28 17 10 40 66 20 55 67 62 -88 -86 -2 -18 -89 -14 -63 -15 -91 -78 -50 -21 -85 -11 -33 -92 -76 -25 -58 -70 -12 -65 -54 -4 -94 -47 0
1 11 21 23 61 89 95 65 47 32 72 3 22 31 38 48 86 19 4 75 56 97 98 43 83 2 24 55 76 20 81 25 66 51 80 10 74 67 70 87 69 71 37 39 9 40 26 62 90 15 -68 -85 -45 -96 -46 -41 -12 -53 -79 -6 -58 -28 -82 -34 -7 -92 -73 -49 -91 -84 -44 -36 -30 -50 -42 -59 -93 -33 -27 -18 -29 -35 -78 -14 -8 -57 -60 -54 -17 -63 -13 -64 -88 -77 -5 -94 -16 0
32 3 39 9 46 88 8 44 40 -13 -51 -34 -72 -31 -82 -37 -65 -93 -19 -85 -97 0
51 81 17 84 49 55 27 77 72 41 47 43 89 19 24 29 10 78 69 70 75 31 30 90 1 25 76 20 -85 -74 -44 -94 -87 -42 -45 -83 -96 -66 -64 -6 -68 -34 -12 -95 -14 -82 -48 -73 -37 -9 0
41 68 76 34 62 66 52 13 40 4 36 2 32 29 73 43 14 88 93 59 51 48 71 20 15 30 17 8 11 91 45 54 81 28 70 -24 -64 -87 -84 -7 -58 -90 -56 -97 -67 -42 -27 -79 -94 -19 -49 -65 -5 -33 -95 -72 -60 -86 -53 -47 -22 -50 -6 -96 -83 -77 -80 -69 0
79 48 83 62 17 87 19 34 20 94 76 75 77 71 23 32 84 31 44 93 38 85 28 -88 -58 -73 -92 -60 -80 -55 -2 -13 -10 -67 -4 -46 -16 -89 -15 -81 -56 -68 0
10 75 9 27 2 8 84 94 46 11 87 31 12 88 45 37 18 58 76 56 30 51 16 85 25 48 67 7 15 40 22 81 20 77 74 14 21 57 -39 -32 -33 -50 -68 -79 -13 -52 -97 -1 -69 -65 -96 -80 -34 -53 -66 -78 -49 -54 -63 -19 -28 -70 -24 -95 -42 -72 -26 -90 -62 -82 0
39 28 41 8 5 25 26 54 32 83 24 37 48 16 79 76 66 -51 -19 -74 -97 -31 -4 -75 -2 -52 -13 -14 -78 -86 -59 -92 -82 -87 -94 -22 0
90 31 77 7 1 49 76 84 42 82 66 83 94 -87 -28 -97 -16 -69 -88 0
69 31 11 98 18 9 72 90 10 62 25 73 82 37 17 33 22 77 49 91 42 44 21 61 86 38 32 50 87 81 41 27 53 55 12 2 -76 -5 -88 -16 -15 -92 -4 -85 -57 -56 -46 -48 -39 -30 -78 -96 -80 -43 -71 -26 -89 -35 -79 -67 -51 -23 -7 -75 -20 -40 -1 -36 -70 0
53 64 37 26 59 52 3 36 16 77 89 23 13 90 19 32 98 15 -34 -44 -5 -11 -74 -65 -67 -68 -50 -57 -56 -8 -84 -4 -14 -6 -46 -45 -12 -87 -86 -2 0
30 94 48 96 45 11 31 26 77 41 50 17 63 71 64 46 16 87 -85 -9 -53 -55 -66 -37 -42 -73 -79 -14 -22 -28 -90 -86 0
31 43 55 54 57 18 39 61 71 26 83 3 47 80 53 4 90 36 -58 -12 -11 -10 -45 -41 -40 -25 -70 -7 -46 -48 -86 -81 -37 -17 -87 0
41 36 68 64 18 48 54 14 81 44 4 73 87 47 21 -43 -71 -32 -57 -13 -9 -88 -37 -96 0
96 37 28 59 70 86 15 82 71 89 68 2 51 8 58 23 72 75 21 5 7 91 38 14 1 4 55 62 35 26 57 80 6 36 49 41 44 9 48 83 30 92 88 81 84 43 42 25 39 12 66 34 79 54 -19 -16 -52 -40 -47 -24 -98 -53 -10 -90 -76 -20 -56 -93 -95 -97 -29 -61 -33 -13 -63 -46 -67 -60 -50 -45 -65 -69 -73 -78 -27 -32 -22 -18 -85 -94 -87 -3 -31 -77 -74 0
55 30 68 62 50 74 22 -33 -10 0
64 14 57 71 25 17 44 56 53 7 83 27 1 73 21 40 59 45 47 81 -28 -91 -92 -79 -89 -39 -60 -50 -51 -2 -62 -46 -18 -43 -75 -37 -76 -16 -30 -63 -3 0
16 47 53 48 46 84 32 43 60 72 38 15 95 80 22 37 86 91 90 89 31 65 14 17 61 76 56 1 23 3 58 94 59 45 41 -51 -79 -21 -57 -39 -18 -33 -66 -81 -34 -40 -69 -88 -24 -19 -74 -93 -71 -25 -13 -49 -67 -62 -6 -96 -26 -64 -28 -12 -20 -77 -27 -92 -8 -73 -85 -50 -9 -68 -97 -52 -30 -75 -83 0
43 47 1 20 29 24 70 49 80 72 81 12 71 22 30 75 25 15 31 65 96 27 88 67 19 21 8 10 64 13 91 17 85 87 83 50 23 79 86 33 18 57 63 61 41 28 -42 -34 -3 -38 -6 -4 -53 -94 -46 -78 -73 -9 -55 -76 -48 -44 -58 -92 -66 -51 -93 -54 -40 -37 -77 -97 -82 -5 -98 -52 -68 -69 -90 -56 -32 -2 -95 -35 -59 -36 -60 -45 -89 -62 -39 -14 -26 -16 -11 -74 0
80 56 92 65 47 85 97 36 5 35 -42 -14 -70 -6 -1 -40 -21 -73 -86 0
15 8 76 93 16 28 44 40 63 90 -11 -1 -20 -78 -96 -35 -65 -88 0
34 63 25 20 81 47 61 13 55 31 32 10 88 85 90 64 30 96 76 1 11 5 46 39 16 72 80 23 18 3 60 33 91 71 21 19 37 62 4 67 93 75 56 66 92 78 59 50 44 74 84 22 45 -28 -26 -95 -17 -57 -69 -6 -83 -14 -2 -29 -77 -87 -79 -42 -40 -53 -98 -68 -48 -43 -58 -49 -36 -86 -97 -8 -7 -70 -52 -9 -82 -27 -38 -35 -73 -65 -41 -51 -54 -89 -94 -15 -24 0
13 77 50 35 34 89 1 17 49 23 94 70 61 97 83 2 11 45 55 47 51 69 27 40 18 26 91 7 24 10 3 39 9 75 57 -52 -82 -72 -90 -86 -8 -54 -28 -12 -22 -15 -80 -36 -44 -87 -21 -19 -88 -29 -73 -63 -6 -33 -96 -16 -81 -56 -78 -14 -43 -68 -95 -98 -64 -32 -25 -60 -58 -93 -66 0
42 15 81 29 45 26 54 -33 -19 -95 0
32 56 75 41 60 54 16 42 51 21 90 39 4 20 79 84 68 12 9 38 46 47 -97 -25 -93 -34 -95 -52 -15 -44 -48 -53 -59 -10 -14 -74 -58 -28 0
43 53 98 96 90 46 29 24 82 45 10 83 25 97 60 84 8 19 34 -40 -41 -67 -30 -6 -49 -28 -23 -66 -50 -26 -78 -92 -69 -20 -56 -71 -74 -15 -37 -2 0
4 73 47 -39 -19 -53 -5 -72 -21 -31 -67 -43 -94 -9 -89 -77 -48 0
4 56 96 93 28 48 69 51 94 75 30 83 60 23 80 1 73 -15 -17 -8 -49 -82 -14 -92 -90 -20 -5 -22 -47 -19 -54 -29 -11 -95 -9 -50 -70 -13 -89 -33 0
27 64 42 29 91 35 95 31 57 80 78 61 59 76 16 90 89 73 56 79 70 98 -51 -32 -47 -23 -18 -93 -48 -81 -14 -41 -6 -52 -22 -30 -26 -1 -4 -77 -69 -45 -24 -15 -49 -3 0
91 36 92 70 74 82 47 32 8 98 68 37 -81 -34 -3 -64 -35 -11 -28 -26 -89 -31 -69 -40 -61 0
59 44 64 21 92 46 67 38 13 8 27 56 83 84 18 60 75 16 80 55 70 29 97 79 42 41 52 11 72 28 73 63 37 20 81 1 -14 -19 -93 -3 -82 -61 -94 -58 -7 -53 -40 -85 -45 -39 -78 -68 -23 -17 -96 -9 -74 -54 -57 -91 -49 -22 -90 -32 -2 -5 -6 -77 -33 -36 -66 0
77 91 33 69 26 42 4 32 38 66 49 25 51 95 83 12 73 6 19 86 45 18 55 68 9 88 39 56 21 62 -63 -3 -7 -53 -44 -75 -52 -23 -50 -54 -28 -64 -13 -92 -70 -87 -79 -65 -35 -31 -46 -14 -27 -82 -71 -10 -37 -1 -67 -17 -16 -81 0
48 61 73 51 60 5 57 95 94 -6 -59 -37 -10 -31 -12 -2 -42 -47 0
4 47 51 -26 -64 0
86 18 55 48 9 7 76 11 91 66 2 85 60 69 12 41 1 -54 -53 -13 -63 -98 -35 -40 -3 -67 -83 -90 -64 -81 -89 0
53 66 -25 0
4 15 33 86 73 74 84 61 52 48 50 87 72 63 82 77 49 54 6 -3 -76 -62 -46 -2 -22 -45 -7 -71 -83 -19 -88 -51 -36 -8 -21 -37 -91 -41 -65 -30 -98 -23 -40 -80 -28 -14 -5 -85 -42 -75 -25 -29 0
10 69 67 47 23 33 83 89 -21 -29 -90 -81 -75 -11 -77 -14 -56 -87 -5 -12 0
93 15 32 24 52 33 75 -82 -11 -36 -61 -35 -1 -87 0
15 87 96 93 5 92 37 51 69 62 28 59 84 94 98 75 29 90 40 78 47 38 19 43 20 -6 -65 -30 -39 -91 -76 -64 -77 -67 -46 -61 -18 -56 -31 -95 -45 -83 -63 -70 -35 -13 -53 -68 -1 -89 -36 -86 0
18 74 98 14 77 90 37 5 76 89 6 32 -95 -62 -11 -53 -7 -96 -22 -52 -97 -34 -55 -15 -94 -16 0
14 44 16 21 80 84 12 19 96 5 13 18 58 31 94 15 47 93 75 59 98 3 64 74 65 50 57 89 73 29 49 28 90 1 26 67 -83 -48 -61 -97 -40 -38 -82 -22 -60 -33 -23 -35 -91 -68 -95 -39 -4 -76 -10 -11 -56 -87 -8 -27 -62 -88 -78 -79 -32 -53 -2 -34 -42 -41 -55 -85 0
89 75 30 28 83 94 7 50 48 26 77 27 97 53 85 11 96 63 37 1 71 69 24 19 -40 -60 -10 -32 -98 -92 -56 -84 -80 -22 -25 -6 -72 -81 -55 -73 -46 -13 -47 -79 -4 -52 -2 -43 -17 0
95 62 60 -70 -89 -98 -68 -45 -14 0
27 36 62 71 45 78 33 -11 -85 -12 -7 -6 -73 -93 -92 -30 -9 -74 -51 -52 -97 0
87 23 67 34 24 19 28 72 25 48 84 57 20 22 83 93 8 73 16 45 94 85 78 92 71 53 33 10 66 51 4 77 -7 -11 -36 -14 -40 -62 -37 -32 -5 -59 -96 -43 -82 -69 -50 -88 -27 -86 -70 -80 -95 -18 -31 -61 -1 -75 -55 -26 -41 -29 -49 -44 -79 -13 -47 -46 -52 -58 -56 -98 -38 -35 -6 -97 -15 -91 -81 -64 -30 -3 0
75 68 55 83 78 14 96 61 86 51 37 18 31 29 65 82 71 74 3 58 56 57 2 90 63 79 32 39 94 93 38 20 35 42 13 97 22 34 89 9 16 54 64 17 26 70 53 10 -41 -6 -67 -80 -23 -60 -40 -92 -50 -47 -95 -12 -49 -98 -62 -46 -5 -19 -25 -81 -76 -7 -43 -44 -52 -33 -77 -66 -73 -85 -11 -48 -27 -45 -59 -88 -8 -21 0
24 30 76 31 90 63 72 60 56 46 91 93 5 85 48 55 20 16 3 41 45 27 14 28 47 1 9 92 34 53 88 67 44 96 -35 -80 -6 -61 -4 -42 -32 -11 -62 -97 -87 -77 -8 -21 -51 -94 -98 -54 -78 -58 -37 -22 -33 -69 -68 -57 -19 -64 -23 -70 -86 -13 -29 -25 -95 -82 -81 -75 -84 -49 -38 -10 0
33 82 61 79 95 34 37 1 90 68 52 38 85 87 55 9 94 67 89 93 24 51 77 49 46 10 15 8 60 83 31 41 84 86 88 54 98 65 80 96 2 72 14 26 30 73 42 76 17 -57 -47 -29 -13 -6 -23 -70 -69 -75 -53 -19 -56 -12 -35 -27 -97 -36 -71 -43 -48 -5 -25 -39 -64 -63 -74 -62 -22 -40 -58 -92 -59 -66 -4 -28 0
60 3 19 22 86 13 84 98 8 20 88 11 50 38 52 59 81 35 30 93 5 97 24 28 85 16 83 51 4 23 46 90 67 79 10 61 54 6 74 1 48 63 71 53 33 94 72 43 -45 -75 -39 -27 -41 -21 -31 -2 -73 -69 -91 -58 -37 -26 -47 -95 -15 -56 -34 -80 -70 -66 -36 -76 -9 -57 -65 -64 -87 -7 -29 -96 -49 -18 -92 -55 -14 -89 -12 -44 -77 -17 0
60 63 41 81 17 1 7 91 61 25 72 45 35 92 96 75 26 12 94 85 54 48 44 -73 -70 -66 -2 -71 -43 -27 -23 -79 -24 -28 -59 -16 -31 -20 -15 -4 -57 -40 -67 -86 -65 -88 -37 -78 -46 -56 -6 -8 -32 -38 -80 0
95 14 57 76 50 90 93 71 41 96 81 25 69 79 38 51 3 54 97 30 -59 -61 -17 -78 -1 -77 -47 -24 -82 -39 -29 -36 -66 -6 -19 -31 -28 -11 -53 -63 -89 -44 -13 -35 0
2 16 8 31 69 39 14 57 55 6 44 81 46 71 37 17 29 19 58 26 82 30 11 53 49 63 79 25 42 50 77 24 93 74 -90 -95 -3 -54 -23 -52 -43 -88 -48 -32 -9 -18 -67 -97 -83 -34 -60 -20 -84 -62 -21 -64 -15 -75 -94 -89 -36 -41 -85 -33 0
49 79 81 6 46 -78 -9 -98 -84 -71 0
60 6 84 88 90 91 96 87 78 59 45 32 93 57 3 75 48 68 39 43 9 -36 -28 -49 -95 -23 -8 -58 -41 -69 -34 -79 -53 -18 -26 -42 0
1 -78 -70 0
27 46 13 81 24 65 83 64 10 19 6 51 59 88 20 60 73 7 47 89 32 86 77 94 78 69 79 11 56 3 18 66 85 22 36 29 2 39 45 -93 -8 -87 -49 -31 -43 -4 -48 -62 -26 -5 -75 -91 -92 -37 -23 -80 -50 -53 -40 -35 -98 -34 -96 -52 -15 -72 -21 -28 -1 -57 -16 -82 -84 -61 -70 -30 -38 -33 -74 -42 -90 -97 -68 -95 -17 -76 -9 -71 -58 -25 -14 -55 -63 0
45 10 91 55 4 39 92 52 36 79 20 69 38 50 12 73 53 16 83 56 85 35 44 72 29 -87 -22 -14 -64 -80 -32 -71 -3 -30 -47 -31 -26 -61 -28 -37 -67 -95 -11 -70 -76 -94 -65 -33 -6 -42 -68 -43 -41 -21 -63 -74 -82 -88 -89 -27 -17 -13 -9 0
64 9 6 10 83 91 1 78 21 4 86 52 96 32 17 71 70 3 19 57 55 12 54 30 61 22 72 2 82 90 45 75 36 15 16 77 27 24 98 26 18 -89 -94 -73 -68 -79 -49 -56 -50 -51 -38 -84 -67 -92 -25 -46 -33 -48 -7 -29 -23 -60 -11 -5 -40 -69 -62 -14 -59 -97 -85 -81 -42 -53 -47 -35 -63 -43 -66 -95 -28 -87 -20 -76 -88 -34 -39 -31 -65 0
20 13 1 84 40 51 15 83 56 64 47 98 96 33 53 81 87 63 52 -38 -26 -97 -60 -48 -3 -66 -76 -59 -25 -72 -29 -27 -4 0
66 77 79 87 92 78 89 94 64 75 88 97 27 76 -29 -85 -22 -2 -73 -55 -51 -84 -61 -58 -33 -65 -48 -50 -1 -4 -82 -93 -38 -28 -49 -3 0
53 83 81 62 84 14 47 78 34 23 29 28 93 86 39 71 5 46 94 92 74 12 75 25 98 65 88 26 4 -2 -69 -1 -3 -18 -79 -54 -40 -90 -67 -45 -82 -7 -51 -72 -50 -52 -32 -91 -56 -60 -11 -19 -37 -43 -9 -38 -41 -97 0
64 39 37 35 89 67 44 46 -51 -22 -88 -3 -14 -2 -85 -91 -26 -38 0
87 33 29 48 41 24 69 35 85 79 40 16 42 74 20 72 7 9 36 49 38 -1 -27 -55 -86 -18 -98 -14 -71 -6 -97 -3 -93 -62 -92 -5 -54 -13 -51 -15 -59 -39 -57 -68 -73 -31 0
36 46 67 95 48 37 13 55 71 94 78 79 12 26 75 14 54 20 -81 -42 -97 -74 -82 -32 -87 -47 -70 -63 -89 -96 -62 -6 -86 -17 -49 -9 -23 -84 -30 -53 0
98 19 51 97 87 5 90 4 48 64 93 80 31 1 26 25 21 -75 -34 -14 -62 -79 -96 -63 -91 -18 -39 -40 -54 -57 -32 -30 -42 -23 0
24 4 21 3 43 34 35 49 18 7 92 45 89 46 84 57 25 78 48 77 52 79 13 62 67 88 64 72 69 10 86 30 47 40 28 87 55 38 22 73 68 53 96 91 -58 -36 -51 -66 -31 -9 -6 -15 -75 -83 -70 -42 -5 -50 -19 -32 -54 -1 -27 -16 -94 -71 -11 -12 -74 -97 -33 -26 -2 -44 -93 -76 -59 -8 -39 -37 -23 -82 -85 -20 -56 -95 -65 -81 -14 -63 -90 -17 -80 -98 -41 0
25 60 6 43 93 10 56 86 28 97 27 78 62 77 41 31 67 21 35 81 79 50 9 40 53 71 47 11 68 82 70 17 13 37 18 38 88 36 29 55 96 12 -72 -48 -30 -7 -94 -14 -66 -59 -46 -64 -63 -92 -85 -45 -90 -74 -84 -49 -87 -57 -15 -4 -34 -83 -42 -51 -98 -54 -24 -69 -89 -91 -52 -80 -1 -16 -26 -8 -75 -33 0
78 64 62 51 14 79 -72 -36 -28 -92 -32 -17 -88 0
62 56 -23 -46 -94 -28 -86 -91 -71 -11 0
56 3 50 65 81 15 92 26 54 42 -60 -73 -71 -95 -17 0
-67 0
27 77 89 42 96 98 29 66 79 32 8 54 65 80 21 4 57 49 91 11 31 63 85 43 58 19 13 30 12 86 97 14 26 22 -93 -72 -68 -69 -33 -78 -20 -6 -18 -81 -23 -5 -90 -37 -73 -10 -45 -36 -95 -70 -35 -9 -64 -67 -2 -17 -61 -7 -46 -50 -48 -56 -52 0
38 18 73 84 50 49 76 9 20 33 16 86 61 48 12 57 53 29 67 64 19 22 71 2 3 82 87 89 11 52 92 88 -98 -42 -10 -75 -32 -14 -68 -43 -62 -24 -69 -63 -80 -59 -96 -28 -30 -94 -39 -74 -40 -93 -31 -17 -58 -44 -1 -54 -6 -4 0
34 79 98 97 57 39 9 27 25 17 95 67 15 69 28 19 35 71 14 56 48 78 61 3 60 91 6 33 58 66 88 29 37 16 90 85 24 82 12 11 31 -80 -94 -13 -23 -45 -30 -77 -64 -51 -32 -75 -70 -2 -10 -65 -50 -54 -18 -96 -73 -93 -1 -43 -20 -4 -76 -8 -22 -41 -92 -62 -44 -55 0
91 75 31 69 79 52 -34 -88 -35 -78 -24 -29 -65 -22 -16 -77 -89 -86 -92 0
49 12 17 88 33 83 92 36 71 37 53 25 14 91 35 79 60 67 16 56 74 10 39 4 65 64 55 76 52 77 42 94 1 46 43 96 13 80 75 22 70 69 -8 -81 -48 -84 -86 -5 -45 -9 -24 -54 -30 -97 -44 -68 -51 -7 -82 -50 -23 -18 -3 -27 -85 -32 -28 -98 -61 -38 -59 -21 -95 -66 -72 -57 -62 -6 -19 -89 -2 -41 -90 -15 -47 -26 -73 -58 -31 -34 -29 0
10 97 56 52 15 92 34 32 12 83 44 62 1 33 36 98 23 2 73 16 80 29 49 40 5 26 20 72 8 95 18 70 55 84 53 43 90 78 85 27 -11 -68 -22 -38 -75 -74 -47 -77 -39 -41 -48 -50 -59 -71 -81 -67 -28 -64 -63 -86 -82 -89 -17 -54 -88 -25 -57 -93 -31 -24 -9 -60 -13 -46 -37 0
41 2 21 6 52 95 14 75 22 13 42 63 57 97 28 11 93 66 88 15 81 76 84 17 90 79 54 -12 -10 -49 -5 -74 -61 -37 -46 -68 -24 -62 -7 -39 -70 -56 -43 -48 -55 -29 -40 -98 -82 -51 -44 -1 -65 -96 -72 -18 -35 -16 -27 0
51 29 25 17 94 90 62 61 3 92 69 48 83 26 45 50 12 23 82 41 95 86 88 43 89 59 67 66 30 78 39 91 60 -54 -2 -58 -96 -68 -87 -36 -24 -73 -57 -70 -44 -32 -8 -80 -47 -53 -31 -21 -65 -76 -63 -20 -42 -55 -22 -75 -15 -10 -4 -81 -13 -33 -9 -71 -27 -14 -6 -11 -18 -84 -77 0
73 18 10 7 83 29 55 23 21 41 8 16 -33 -74 -6 -82 -90 -53 -56 -51 -43 -30 -65 -34 -59 -97 0
38 4 18 53 88 44 48 74 12 35 96 89 32 33 92 63 57 54 40 52 69 2 90 47 -82 -22 -80 -11 -5 -45 -60 -26 -37 -3 -85 -62 -1 -46 -97 -28 -20 -10 -67 -43 -51 -39 -27 -56 -81 -7 -73 -77 -78 -66 0
