c NeuroCodeBench 2.0 CNF formula with verdict Sat
p cnf 14 23
-4 0
2 4 10 8 -7 -3 -9 0
11 0
14 2 -13 -5 0
5 13 0
8 3 0
12 13 6 5 7 10 4 -2 -9 -11 -14 0
11 13 8 14 -7 -4 -9 -10 -1 0
9 4 2 3 13 12 7 -8 -1 -10 -6 0
13 3 6 4 7 14 11 2 10 -9 -8 -5 -12 0
6 2 3 5 -10 -8 -11 0
14 1 11 4 7 -13 -5 -8 -12 -10 0
5 11 7 14 2 3 6 -1 -8 -9 -12 -13 -10 0
11 5 -7 -2 0
10 8 9 -4 -6 0
3 9 7 -1 0
9 5 10 4 1 8 -3 0
1 10 -12 -13 -8 0
9 10 3 -2 -11 -7 -5 -14 -12 -1 -6 -4 -13 0
6 2 13 9 14 -4 -11 -3 -12 -8 -1 0
2 5 8 -6 0
11 3 8 14 7 -1 -6 -10 0
5 3 8 11 14 4 9 13 6 -10 -1 -2 -12 0
