c NeuroCodeBench 2.0 CNF formula with verdict Sat
p cnf 16 54
11 12 7 3 -9 -10 -5 -2 -8 -1 -15 -16 0
11 10 16 13 2 3 -7 -1 -14 -15 -12 0
13 15 1 9 2 -12 -10 -5 0
16 11 7 -3 -1 -13 0
3 1 8 14 11 -5 -13 0
11 -16 0
4 9 6 -13 -3 -16 0
12 9 16 2 5 15 10 -6 -1 -8 -13 -14 -7 0
12 11 3 -6 -2 -10 -7 0
9 14 5 -6 -10 -11 0
15 14 11 -10 -2 -3 0
15 11 2 4 6 5 16 -12 0
7 9 3 14 5 11 -16 -1 -10 -2 -12 -6 -15 -13 -4 0
9 13 4 10 -7 -8 -1 -2 0
7 2 6 11 10 -13 -14 -3 -1 -4 0
9 11 0
7 12 8 -5 -13 0
7 1 4 2 -5 -6 -9 -13 0
6 3 12 -11 -16 0
1 12 3 10 13 14 5 7 11 9 -4 -8 -2 -6 0
1 12 5 9 14 15 2 16 8 -3 -13 -4 -11 0
4 7 12 9 -1 -10 -11 -8 -16 -3 0
7 10 0
12 4 13 15 -14 -6 -10 -3 -7 -9 -11 0
5 10 12 -11 -16 -13 -15 -2 0
4 8 3 -6 -5 -11 -13 -12 0
14 5 10 1 -15 -13 -7 0
14 9 16 13 1 -2 0
3 16 15 11 -7 -8 -9 -1 -6 -12 -5 0
13 -5 0
11 15 8 -4 -6 0
2 6 9 -15 -4 -12 -7 -14 -10 0
6 7 -14 0
16 7 12 2 5 10 14 -15 -9 -8 -4 -1 -6 -13 -3 0
7 16 14 11 10 -6 0
14 5 6 2 9 8 3 -15 -13 -7 -12 -16 -1 -11 -4 0
10 5 9 12 11 -16 -3 -15 -6 -13 -1 0
5 16 14 9 -8 0
12 10 16 14 -6 -8 -13 -1 0
6 1 -9 0
8 10 16 5 6 -1 -14 -13 -11 -2 -7 -12 0
1 7 4 15 -14 0
7 16 12 11 -5 -14 0
4 12 13 -7 -8 -15 -6 -9 -1 -5 -10 -14 0
8 5 14 12 1 -4 -15 -7 -2 0
2 -4 -15 -3 -13 -10 -7 -5 -16 0
6 8 -1 -3 0
14 13 15 7 3 -12 -9 -1 -8 -5 -6 -16 0
8 11 5 15 6 10 4 -13 -9 -3 -16 -14 -12 0
3 14 15 16 11 8 7 13 1 -10 -4 -9 -2 -6 -12 0
4 9 8 10 5 11 -14 -16 -13 -6 -12 -3 -1 -7 0
1 8 7 15 12 16 2 11 -14 -6 -3 -4 -10 -5 0
16 8 7 -12 -4 -3 -13 0
8 4 9 -15 -12 -13 -6 -11 -16 -3 0
