c NeuroCodeBench 2.0 CNF formula with verdict Sat
p cnf 95 345
36 80 67 21 95 62 59 6 79 51 35 84 81 11 68 43 57 89 66 45 44 55 52 31 76 93 53 74 54 65 41 38 60 73 22 94 46 39 72 5 33 88 85 82 27 13 83 9 48 18 86 50 -25 -26 -56 -71 -7 -2 -12 -10 -24 -29 -30 -28 -15 -14 -8 -17 -42 -37 -61 -70 -4 -1 -16 -32 -20 -91 -90 -34 -40 -23 -69 -19 -64 0
30 56 33 24 68 42 88 94 81 27 58 6 61 38 95 4 29 63 85 78 14 59 10 92 62 23 3 36 79 26 55 25 49 83 41 37 15 47 46 5 35 16 9 -76 -51 -64 -40 -17 -18 -73 -80 -2 -69 -48 -91 -44 -34 -72 -1 -52 -39 -32 -67 -77 -60 -54 -12 -45 -13 -57 -82 -84 -71 0
87 29 39 70 13 11 49 48 76 14 82 24 2 89 74 8 57 26 56 75 60 12 36 1 15 46 52 68 55 80 65 47 37 16 6 23 73 71 58 93 -34 -33 -28 -63 -18 -64 -69 -42 -83 -72 -90 -44 -43 -92 -9 -40 -53 -45 -22 -3 -61 -4 -95 -41 -59 -94 -32 -62 -51 -77 -91 -86 -21 -79 -20 -5 -67 -10 -81 0
81 16 93 45 2 7 86 75 77 33 1 10 29 18 4 84 47 78 14 31 12 48 74 90 85 43 39 8 60 58 36 34 20 38 9 94 -69 -64 -53 -22 -40 -6 -49 -56 -30 -26 -62 -65 -23 -66 -89 -44 -82 -83 -13 -24 -92 -88 -55 -87 -54 -63 -59 -70 -76 -32 -15 -71 -95 -72 -3 -46 -67 -50 -35 -57 -73 0
19 72 48 79 60 27 33 -62 -42 -45 -71 -85 -2 -67 -41 -92 0
24 59 75 45 72 91 19 84 82 8 67 36 25 70 16 94 73 69 12 74 32 49 79 89 65 68 66 60 86 88 5 53 63 58 80 22 21 3 10 7 13 -54 -37 -6 -38 -26 -71 -34 -28 -31 -40 -90 -43 -92 -52 -2 -83 -9 -64 -41 -50 -62 -30 -57 -93 -61 -29 -17 -23 -47 -27 -33 -76 -11 -1 -20 -44 -55 -77 -15 -85 -51 -48 -56 -14 -87 -39 -95 -18 -35 -78 -4 -42 -46 0
10 49 37 28 -93 -83 -1 -23 -81 0
51 35 11 49 31 39 83 80 5 50 92 62 82 79 89 63 28 88 53 44 26 -45 -95 -77 -86 -68 -24 -19 -17 -20 -64 -38 -1 -32 -61 -55 -93 -33 -34 -3 0
76 51 49 27 57 47 69 12 4 62 68 59 63 39 66 94 75 64 53 14 35 9 36 43 -54 -73 -74 -31 -55 -95 -32 -1 -37 -86 -42 -89 -3 -24 -44 0
7 21 25 34 80 47 68 17 79 65 64 27 63 50 28 53 44 84 81 24 1 8 94 11 18 4 39 71 3 95 19 40 20 -86 -14 -82 -91 -45 -29 -59 -37 -58 -88 -70 -67 -56 -55 -41 -69 -48 -66 -32 -60 -76 -30 -73 -16 -36 -54 0
86 61 77 53 44 91 87 8 30 -74 -26 -13 -55 -76 -51 -39 -33 -84 -3 -41 -48 -28 0
35 1 55 84 67 58 51 29 13 73 32 76 43 54 62 75 66 28 70 33 42 7 95 85 -64 -3 -5 -48 -59 -88 -14 -93 -94 -21 -87 -15 -81 -41 -61 -92 -31 -72 0
24 84 29 68 76 28 8 19 67 38 41 6 83 81 18 51 5 90 92 80 50 47 77 26 87 -54 -2 -36 -7 -3 -9 -48 -14 -82 -49 -71 -58 -93 -79 -69 -88 -59 -27 -61 -85 -10 -52 -30 -1 -75 -39 -45 -44 -91 0
24 25 -37 -12 0
-51 -15 -55 0
20 38 71 15 45 80 58 49 94 78 27 17 53 33 61 50 55 25 85 82 77 26 1 72 81 84 56 48 32 30 13 34 93 8 42 -16 -41 -52 -19 -60 -90 -21 -37 -87 -29 -11 -79 -47 -73 -68 -2 -66 -70 -64 -40 -36 -75 -44 -18 -51 -28 -86 -65 -62 -74 -83 -91 0
4 34 51 27 46 91 39 70 71 17 19 45 88 16 5 32 20 93 -90 -3 -72 -23 -79 -28 -81 -67 -10 -78 -82 -50 -37 -12 -1 -9 -33 -58 -54 -77 -60 -95 -31 -85 0
61 64 15 67 92 62 50 24 32 55 43 46 6 53 82 -8 -2 -11 -14 -74 -89 -29 -68 -34 -3 -75 -90 -76 -87 -60 0
50 5 19 59 26 65 27 69 56 32 75 23 83 12 16 71 62 76 54 42 17 13 57 92 61 -70 -95 -79 -18 -29 -66 -45 -36 -74 -58 -44 -37 -52 -60 -22 -6 -90 -72 -73 -81 -34 -64 -25 -93 0
3 76 75 56 59 20 4 19 94 65 39 7 68 50 54 16 71 87 46 35 -88 -89 -14 -22 -55 -1 -49 -26 -60 -6 -80 -34 -30 -10 -48 -57 -42 -84 -90 -93 0
45 30 40 26 53 94 65 28 89 75 68 4 33 60 16 73 39 14 76 79 87 18 -1 -92 -69 -67 -29 -20 -37 -74 -51 -44 -91 -8 -42 -15 -59 -71 -72 -2 -43 -36 -55 -81 -47 -61 0
16 6 82 5 59 34 79 92 38 26 60 88 1 58 45 84 22 66 12 19 78 81 33 31 73 13 24 65 61 64 35 30 36 39 7 23 67 28 -72 -3 -17 -94 -2 -77 -27 -80 -55 -83 -85 -42 -95 -43 -8 -93 -69 -71 -25 -63 -46 -18 -21 -90 -29 -49 -44 -75 -32 -74 -56 -68 -57 -86 -11 -4 -52 0
9 8 65 2 71 61 43 62 6 94 22 47 50 78 -23 -59 -72 -41 -5 -34 -13 -51 -69 -95 0
74 4 15 82 5 20 80 87 89 55 62 54 41 84 -53 -8 -77 -21 -65 -6 -61 -95 -18 -25 0
4 -49 -32 -33 -25 0
56 50 68 88 25 10 4 69 46 81 23 38 63 49 21 2 22 78 11 44 32 18 67 41 91 82 9 47 -15 -59 -27 -86 -57 -80 -90 -28 -13 -62 -71 -95 -33 -92 -74 -70 -6 -85 -16 -30 -34 -55 -29 -52 -65 -45 -61 -26 -51 -24 -76 -72 -37 -3 -19 -84 0
31 87 84 85 74 22 76 93 24 82 90 46 29 66 16 3 70 -38 -52 -53 -20 -58 -94 -48 -1 -51 -14 -35 -39 -75 -17 -54 0
41 78 24 51 39 55 63 45 17 5 44 21 42 71 81 59 90 22 66 18 87 -8 -72 -69 -76 -91 -20 -15 -62 -36 -94 -3 -7 -1 -48 -70 -37 -95 -38 -13 -14 -43 -30 -83 0
22 74 91 13 67 64 51 7 38 26 72 53 61 81 78 27 2 46 15 44 94 63 -45 -32 -89 -42 -3 -75 -8 -93 -57 -41 -14 -24 -39 -16 -12 -33 -36 -73 -65 -58 -62 -56 -90 -25 -23 -48 -19 0
42 5 64 92 20 61 17 90 53 13 65 67 35 89 71 36 70 47 95 25 77 2 74 59 58 63 79 37 52 15 -38 -40 -24 -66 -83 -84 -80 -4 -41 -91 -54 -87 -23 -16 -44 -7 -94 -18 -9 -45 -21 -72 -1 -30 -88 -62 -29 -73 0
85 43 70 19 18 44 83 74 66 33 36 16 13 41 69 72 38 35 49 3 54 55 61 2 59 37 17 1 64 67 52 80 10 75 6 60 28 31 88 48 20 58 24 22 76 45 -87 -27 -84 -15 -77 -95 -71 -47 -25 -32 -30 -68 -93 -56 -46 -21 -79 -90 -42 -29 -34 -50 -23 -53 -4 -82 -39 -51 -63 -8 -94 -40 -73 -62 -78 -14 -9 -5 -12 -89 -11 -81 -86 -26 -92 -91 -65 0
57 83 2 88 58 86 41 93 70 59 55 80 90 92 17 21 77 67 29 81 8 87 89 84 53 3 23 7 62 47 44 10 30 37 45 -74 -14 -79 -63 -38 -4 -60 -54 -85 -12 -61 -56 -64 -40 -50 -78 -20 -48 -68 -36 -15 -52 -72 -66 -25 0
29 37 42 40 -7 -50 0
86 64 59 58 93 44 39 51 45 80 22 48 18 19 30 27 95 23 3 72 75 20 -85 -84 -66 -52 -21 -13 -62 -33 -14 -16 -69 -15 -47 -56 -31 -43 -34 -17 -63 -49 -89 -11 -76 -24 -87 0
41 60 90 87 81 55 58 14 5 22 25 39 84 6 8 27 89 11 24 35 79 20 64 53 1 94 3 61 67 83 77 48 56 69 71 43 63 33 -50 -93 -65 -36 -91 -7 -10 -2 -70 -95 -13 -51 -31 -38 -19 -59 -28 -12 -4 -82 -76 -29 -54 -66 -49 -18 -46 -26 -21 -45 -9 -32 -88 -16 -40 -23 -44 -47 -42 -37 -92 -74 -52 -78 -57 -72 -73 -30 0
44 88 -85 0
36 11 46 16 85 54 12 7 65 75 30 14 29 72 69 4 1 73 92 62 49 94 93 6 59 17 77 26 70 82 21 47 53 23 84 88 91 61 80 58 66 48 -52 -78 -24 -9 -68 -95 -44 -67 -2 -56 -86 -13 -27 -18 -81 -40 -83 -15 -10 -43 -60 -8 -41 -90 -32 -89 -87 -35 -50 -25 0
62 54 19 47 23 28 42 15 9 32 7 77 83 87 69 31 -22 -43 -61 -17 -90 -2 -79 -72 -82 -58 -86 -78 -48 -95 -84 -76 -21 -37 -45 -38 0
73 5 89 90 39 24 43 77 10 53 78 28 68 -51 -4 -61 -81 -14 -88 -92 -46 -12 -44 0
85 63 46 2 42 88 70 82 48 54 87 20 78 32 73 4 33 90 16 26 44 56 62 24 -17 -89 -60 -77 -86 -5 -35 -41 -27 -66 -47 -34 -14 -95 -57 -3 -94 -31 -11 -50 -71 -83 -69 0
41 86 23 82 33 60 -10 -45 -36 -78 -94 -90 -58 0
2 71 24 44 82 74 36 32 7 34 81 58 91 49 10 12 93 73 28 31 65 56 42 72 46 27 9 79 64 19 13 63 76 94 33 -40 -43 -57 -87 -68 -77 -53 -75 -78 -83 -88 -80 -66 -41 -59 -37 -35 -22 -61 -3 -54 -4 -6 -1 -50 -92 -51 -89 -39 -67 -85 -55 -20 -21 -48 0
8 59 46 41 45 94 63 60 27 16 89 33 15 23 39 83 57 14 37 64 67 91 81 80 47 -13 -61 -95 -6 -68 -90 -34 -62 -72 -3 -78 -66 -40 -24 -69 -4 -17 -82 -11 -86 -43 -50 0
19 44 79 41 53 13 25 77 50 -85 -52 -8 -23 -18 -12 -63 -61 -35 0
43 52 69 94 87 26 86 56 22 48 42 11 57 84 49 10 30 7 39 79 59 27 80 12 28 67 6 66 21 14 60 47 81 50 24 75 17 72 93 53 77 2 15 -36 -5 -65 -8 -35 -41 -74 -25 -82 -63 -23 -29 -37 -73 -90 -54 -3 -34 -18 -58 -95 -78 -33 -68 -46 -92 -88 -64 -71 -89 -38 -20 -70 0
48 52 41 43 91 49 36 6 38 16 -70 -9 -71 -40 -83 0
60 74 86 15 20 47 80 2 53 9 92 7 44 83 26 79 63 45 82 69 77 3 35 41 43 40 24 16 14 39 64 75 52 33 61 57 5 32 -46 -22 -6 -34 -37 -21 -62 -13 -30 -54 -78 -70 -93 -31 -91 -87 -90 -55 -84 -58 -68 -51 -72 -28 -4 -94 -29 -56 -85 -18 -8 -95 -10 0
10 9 58 71 13 44 95 31 60 81 39 77 75 67 90 17 23 27 5 6 48 30 88 94 38 -34 -89 -51 -54 -87 -79 -69 -45 -15 -37 -40 -42 -22 -76 -72 -57 -43 -80 -26 -52 -64 -85 -86 -70 -49 -2 -36 -16 0
26 48 71 60 22 56 1 -91 -77 -9 -87 -93 -32 -28 -17 0
36 16 95 86 91 33 43 45 77 50 2 11 -6 -27 -24 -29 -30 -53 -55 -39 -66 -42 -23 -85 0
44 81 89 45 15 65 20 5 46 73 64 35 32 67 56 42 16 51 14 2 91 60 59 9 72 3 7 33 90 66 70 10 87 -18 -63 -68 -28 -25 -95 -24 -58 -27 -74 -38 -40 -12 -49 -34 -8 -1 -48 -85 -30 -13 -37 0
71 84 11 88 82 43 72 87 39 75 60 66 93 16 77 -29 -55 -52 -14 -1 -23 -78 -85 -74 -37 -15 -80 -27 -95 -31 -5 -19 -12 -73 -13 -89 -6 0
3 54 72 16 38 1 43 57 35 60 58 53 29 12 32 90 78 13 62 84 50 68 28 74 4 20 22 56 26 93 24 9 7 59 2 37 21 -73 -47 -65 -18 -83 -69 -92 -63 -66 -11 -75 -89 -85 -40 -52 -46 -45 -6 -36 -76 -31 -25 -71 -49 -33 -67 -19 -86 -8 -5 -10 -80 -17 -91 -70 -44 -34 -23 -42 -61 -39 -81 -87 -51 0
49 5 26 44 21 61 76 86 19 51 78 71 67 47 89 60 93 12 59 85 58 75 15 88 92 90 63 -62 -1 -95 -87 -52 -72 -38 -8 -84 -17 -50 -40 -53 -24 -69 -34 -39 -4 -56 -43 -83 -65 -33 -48 -79 0
74 60 89 79 26 84 16 29 36 18 8 41 59 55 50 85 33 87 32 93 45 94 66 53 57 22 14 80 49 6 28 44 -63 -38 -75 -30 -21 -37 -34 -73 -1 -54 -70 -24 -48 -61 -11 -23 -56 -82 -9 -12 -69 -62 -40 -46 -90 -31 -78 -25 -83 0
9 50 66 55 94 68 14 21 93 77 78 20 79 60 73 54 74 52 16 69 88 17 8 -19 -29 -62 -71 -15 -48 -5 -12 -85 -33 -25 -23 -35 -13 -82 -91 -53 -86 -27 -64 -24 -43 -83 -70 -41 -65 -80 -46 -72 -87 -92 -28 -38 -45 -63 -4 -61 -90 -95 -75 -84 -76 -39 -42 -18 -67 0
15 8 55 68 2 89 10 90 27 19 84 92 53 77 45 40 38 60 42 95 34 -3 -83 -49 -71 -22 -39 -26 -28 -13 -62 -93 -76 -67 -35 -47 -91 -52 -88 0
40 44 42 26 32 47 29 74 53 1 59 85 35 39 57 8 13 14 31 3 37 -70 -20 -45 -38 -51 -73 -86 -41 -83 -18 -11 -22 -16 -50 -46 -94 -21 -34 -10 -75 -23 -67 -66 -84 -93 -60 -49 -82 0
35 27 34 46 54 26 72 56 77 64 51 84 -11 -68 -4 -43 -90 -76 -25 -5 -61 0
73 8 42 95 50 5 78 10 70 68 21 15 90 72 37 53 54 92 49 63 12 79 81 77 29 24 3 36 59 69 71 48 45 9 58 30 87 75 74 85 44 91 -35 -47 -17 -23 -18 -66 -64 -7 -62 -31 -4 -25 -76 -51 -93 -84 -6 -2 -39 -46 -56 -26 -83 -57 -65 -88 -38 -94 -67 -20 -80 -86 -22 -40 -16 -41 -43 -1 -28 -52 -13 -33 -32 -14 0
12 94 76 90 69 79 -22 -44 -3 -87 -57 -29 0
5 79 49 24 22 -71 -20 -77 0
73 11 6 47 91 71 50 46 44 17 58 14 88 84 66 43 56 5 13 10 41 48 54 8 68 9 76 95 1 30 80 20 52 23 -39 -60 -72 -79 -40 -15 -16 -26 -57 -61 -62 -45 -67 -92 -27 -21 -75 -22 -81 -28 -77 -78 -7 -35 -90 -38 -19 -86 -3 -34 -69 -53 -33 0
22 23 19 3 65 8 5 34 58 30 44 59 89 10 69 56 46 27 41 26 50 82 21 9 94 78 15 47 77 39 85 -54 -18 -88 -14 -70 -71 -29 -95 -63 -38 -52 -28 -60 -33 -1 -4 -81 -79 -90 -48 -80 -84 -16 -93 -43 -31 -13 -62 -92 -74 -67 -32 -36 -72 -57 -87 -76 -53 -55 -64 -37 -45 -35 -17 -83 0
1 90 68 37 20 19 38 14 31 73 29 8 86 34 41 95 33 -36 -43 -46 -53 -79 -83 -25 -52 -50 -7 -32 -65 -26 -71 -57 0
22 11 93 85 47 40 80 16 43 48 91 90 62 86 23 45 71 88 70 20 83 78 35 63 19 25 14 68 3 53 66 72 27 95 50 84 13 31 33 55 82 77 4 21 12 61 58 42 38 -17 -57 -18 -89 -44 -34 -76 -2 -39 -1 -59 -5 -7 -69 -30 -87 -74 -52 -28 -8 -81 -54 -49 -10 -6 -73 -37 -56 -29 -94 -15 -51 -92 -65 -46 -67 -24 -60 -41 -32 0
27 44 2 37 93 4 69 58 86 52 33 65 83 26 91 66 45 43 39 70 22 59 -35 -8 -51 -9 -95 -1 -15 -40 -92 -90 -6 -89 -17 -87 -78 -32 -36 -28 -72 -41 -64 -5 -16 -21 -42 -24 -71 -48 -31 -12 -23 -80 -67 0
24 30 72 79 92 85 33 45 78 7 59 5 13 61 94 38 52 48 89 12 51 93 84 34 77 67 62 60 9 29 70 3 76 10 23 36 63 81 65 58 17 64 80 35 86 27 50 21 -91 -66 -2 -69 -46 -83 -82 -8 -26 -73 -37 -19 -54 -25 -55 -74 -11 -42 -44 -32 -68 -20 -6 -14 -75 -53 -18 -49 -40 -56 -95 -15 -4 -90 -39 -28 -87 -57 -88 -16 -1 -31 -71 0
26 88 21 74 89 90 13 68 -62 -61 -81 -17 0
84 4 63 59 79 29 45 13 76 47 26 11 -95 -77 -24 -64 -10 -81 -86 -36 -32 -53 -75 -12 -85 -68 -1 -51 -69 -20 -82 -34 0
59 70 91 37 94 47 14 81 4 30 54 55 66 75 36 33 28 53 15 2 87 58 24 67 79 90 41 83 52 60 18 23 40 46 57 89 21 16 72 76 38 95 69 -34 -26 -78 -93 -10 -17 -35 -12 -86 -92 -6 -42 -32 -44 -85 -77 -31 -25 -84 -63 -8 -68 -80 -3 -43 -22 -62 -49 -19 -61 -39 -7 -48 -71 -27 -51 -5 -73 -82 -13 -56 -65 -29 -50 -64 -9 -88 -74 -11 0
2 27 67 90 91 85 80 77 29 69 54 83 1 56 14 82 23 36 62 11 24 45 -9 -38 -81 -25 -15 -12 -95 -66 -41 -75 -40 -43 -88 -71 -87 -94 -74 -7 -4 -33 -6 -31 -63 -21 -34 -73 -48 -35 -68 0
24 53 54 58 80 15 93 64 13 88 17 68 27 66 16 92 1 9 69 37 79 7 4 90 77 59 55 22 32 26 41 44 36 73 85 18 50 34 81 10 -42 -51 -5 -75 -29 -83 -57 -72 -67 -62 -63 -31 -19 -70 -46 -71 -48 -12 -87 -65 -61 -35 -89 -38 -74 -56 -30 -60 -8 -2 -86 -84 -28 -82 -3 -49 -20 -40 -14 -11 -23 -39 -33 0
27 8 9 83 74 42 90 29 25 94 78 26 28 39 55 77 70 46 61 84 17 56 10 36 58 80 13 18 75 60 93 65 31 3 51 35 23 21 85 -81 -32 -37 -89 -87 -30 -33 -68 -67 -54 -95 -92 -5 -45 -69 -76 -53 -62 -19 -72 -66 -41 -86 -49 -1 -40 -57 -50 -79 -34 -16 -11 -24 -14 -63 -38 -71 -44 -12 -52 -88 0
62 95 61 34 81 52 43 56 89 49 3 73 9 8 66 77 86 60 70 71 78 23 83 6 10 16 2 18 40 12 54 21 36 42 4 19 59 88 76 11 32 25 -64 -27 -33 -28 -1 -22 -90 -24 -35 -85 -39 -7 -17 -45 -63 -68 -79 -13 -20 -30 -55 -38 -65 -74 -92 -93 -37 -14 -94 -41 -84 -57 -53 -26 -5 -47 -91 -51 -80 -82 -31 -44 -48 -69 -58 0
81 76 36 21 45 7 22 94 30 38 63 18 48 9 73 50 68 52 15 83 80 75 60 54 11 53 93 69 72 6 42 10 -17 -27 -12 -66 -56 -62 -58 -29 -84 -44 -49 -34 -46 -88 -82 -87 -70 -89 -77 -71 -67 -3 -40 -51 -28 -61 -37 -47 -13 -8 -57 -24 -95 -26 -55 -5 -1 -20 -25 -14 0
89 7 92 12 9 95 2 -50 -66 -47 -74 0
23 17 8 15 53 7 41 67 42 71 52 18 -57 -75 -60 -72 -84 -93 -76 -10 -9 -91 -3 -86 -85 -49 -16 -64 -74 -12 -82 0
34 24 64 80 40 89 30 63 69 35 41 38 -68 -70 -7 -16 -88 -1 -14 -92 -44 -77 -10 -42 -75 -23 -90 -20 -61 0
72 40 68 95 35 22 77 14 78 87 56 84 3 64 54 89 60 53 66 88 16 67 52 51 25 36 73 20 81 55 -61 -42 -62 -93 -28 -4 -15 -75 -85 -82 -23 -9 -8 -1 -6 -79 -92 -30 -29 -86 -7 -24 -65 -69 -48 -33 -31 -70 -37 -38 -80 -39 -10 0
68 41 65 91 72 40 26 46 58 53 39 71 24 49 9 67 25 27 87 57 90 84 18 10 33 81 -23 -3 -69 -38 -60 -48 -66 -13 -30 -56 -74 -95 -36 -4 -20 -63 -6 -76 -15 -79 -1 -34 -83 -47 -19 -93 0
9 88 34 71 6 17 60 80 40 12 78 30 26 84 11 50 95 64 67 55 41 62 44 33 63 85 66 20 45 51 16 15 93 56 13 57 -43 -49 -54 -69 -4 -61 -24 -46 -59 -94 -3 -23 -86 -72 -21 -76 -92 -29 -52 -47 -32 -83 -27 -25 -39 -89 -38 -68 -77 -53 0
48 29 46 68 15 81 87 85 88 62 43 34 26 16 28 59 12 18 37 53 5 74 13 82 40 2 45 20 4 7 60 58 6 52 56 90 -83 -54 -66 -1 -78 -32 -17 -50 -25 -79 -70 -71 -44 -35 -24 -69 -89 -93 -41 -86 -72 -8 -33 -84 -77 -38 -76 -39 -61 -22 -14 -47 -10 -63 -75 -11 -94 -55 -51 -49 -92 -21 -64 -36 -67 -91 -19 -30 -73 0
66 51 19 86 71 3 49 50 26 4 48 47 41 35 25 54 20 70 87 36 78 -82 -72 -58 -68 -32 -89 -94 -74 -23 -24 -40 -22 -88 -45 -13 -29 -52 0
80 11 78 1 32 92 52 60 43 95 48 -40 -87 -17 -86 -54 -38 -16 -59 -30 -65 -20 -26 -83 -31 0
87 79 68 34 -7 -77 -75 -70 -86 -21 0
38 14 35 15 49 92 30 26 60 23 64 4 33 59 6 11 58 -83 -42 -1 -53 -90 -94 -13 -46 -37 -75 -55 -28 -93 0
13 40 62 9 4 94 10 16 89 37 30 25 55 81 67 24 90 29 47 19 64 22 72 39 69 34 15 18 -43 -84 -38 -60 -77 -12 -82 -54 -56 -33 -73 -48 -83 -86 -63 -28 -36 -91 -49 -2 -68 -57 -52 -32 -14 -61 -41 -45 0
87 52 28 73 64 35 75 63 33 8 67 79 36 27 82 46 60 95 34 12 57 -76 -44 -19 -22 -71 -54 -29 -20 -5 -1 -69 -2 -38 -7 -11 -43 -80 0
35 47 2 -40 -68 0
2 -39 -31 -36 -90 0
79 4 60 5 27 48 16 43 17 65 42 81 9 21 90 56 82 14 37 77 26 52 49 40 24 69 88 1 32 -41 -7 -67 -11 -33 -20 -29 -50 -53 -70 -94 -34 -66 -91 -22 -51 -86 -62 -73 -47 -28 -8 -23 -57 -72 -76 -15 -64 -55 -46 -12 -83 0
22 35 50 20 91 86 85 83 76 92 82 68 47 15 17 95 19 5 78 70 4 -62 -44 -52 -90 -24 -84 -6 -60 -69 -77 -54 -16 -67 -45 -40 0
62 40 76 15 58 18 48 10 71 24 57 27 13 31 47 54 52 61 81 86 75 21 92 49 11 44 55 93 68 -87 -72 -46 -50 -8 -5 -77 -64 -20 -63 -80 -78 -89 -56 -38 -70 -9 -28 -42 -74 -2 -36 -43 -6 -41 -32 -45 -29 -51 -23 -73 -53 -14 -22 0
42 11 15 68 71 29 82 79 16 50 47 40 6 27 -61 -18 -36 -90 -26 -95 -30 -52 0
22 37 28 49 51 82 58 86 88 54 25 7 21 10 77 47 17 92 63 48 24 4 13 31 52 18 89 81 38 -45 -43 -40 -72 -3 -46 -55 -42 -93 -1 -29 -19 -80 -32 -30 -35 -50 -62 -14 -53 -9 -70 -33 -91 -94 -90 -79 -34 -6 -78 -71 -69 -5 -57 -83 -26 -16 -41 -60 -65 -2 -11 -23 -27 -15 0
57 74 80 71 81 13 31 26 84 77 51 43 76 56 53 42 49 24 86 34 70 67 58 68 45 59 27 1 90 72 95 19 48 60 8 79 39 2 21 73 38 14 17 50 -52 -11 -20 -32 -5 -94 -30 -44 -6 -82 -3 -92 -69 -22 -88 -55 -4 -78 -83 -23 -47 -9 -28 -40 -37 -63 -62 -18 -29 -91 -75 -16 -33 -54 -85 -12 -35 -25 -87 -89 -10 -93 -46 0
68 54 21 32 79 57 83 67 80 20 48 3 22 1 -35 -6 -30 -45 -29 -71 -15 -75 0
26 39 12 14 30 93 74 90 72 7 1 47 42 61 89 25 51 63 55 22 56 70 13 49 35 18 79 48 65 46 92 36 17 57 41 40 76 4 31 24 68 95 8 87 66 -52 -6 -43 -11 -67 -73 -32 -80 -91 -15 -69 -16 -82 -3 -77 -83 -34 -33 -20 -88 -50 -9 -29 -85 -86 -45 -71 -38 -62 -54 -27 -84 -53 -19 -58 -5 0
58 38 63 9 45 80 20 70 68 71 3 4 10 13 89 32 53 85 29 24 94 47 30 95 46 82 52 31 42 65 49 40 69 18 72 87 2 16 78 81 86 1 64 44 88 25 66 91 37 7 -19 -48 -14 -41 -55 -22 -51 -21 -35 -67 -39 -73 -59 -60 -76 -83 -23 -84 -61 -77 -17 -54 -79 -74 -33 -43 -36 -90 -11 -56 -26 -28 0
85 92 91 29 80 57 64 79 -27 -6 -51 -74 -30 -54 -45 -66 -5 -59 -24 -93 0
81 91 82 21 41 84 92 89 49 85 23 40 42 12 31 67 27 2 65 47 94 -26 -5 -55 -38 -59 -88 -44 -1 -57 -33 -83 0
76 45 81 17 41 59 18 21 85 13 33 36 56 31 -9 -8 -29 -53 -70 -23 -37 -27 -82 -72 -52 -84 -46 -75 -44 -12 -71 -55 0
88 33 94 95 34 -18 -82 -19 -38 -13 0
56 22 50 51 44 54 62 33 72 52 82 71 59 1 -29 -41 -4 -3 -49 -2 -80 -12 -23 -88 -43 -77 -10 -89 -81 -47 -95 0
25 5 91 27 33 55 38 16 14 85 43 90 24 66 50 44 94 58 63 59 35 52 73 -77 -30 -17 -15 -81 -70 -68 -36 -32 -51 -89 -95 -23 -84 -22 -2 -92 -31 -56 0
33 4 31 73 36 95 51 59 55 84 5 87 85 18 72 68 49 29 74 45 47 -93 -32 -28 -60 -19 -90 -83 -65 -13 -7 -64 -63 -52 -78 -66 -34 -9 -89 -71 -14 -82 -58 -81 -76 0
54 93 56 51 24 11 50 47 -84 -46 -30 -69 -14 0
44 5 30 73 77 33 12 85 35 55 7 82 23 37 38 16 2 66 42 86 34 69 83 4 78 27 94 89 63 53 70 14 20 22 15 50 -39 -88 -25 -52 -43 -91 -65 -54 -58 -75 -49 -93 -1 -40 -6 -57 -46 -79 -13 -41 -68 -36 -76 -48 -95 -74 -21 -92 -9 -45 -3 -51 -31 -81 -62 -71 -10 -29 -61 -8 -32 -18 -26 -90 0
91 95 77 53 52 72 86 75 22 45 31 85 89 79 27 92 83 57 16 94 33 9 59 39 60 90 69 -70 -61 -44 -55 -66 -40 -6 -21 -43 -93 -19 -76 -68 -81 -56 -32 -13 -84 -78 -26 -34 -11 0
32 81 52 31 70 67 94 37 50 35 95 78 41 46 22 68 -82 -4 -24 -9 -45 -92 -80 -47 -71 -77 -13 -93 -58 -51 -23 -40 0
41 59 58 78 76 54 61 65 94 91 28 6 55 87 10 13 2 82 75 44 36 62 60 38 22 43 88 95 5 79 90 49 3 7 63 72 19 67 34 -27 -92 -20 -25 -24 -29 -18 -33 -66 -35 -57 -48 -68 -70 -51 -17 -11 -56 -4 -74 -89 -1 -37 -8 -46 -47 -81 -39 -32 -16 -50 -69 -45 -93 -83 -80 -42 -64 -21 -14 -71 -84 -26 0
48 2 92 72 33 52 93 -26 -27 -14 -65 -82 -25 -29 -40 0
10 55 71 34 31 66 16 18 48 89 78 33 61 88 32 41 49 65 26 46 76 63 84 2 29 95 20 14 86 1 87 37 69 42 70 52 8 30 79 3 -81 -13 -21 -90 -57 -80 -92 -83 -54 -36 -9 -94 -28 -11 -39 -62 -93 -51 -53 -27 -4 -24 -82 -67 -64 -56 -35 0
17 54 60 70 22 37 5 63 28 58 76 29 9 83 33 14 40 45 67 69 21 30 73 18 71 64 13 20 43 87 1 -55 -74 -39 -42 -65 -4 -48 -89 -36 -32 -46 -79 -78 -93 -86 -11 -82 -44 -91 -47 -41 -84 -25 0
68 6 3 12 66 56 47 83 87 73 91 71 19 18 70 11 82 38 67 5 15 61 95 75 40 52 51 54 32 62 64 21 9 48 43 35 36 72 44 94 28 -34 -69 -7 -78 -89 -41 -88 -92 -90 -45 -60 -79 -23 -77 -24 -33 -1 -26 -20 -37 -59 -84 -63 -39 -8 -10 -74 -2 -14 -17 -50 -31 -85 -53 -93 -46 -25 -57 -27 -16 -80 -4 -65 -30 -58 -55 0
5 43 35 69 75 26 61 67 72 50 10 80 21 1 47 82 83 89 93 36 28 51 40 11 59 34 63 30 85 13 41 -87 -27 -12 -14 -23 -4 -86 -76 -56 -92 -9 -88 -31 -16 -95 -45 -77 -2 -60 0
21 26 61 22 7 45 59 47 89 65 52 94 70 82 41 18 76 91 75 23 36 9 3 38 85 63 15 17 88 -40 -95 -48 -54 -78 -58 -84 -66 -16 -13 -14 -33 -56 -86 -20 -57 -1 -73 -42 -62 -69 -24 -39 -81 -43 -12 -64 -46 -30 0
40 25 20 36 49 26 68 7 19 93 75 76 1 42 61 89 8 86 63 22 66 64 31 73 92 27 34 30 71 58 -35 -18 -44 -83 -65 -62 -90 -43 -70 -4 -67 -79 -59 -29 -37 -5 -14 -10 -38 -33 -6 -85 -12 -72 -39 -41 -81 -69 -55 -2 0
50 47 75 43 15 25 11 39 81 31 5 19 80 73 6 36 77 63 56 18 41 53 61 58 37 59 20 22 66 34 49 72 93 23 35 87 -38 -86 -83 -76 -85 -27 -62 -26 -52 -68 -24 -65 -9 -30 -91 -69 -42 -70 -40 -88 -32 -78 -10 -71 -90 -4 -21 -2 -12 -45 -55 -13 0
38 94 54 71 68 85 93 18 1 66 88 55 79 16 50 36 61 52 81 -67 -84 -44 -42 -74 -75 -47 -73 -69 -78 -91 -19 -72 -30 -13 -83 -53 -65 -90 -77 -76 -7 -17 -45 -95 0
51 92 86 80 21 16 59 41 52 54 85 38 26 40 23 29 32 74 18 71 89 82 66 4 64 -31 -7 -15 -46 -44 -77 -81 -6 -57 -49 -43 -63 -50 -53 -69 -3 -39 -93 0
95 38 15 80 44 9 7 49 62 55 82 2 18 32 51 66 28 30 31 34 35 91 75 70 86 -47 -69 -6 -57 -73 -65 -14 -81 -4 -13 -59 -26 -61 -39 -56 -10 -83 -8 -5 -23 -41 -88 -22 -76 -50 -93 -45 -89 -21 -71 -72 -40 -94 -29 -74 -46 0
68 25 62 72 64 48 65 92 26 40 78 33 56 82 22 39 8 52 91 5 53 94 89 74 47 67 -15 -87 -71 -23 -45 -81 -58 -35 -17 -43 -86 -55 -79 -34 -2 -80 -13 -88 -83 -85 -51 -90 -9 -69 -32 -76 -57 -95 -1 -3 -11 -61 -21 -19 -29 -66 0
71 21 82 39 67 22 53 44 15 25 14 54 17 4 76 83 80 70 66 87 8 -28 -19 -62 -90 -30 -38 -35 -31 -81 -88 -69 -89 -23 -75 -42 -78 -86 -77 -50 -91 -59 -85 0
39 -2 -6 0
83 64 9 52 24 12 80 27 94 39 33 32 40 19 88 71 38 59 43 89 56 15 91 79 90 -18 -76 -16 -65 -55 -21 -47 -3 -5 -49 -23 -66 -75 -13 -62 -87 -95 -69 -72 -14 -37 -31 -30 -11 0
85 17 93 56 72 77 55 9 27 67 11 36 15 79 57 43 16 -28 -66 -62 -64 -50 -59 -12 -74 -37 -71 -5 -33 0
19 82 45 71 12 91 17 67 88 25 8 3 29 20 21 62 44 37 14 35 -16 -59 -74 -58 -65 -42 -54 -50 -13 -2 -48 -55 -30 -15 -11 -80 -90 -23 -28 0
37 30 60 -28 -7 -10 0
75 8 59 52 9 93 58 -61 -37 -66 -41 -88 -6 -40 -57 0
31 87 23 58 76 24 3 64 83 13 69 47 45 10 86 36 27 39 48 26 84 44 51 72 9 41 55 62 67 60 68 85 79 59 91 22 53 19 81 5 82 78 95 18 32 7 66 -50 -12 -56 -89 -74 -54 -73 -15 -52 -33 -65 -40 -20 -8 -35 -34 -75 -42 -25 -6 -1 -88 -4 -90 -92 -70 -11 -21 -57 -29 -2 -30 -14 -93 -63 -38 -71 -46 -43 -37 -49 0
15 -80 -94 -93 0
40 23 34 86 59 51 58 56 71 44 26 57 82 69 20 13 87 49 10 11 9 16 80 5 18 83 33 32 53 14 54 77 89 92 25 60 90 75 47 6 52 55 -43 -65 -31 -42 -29 -48 -19 -8 -46 -94 -61 -22 -95 -39 -1 -63 -50 -27 -72 -70 -21 -91 -81 -68 -74 -17 -41 -93 -79 -62 -78 -35 -76 -3 -12 -15 -84 -38 -37 -2 -73 -7 -85 -30 -36 -24 0
82 29 85 89 47 49 -15 -28 -83 -25 -14 -60 -23 -4 -95 -92 -2 -32 -71 -17 0
50 15 46 16 88 7 32 34 13 20 73 87 14 55 82 30 83 85 4 74 45 2 38 57 9 76 -10 -65 -17 -94 -1 -25 -91 -95 -12 -80 -86 -39 -58 -92 -3 -81 0
61 27 25 20 46 2 92 87 48 8 -56 -75 -55 -10 -78 -21 -44 -60 -88 -52 -6 -70 -19 0
62 71 92 72 31 77 20 67 24 28 13 11 52 89 51 5 22 9 76 30 61 79 7 25 2 94 -78 -54 -16 -46 -6 -68 -4 -86 -15 -21 -39 -87 -44 -66 -10 -19 -27 -65 -80 -59 -36 -69 -75 -45 -60 -85 0
93 83 54 62 86 17 49 6 63 25 43 2 80 52 10 71 26 42 39 46 60 35 66 74 7 18 64 44 75 19 21 23 92 38 61 45 78 -48 -8 -13 -36 -57 -81 -31 -56 -5 -58 -15 -12 -16 -47 -41 -37 -1 -82 -72 -67 -69 -50 -24 -70 -73 -90 -30 -85 -32 -84 -76 -95 -27 -3 -33 -79 -53 -77 -22 -68 -55 -29 -91 -14 -11 -65 -89 -20 -4 0
45 73 14 19 87 1 93 11 82 74 51 50 66 36 5 16 63 41 85 49 80 86 20 15 24 43 30 71 -57 -65 -26 -62 -84 -4 -3 -95 -75 -67 -35 -88 -70 -40 -92 -59 -34 0
50 11 79 75 18 22 49 82 31 89 80 25 46 15 61 30 14 92 40 60 53 33 81 3 12 59 8 38 26 47 42 51 27 54 83 45 13 88 69 21 91 43 74 16 68 17 73 -32 -41 -62 -39 -28 -2 -67 -9 -52 -77 -37 -56 -23 -84 -10 -6 -90 -34 -76 -71 -36 -95 -29 -24 -78 -57 -87 -72 -58 -48 -4 -55 -94 -44 -19 -20 0
61 14 35 81 37 84 1 11 92 88 8 75 15 52 18 85 86 56 69 57 93 7 94 6 53 51 70 54 43 63 9 20 91 -90 -79 -32 -67 -46 -10 -13 -48 -3 -44 -29 -12 -4 -95 -89 -55 -64 -41 -27 -74 -47 -49 -24 -76 -45 -72 -71 -16 -38 -68 -83 -80 -87 -58 -40 -5 -2 -62 -65 -42 -82 -34 -36 -33 -19 -21 0
31 18 11 86 71 92 4 65 44 42 15 62 41 25 69 7 78 1 3 57 75 6 52 59 26 19 85 64 67 -49 -37 -38 -58 -23 -43 -30 -5 -95 -94 -80 -28 -68 -76 -32 -14 -87 -13 -66 -63 -8 -51 -50 -84 -54 -10 -79 -22 -72 -27 -17 -45 -61 -82 -46 -16 -81 0
76 75 3 48 33 95 94 34 88 55 30 90 61 32 10 18 31 41 19 45 40 70 92 77 12 57 35 17 84 -81 -28 -2 -11 -73 -67 -39 -72 -56 -42 -85 -68 -58 -49 -15 -20 -6 -23 -5 -47 -14 -83 -43 -29 -7 -24 -78 -22 -64 0
84 62 89 82 15 71 13 45 22 17 90 -47 -16 -79 -94 -39 -21 -24 -48 -31 -4 -95 -25 -65 -49 -41 -1 -33 -86 0
10 50 70 63 88 91 65 53 52 6 26 41 74 81 68 64 40 8 92 1 93 13 19 22 47 62 34 25 4 76 16 60 29 2 46 -32 -51 -30 -9 -59 -72 -66 -11 -42 -78 -17 -31 -37 -85 -38 -80 -14 -87 -89 -24 -43 -48 0
79 52 88 92 70 27 49 89 91 11 -44 -41 -62 -20 -75 -48 0
4 34 46 33 2 70 8 54 21 53 49 59 73 41 71 87 63 7 23 9 43 11 36 42 28 45 16 18 -51 -66 -47 -38 -40 -24 -94 -68 -17 -52 -80 -89 -93 -39 -77 -74 -69 -50 -79 -12 -27 -84 -82 -48 -3 -35 -26 -25 0
92 75 80 47 59 41 27 29 9 72 84 20 18 46 19 77 71 -65 -82 -43 -10 -87 -74 -5 -60 -86 -90 -50 -57 -16 0
88 40 35 22 42 74 56 43 93 9 -37 -78 -86 -94 -57 -36 -76 -26 -73 -6 -82 -30 -77 -19 -64 0
54 87 59 58 19 25 24 31 52 6 78 69 65 79 34 66 60 74 80 62 82 42 11 76 18 89 40 28 73 91 15 38 63 51 26 67 -39 -55 -88 -12 -61 -64 -37 -46 -9 -20 -72 -35 -7 -8 -36 -1 -49 -81 -50 -10 -32 -75 -13 -85 -45 -68 0
29 32 52 22 61 50 68 83 1 82 72 19 67 94 38 44 91 8 47 85 84 65 53 69 -12 -78 -39 -14 -5 -42 -90 -11 -35 -58 -88 -37 -2 -36 -45 -87 -9 -81 -54 -92 -16 -75 -57 -10 -6 -73 0
81 45 82 49 33 54 76 42 27 53 52 88 63 70 10 6 31 23 94 58 11 59 8 24 67 44 18 78 2 34 46 57 12 -5 -51 -93 -74 -85 -60 -3 -20 -87 -38 -30 -72 -66 -39 -68 -79 -21 -62 -15 -7 -50 -83 -9 -48 -17 -89 -13 -1 -43 0
71 60 83 13 19 6 31 40 24 35 28 42 10 2 57 3 22 50 49 18 32 62 43 27 -36 -75 -1 -88 -77 -58 -16 -48 -91 -25 -15 -53 -12 -44 -52 -41 -9 -61 -21 -63 -70 -81 -59 -8 -14 -54 -5 -65 -78 -74 -94 -20 -4 -38 -82 -95 -80 -84 0
85 65 80 44 32 57 86 38 23 70 3 89 49 93 59 54 1 45 92 79 73 2 26 13 16 -10 -31 -58 -95 -56 -91 -21 -50 -60 -48 -63 -47 -11 -33 -14 -41 -90 -71 -53 -82 -17 0
90 13 80 33 84 15 19 -10 -54 -3 -24 -6 -4 -61 -58 -52 0
70 5 58 21 8 27 32 84 39 28 72 83 31 81 40 23 59 85 -91 -36 -48 -62 -38 -18 -11 -43 -22 -20 -2 -94 -89 -51 -16 -57 -65 -6 0
7 73 57 87 55 61 11 33 13 53 77 95 14 1 47 25 43 35 37 5 45 69 10 58 23 44 28 93 80 78 71 42 24 29 15 4 36 88 91 32 -16 -27 -84 -41 -74 -63 -9 -39 -90 -75 -6 -8 -94 -81 -59 -40 -3 -34 -82 -65 -49 -22 -56 -89 -72 -38 -19 -76 -51 -52 -86 -70 -64 -12 -60 -48 -67 -50 -92 -83 -17 -66 -31 -54 -30 -18 -68 -21 0
52 83 7 6 77 72 4 43 61 5 32 91 88 28 49 78 44 41 76 47 90 68 42 66 59 56 71 84 48 -67 -46 -14 -82 -64 -85 -9 -30 -40 -33 -87 -69 -15 -74 -70 -58 -3 -23 -54 -16 -21 0
56 45 95 10 93 1 47 80 67 71 29 40 25 24 34 5 3 43 7 14 32 61 64 72 23 31 46 66 41 94 21 13 57 88 76 12 68 4 69 55 18 78 -6 -48 -22 -82 -39 -62 -74 -81 -42 -63 -91 -75 -35 -70 -77 -87 -86 -58 -20 -19 -16 -33 -38 -60 -65 -85 -79 -53 -59 -84 -28 -17 -15 -11 -83 0
11 25 60 49 33 70 47 4 14 26 24 59 87 28 50 94 69 51 36 83 72 2 68 12 79 85 86 30 65 1 67 38 74 18 90 35 40 61 -52 -10 -46 -41 -15 -31 -9 -53 -88 -64 -75 -39 -63 -3 -82 -93 -54 -20 -19 -48 -76 -92 -16 -43 -37 -57 -73 -91 -34 -77 -23 -89 -58 -5 -21 -13 -6 -29 0
58 39 77 46 41 94 78 75 49 79 62 11 23 1 26 4 10 82 81 59 45 70 72 65 43 48 95 90 9 87 38 3 32 22 21 84 29 18 93 40 27 51 64 -6 -85 -8 -13 -91 -34 -86 -55 -61 -76 -33 -57 -73 -50 -92 -5 -53 -28 -12 -54 -31 -69 -35 -88 -83 -24 -44 -2 -42 -17 -56 -47 -14 -52 -60 -19 -7 -66 -74 0
93 34 71 10 42 67 31 12 35 11 9 43 89 86 48 36 28 25 26 55 53 62 27 66 52 38 23 21 32 76 64 70 33 92 24 8 68 75 46 87 85 94 73 78 57 -51 -16 -4 -7 -40 -82 -63 -41 -5 -80 -29 -39 -15 -20 -90 -14 -37 -79 -2 -95 -17 -74 -77 -22 -58 -61 -60 -81 -54 -45 -13 -65 -19 -30 -88 -47 -59 -6 -91 0
72 79 54 37 90 57 63 92 35 88 71 3 17 62 64 21 13 1 15 14 4 25 81 82 58 48 32 65 95 7 60 78 39 47 40 9 41 84 44 66 33 75 77 86 52 22 16 -53 -80 -30 -85 -11 -29 -83 -27 -56 -42 -93 -91 -28 -8 -94 -73 -50 -87 -45 -19 -2 -10 -34 -43 -24 -76 -6 -59 -51 -18 -68 -23 -26 -70 -36 -74 -12 -55 -5 -67 -61 -69 -46 -89 -38 0
-69 0
58 25 38 27 32 33 89 75 83 70 -14 -74 -19 -84 -10 -3 -48 -54 -23 -29 -28 -67 -47 -5 -93 -13 -95 -59 0
56 64 88 23 26 1 69 42 33 62 83 63 3 35 87 7 53 52 59 43 34 37 14 81 54 38 57 92 68 65 6 45 28 72 30 91 95 85 -13 -5 -66 -16 -80 -47 -89 -94 -55 -2 -27 -40 -41 -78 -44 -73 -93 -75 -12 -67 -39 -60 -18 -10 -17 -15 -84 -61 -9 -25 -86 -58 -31 -71 -82 -79 -20 -70 -46 -19 -36 -50 -29 -49 0
67 56 89 30 86 27 -14 -43 -91 -16 -71 -75 0
36 47 63 55 62 46 17 82 90 79 53 43 69 78 56 8 -2 -12 -7 -92 -49 -73 -4 -74 -41 -76 -61 -58 -29 -77 -35 -19 -51 -85 -23 -89 -64 -38 0
80 14 78 62 81 34 85 57 42 15 36 63 86 13 92 91 82 44 40 39 5 45 -19 -48 -68 -69 -64 -10 -83 -88 -3 0
51 29 77 26 65 81 68 78 85 39 19 23 -60 -56 -36 -24 -75 -4 -71 -27 -37 -1 0
26 48 77 25 86 15 92 58 35 57 81 45 59 7 52 17 65 62 34 13 38 23 79 73 61 -74 -64 -10 -75 -12 -89 -78 -50 -53 -31 -39 -20 -1 -28 -51 -49 -36 -33 -44 -80 -42 -2 -41 -37 -30 -82 -85 0
37 25 14 29 35 82 83 12 19 10 23 65 9 77 79 69 57 7 55 38 60 92 13 41 4 86 50 30 43 93 26 47 72 89 49 15 59 1 90 95 88 17 -67 -94 -80 -63 -73 -74 -51 -58 -84 -24 -2 -5 -22 -27 -64 -21 -52 -76 -28 -68 -16 -8 -61 -71 -46 -31 -54 -40 -18 -3 -39 -87 -48 -75 -56 -53 -81 -11 -20 -66 -62 -34 -91 -78 -44 -32 0
89 64 62 80 55 41 10 34 59 77 90 14 19 29 53 94 11 26 82 35 28 50 -33 -5 -12 -75 -68 -39 -45 -47 -49 -24 -74 -40 -87 -32 -93 -2 0
78 90 38 35 32 4 2 8 17 66 9 6 34 92 1 27 89 45 93 37 58 69 85 -95 -84 -30 -91 -70 -49 -26 -5 -36 -73 -7 -40 -12 -60 -39 -3 -56 -22 -14 -76 -19 -18 -57 -23 -88 -77 0
32 3 25 42 41 55 50 11 89 38 15 83 1 82 24 65 95 12 39 56 36 45 22 94 16 23 85 4 68 7 71 -13 -76 -20 -61 -43 -29 -37 -84 -74 -27 -46 -6 -91 -87 -86 -28 -40 -53 -69 -14 -60 0
48 54 15 41 7 26 10 38 9 33 46 35 63 94 75 4 19 59 74 73 67 77 70 93 80 13 31 68 42 -86 -88 -14 -20 -91 -57 -25 -11 -28 -66 -49 -39 -6 -69 -92 -53 -5 -40 -78 -30 -83 -17 -90 -95 -52 0
37 38 4 32 22 11 55 46 39 56 30 64 86 87 71 21 50 68 80 12 18 47 95 45 72 90 31 5 15 85 92 81 9 63 89 3 24 79 59 28 49 83 1 13 -76 -60 -69 -19 -75 -8 -35 -62 -58 -17 -33 -82 -2 -25 -43 -54 -61 -29 -77 -57 -65 -40 -6 -26 -94 -14 -41 -84 -88 -44 -78 -70 -48 -53 -10 -51 -42 -16 -7 -52 -23 -67 -74 -20 -91 0
25 5 64 13 81 55 47 24 44 65 60 29 84 26 40 10 48 -3 -69 -6 -22 -35 -28 -76 -89 -67 0
73 44 88 16 92 31 19 37 23 29 15 87 46 91 56 82 38 12 79 -60 -40 -55 -5 -35 -68 -50 -62 -84 -34 -67 -42 -72 -43 -39 -4 -94 -65 -36 -83 -75 -41 0
76 40 73 75 57 2 49 18 25 27 67 64 42 78 63 51 7 58 31 79 -83 -9 -15 -26 -32 -3 -60 -45 -92 -39 -10 -71 -12 -23 -37 -91 -59 -84 -80 -19 -24 -14 -5 -85 -46 -35 0
7 45 62 75 63 38 57 2 22 20 95 33 -70 -32 -80 -92 -56 -54 -60 -77 -68 -17 0
53 81 40 5 90 82 21 91 25 58 85 31 30 2 17 22 76 57 7 87 48 73 92 43 93 84 10 60 78 75 66 95 94 86 80 68 6 77 24 67 13 -19 -59 -42 -56 -37 -65 -26 -83 -49 -89 -88 -38 -55 -35 -8 -39 -69 -72 -11 -41 -3 -20 -23 -74 -12 -14 -50 -62 -63 -15 -45 -44 -51 -46 -27 -33 -18 -36 -9 -79 -16 -4 -47 -52 -32 -71 -34 -70 -29 -1 -54 -61 -64 0
27 81 72 69 21 54 47 36 57 84 65 85 68 79 12 42 91 25 63 16 48 2 53 82 8 87 33 43 41 7 58 67 45 29 31 56 22 44 39 -95 -73 -80 -78 -30 -83 -94 -49 -76 -24 -35 -14 -52 -4 -90 -40 -28 -23 -77 -37 -74 -20 -17 -62 0
58 72 4 40 51 89 33 30 16 3 14 76 32 92 66 67 34 39 60 15 56 93 12 19 84 53 18 94 9 47 28 22 48 -69 -88 -17 -37 -36 -86 -54 -43 -46 -95 -74 -27 -78 -26 -57 -61 -5 -6 -25 -8 -20 -73 -29 -90 -75 -71 -80 -11 -87 -44 -49 0
77 6 -21 -78 -49 -40 -27 -19 0
3 25 79 70 41 55 81 37 6 45 84 -60 -82 -29 -65 -5 -8 -87 -72 -69 -44 -22 -77 -61 -90 -40 -34 -38 -88 -43 -11 -94 0
10 31 27 45 6 15 30 68 60 3 36 26 40 79 75 92 34 5 -18 -19 -89 -86 -67 -50 -22 -87 -83 -95 -53 -24 -29 -13 -63 -32 0
36 81 47 52 59 -11 -15 -42 -34 -65 -85 0
5 82 9 48 27 4 40 18 77 47 25 59 -89 -3 -16 -80 -67 -94 -58 -83 -62 -85 -50 -90 -60 -55 0
57 23 88 17 -40 -13 0
74 47 34 72 45 82 67 35 11 64 81 13 3 51 66 28 10 7 62 83 41 91 22 58 90 37 12 43 89 52 -40 -27 -38 -63 -71 -1 -21 -93 -23 -75 -39 -48 -85 -95 -50 -32 -19 -54 -65 -84 -9 -59 -14 -29 -79 -86 -53 0
72 87 78 37 6 36 59 24 80 30 54 60 95 21 26 1 8 71 82 62 63 3 27 88 51 5 31 83 94 9 28 49 57 13 92 74 48 77 81 4 29 2 -76 -11 -43 -86 -73 -42 -33 -66 -84 -12 -17 -65 -41 -7 -53 -55 -20 -25 -38 -56 -90 -46 -45 -34 -40 -22 -39 -61 -69 -10 -32 -50 -44 -58 -91 -35 -23 -93 -85 -52 -16 -18 -68 -67 -79 -70 -75 -14 -64 -89 -15 -47 0
90 68 86 39 42 -30 -14 -69 -59 -32 -10 -1 -11 -49 -28 0
80 72 84 28 21 7 88 56 17 79 70 6 41 5 89 60 14 2 15 32 76 82 64 90 40 31 -87 -1 -22 -61 -27 -62 -78 -55 -16 -54 -85 -48 -49 -3 -12 -10 -35 -11 -58 -42 -18 -68 -65 0
70 89 79 20 65 24 3 47 55 42 50 8 56 14 88 41 64 4 18 7 34 73 86 93 46 36 17 35 43 77 67 83 53 15 78 38 -91 -90 -40 -6 -22 -71 -76 -94 -85 -60 -13 -54 -32 -16 -74 -21 -57 -12 -81 -39 -45 -95 -1 -48 -51 -37 0
87 4 59 34 48 31 56 52 50 71 51 65 20 79 82 42 63 62 47 33 8 68 18 61 27 86 25 28 39 78 19 54 11 36 45 1 13 85 -73 -72 -6 -21 -43 -67 -58 -77 -76 -80 -89 -92 -16 -49 -22 -74 -32 -84 -94 -53 -37 -75 -17 -40 -88 -66 -91 -57 -2 -81 -69 0
35 61 93 73 81 37 56 71 17 47 89 80 10 54 86 87 88 52 84 74 28 26 32 21 39 42 13 91 44 8 51 20 48 1 38 9 5 78 -45 -60 -55 -27 -57 -19 -43 -92 -33 -11 -24 -41 -23 -6 -66 -4 -67 -70 -25 -18 -76 -7 -40 -3 -83 -63 -36 -31 -29 -46 -62 -2 -94 -49 -22 -82 -77 0
22 2 51 14 81 76 56 37 86 78 32 84 66 59 94 6 60 71 57 33 35 12 80 92 -73 -38 -54 -21 -30 -72 -31 -29 -52 -50 -74 -85 -18 -19 -28 -68 -3 -39 -90 -64 -88 -17 -27 -4 -10 -25 -9 -40 -49 -45 -43 -20 -69 0
56 36 90 52 55 3 83 8 26 81 22 60 69 44 25 82 65 68 57 12 67 9 13 6 64 35 15 -87 -5 -37 -86 -54 -79 -21 -31 -38 -23 -50 0
8 32 78 89 21 46 71 55 70 24 40 52 26 16 35 -31 -88 -75 -39 -44 -20 -92 -65 -69 -1 -2 -63 -47 -64 -95 -34 0
64 81 1 10 33 20 78 2 8 68 -88 -56 -32 -55 -82 -46 -77 -79 -17 -83 -41 -90 -70 -21 0
44 12 87 50 71 26 23 61 28 41 30 54 -83 -49 -10 -89 -88 -79 0
31 43 74 85 46 7 63 58 50 3 29 61 19 60 13 1 77 59 80 67 4 41 90 64 79 10 35 95 89 94 -8 -14 -82 -71 -56 -23 -81 -17 -65 -33 -18 -52 -16 -48 -24 -36 -25 -70 -5 -68 -92 -91 -11 -57 -21 -88 -78 -73 -87 -93 -12 -62 0
89 21 33 31 42 28 59 8 -95 -4 -46 -70 -25 -74 -11 -93 -83 0
69 33 89 49 71 9 2 13 61 7 72 84 41 67 82 30 73 -87 -83 -40 -10 -19 -15 -32 -8 -68 0
67 30 75 13 91 56 20 50 26 49 81 33 40 80 55 62 83 44 92 5 41 36 38 95 60 -28 -14 -3 -68 -21 -24 -25 -73 -29 -31 -23 -78 -27 -37 -11 -53 -71 -84 -65 -42 -61 -17 -88 -47 0
86 53 25 23 8 89 6 77 54 24 76 93 37 -63 -5 -68 -92 -44 -79 -75 -70 -26 -28 -14 -49 0
64 21 19 58 42 36 66 86 9 14 8 77 32 44 1 18 49 85 28 12 27 70 13 83 37 50 78 72 82 6 30 62 43 29 17 89 -84 -67 -73 -87 -39 -90 -56 -31 -60 -38 -20 -11 -54 -52 -75 -93 -34 -74 -26 -2 -5 -79 -3 -80 -33 -57 -55 -59 -71 -51 -48 -46 -88 -7 -22 0
8 27 13 -34 -20 -71 0
6 49 66 27 18 65 86 48 4 33 5 15 79 25 11 58 37 55 94 22 39 32 89 81 44 30 40 34 46 41 9 88 -35 -67 -72 -28 -78 -42 -8 -74 -91 -43 -45 -68 -10 -7 -51 -76 -54 -59 -73 -29 -77 -52 -95 -2 -60 -50 -83 -3 -31 -80 -62 -1 -20 -14 -24 -47 -64 -53 -21 -63 -82 -71 0
64 32 17 19 23 39 5 18 91 7 94 48 51 1 20 12 69 44 33 3 80 38 67 60 73 28 56 88 50 22 53 47 65 29 -77 -13 -79 -43 -76 -8 -11 -35 -70 -21 -81 -63 -6 -72 -89 -2 -74 -68 -46 -92 -52 -4 -84 -45 -24 -86 -61 -42 -25 -71 -66 -93 -82 -58 0
72 53 9 45 66 25 26 64 40 21 19 23 50 76 58 16 44 30 62 39 59 93 91 7 37 54 38 20 41 15 65 -10 -92 -68 -22 -86 -63 -31 -75 -69 -5 -51 -49 -43 -17 -71 -81 -2 -56 -73 -4 -85 -67 -57 -84 -34 -74 -14 -3 -46 -18 -6 -29 -94 -11 -80 0
66 10 32 53 23 51 50 55 67 30 -75 -84 -34 -29 -25 -94 -36 0
43 13 84 67 12 61 -32 -93 0
43 94 64 56 9 62 33 24 41 92 90 87 28 1 8 76 5 50 70 -12 -4 -16 -19 -18 -63 -82 -38 -74 -35 -49 -25 -31 -60 -91 -32 -27 -34 -83 -85 -39 -89 -71 -79 0
18 22 38 40 -26 -14 -32 0
77 50 30 33 19 4 47 68 3 49 73 45 54 71 24 43 10 55 58 7 78 22 25 11 64 -32 -36 -20 -81 -69 -76 -70 -62 -17 -63 -18 -74 -31 -15 -26 -53 -92 -61 -75 -34 -84 -65 -51 -88 -67 -14 -95 -72 -57 -23 0
32 4 47 22 21 84 16 69 27 57 61 9 91 31 24 44 1 23 26 56 34 78 76 29 10 52 46 66 80 58 2 67 62 12 39 93 60 42 18 49 -63 -40 -53 -33 -38 -45 -54 -87 -55 -90 -36 -68 -77 -82 -51 -64 -89 -35 -19 -70 -83 -43 -15 -92 -71 -94 -7 -11 -86 -72 -48 -81 -8 -17 -59 -30 -95 -14 -6 -37 -13 0
86 85 79 7 66 49 51 91 74 47 1 48 27 26 71 92 44 50 6 42 73 18 62 17 19 29 10 8 90 39 87 43 22 82 59 28 68 58 33 52 94 57 80 14 56 34 -25 -84 -38 -35 -72 -16 -32 -81 -13 -23 -41 -83 -53 -3 -4 -36 -61 -63 -37 -54 -21 -70 -9 -31 -40 -20 -67 -60 -89 -15 -77 -2 -69 -55 -24 -76 -64 -45 -95 -46 0
14 6 16 38 48 47 77 67 92 66 25 34 1 50 78 79 2 52 72 39 91 55 70 76 28 30 23 37 11 89 68 33 49 26 56 18 58 7 19 42 62 69 82 35 64 87 59 24 -10 -53 -20 -93 -40 -86 -13 -22 -4 -36 -63 -75 -85 -71 -12 -45 -90 -94 -29 -32 -8 -73 -88 -44 -3 -57 -43 -5 -84 -81 -46 -51 -31 -9 -80 -61 -95 -21 -65 -17 -83 -54 0
71 80 83 7 43 24 65 57 32 26 27 34 60 21 88 51 52 50 45 90 8 44 85 56 39 13 91 87 70 92 48 4 69 49 2 -64 -74 -11 -36 -42 -19 -95 -78 -59 -10 -16 -31 -5 -9 -40 -33 -46 -55 -1 -75 -47 -82 -14 -66 -20 -68 -67 -77 -28 -93 -6 -30 -84 -23 0
47 17 91 22 35 92 95 13 80 27 85 34 4 81 14 67 66 52 45 56 33 73 48 24 49 12 9 90 72 89 94 64 -20 -10 -15 -79 -46 -71 -18 -75 -51 -83 -8 -61 -31 -53 -82 -42 -70 -69 -2 -68 -78 -26 -11 -65 -93 -76 -23 -30 -5 -21 -55 -39 -1 -50 -63 -59 -44 -87 -86 -62 0
12 5 68 60 94 63 29 33 65 17 9 1 53 84 41 38 8 10 82 36 92 74 31 6 46 89 15 59 -7 -67 -24 -56 -22 -77 -45 -83 -66 -20 -76 -85 -19 -27 -93 -69 -26 -51 -95 -79 -73 -18 0
5 65 56 13 42 95 18 40 45 77 21 2 83 89 47 85 46 55 49 3 6 20 82 9 74 16 7 58 25 50 10 34 31 80 81 66 39 88 94 92 84 73 64 11 4 32 67 30 17 -71 -90 -37 -51 -28 -54 -1 -15 -52 -19 -35 -26 -76 -86 -53 -93 -57 -8 -87 -62 -75 -41 -63 -70 -22 -72 -36 -78 -79 -29 -60 -91 -14 -24 -69 -48 -38 -43 0
4 83 49 68 88 6 10 58 60 71 7 59 29 47 23 90 30 13 74 34 76 25 22 54 51 17 66 41 81 69 80 52 87 18 56 2 95 44 8 36 45 -79 -43 -91 -9 -72 -48 -94 -11 -57 -33 -86 -32 -26 -38 -67 -21 -35 -82 -14 -73 -28 -89 -42 -84 -77 -53 -61 -37 -85 -20 -12 -63 -5 -15 -62 -92 -93 -3 -75 -55 -31 -40 -19 -78 -24 -46 -16 -64 0
93 22 -92 -73 -53 -33 -5 -16 0
61 91 40 5 25 56 79 47 1 71 10 66 18 12 83 58 50 37 80 38 2 51 26 -20 -77 -15 -87 -92 -93 -53 -11 -30 -67 -76 -19 -44 -16 -36 -4 -85 -52 -55 -42 -65 0
60 79 21 89 1 84 40 93 94 39 73 13 64 83 -55 -72 -36 -15 -71 -11 -41 -28 -70 -81 -69 -23 -35 0
37 47 9 36 74 71 51 20 77 92 67 89 60 22 90 83 13 30 87 45 52 3 86 26 61 66 68 -25 -82 -24 -21 -38 -41 -15 -72 -43 -19 -70 -27 -64 -44 -1 -58 -75 -65 -6 -8 -78 -10 0
24 6 84 52 36 4 -34 -88 -14 -69 -83 -32 -80 -87 -71 -58 -9 -62 -90 -94 -66 -65 -92 -11 -28 0
33 66 26 47 86 40 54 9 62 45 11 95 20 67 52 72 30 88 85 4 82 70 73 60 19 29 21 61 87 57 2 81 38 18 6 71 53 13 22 10 -1 -23 -12 -32 -15 -24 -5 -50 -43 -90 -27 -83 -7 -16 -42 -37 -55 -46 -58 -49 -59 -34 -31 -84 -76 -8 -35 -28 -93 -56 -89 -91 -17 -94 -65 -75 -48 -92 -44 -63 -14 -3 -25 -77 -80 0
4 90 7 31 17 75 53 84 49 13 72 12 76 20 65 67 94 38 1 89 95 19 74 82 27 81 58 18 28 8 55 14 70 3 30 6 26 63 2 56 -78 -16 -69 -15 -42 -64 -33 -39 -47 -62 -61 -24 -77 -66 -32 -92 -40 -21 -11 -59 -88 -34 -23 -29 -45 -46 -48 -9 -25 -52 -43 -68 -87 -37 -50 -36 -5 -86 -80 0
75 81 40 82 71 46 37 28 42 41 36 21 53 69 19 76 77 94 95 92 32 25 16 78 7 17 73 66 60 30 3 -9 -43 -57 -88 -31 -83 -15 -67 -64 -20 -91 -86 -84 -52 -27 -89 -12 -90 -72 -13 -22 -39 -65 -87 -93 -80 -48 -70 -6 -45 -35 -33 -51 -79 -23 -1 0
72 94 57 82 59 67 39 11 6 58 37 48 5 43 55 30 80 51 50 60 88 26 83 92 -14 -91 -78 -38 -9 -4 -66 -86 -52 -70 -21 -1 -13 -3 -2 -17 -18 -90 -56 -40 -71 -63 -34 -41 -61 -36 -79 0
40 9 63 18 37 21 33 49 52 14 47 80 85 -25 -84 -76 -83 -44 -20 -61 -62 -11 -15 -31 -88 -87 -69 0
58 86 69 24 33 78 90 31 81 46 7 6 48 49 74 51 85 53 21 54 19 79 83 66 26 43 -62 -47 -28 -64 -35 -60 -5 -36 -89 -92 -12 -38 -22 -3 -65 -39 -16 -93 -14 -68 -27 -59 -11 -2 -34 -42 -91 -1 -8 -41 -57 -18 0
91 26 88 20 42 46 80 76 53 34 10 24 1 45 21 44 8 54 67 7 65 25 69 17 47 12 19 2 35 -16 -32 -73 -22 -31 -85 -89 -43 -38 -14 -63 -57 -55 -5 -75 -71 -77 -72 -79 -52 -28 -60 -36 -49 -70 -74 -9 -4 0
39 37 49 27 71 14 91 87 55 11 62 -28 -45 -54 -81 -94 -78 -52 -8 -65 0
12 92 44 85 -13 -5 -72 -27 -55 -14 -42 0
87 62 34 93 47 94 65 63 85 90 70 91 25 5 17 84 66 50 49 77 73 75 67 51 26 88 82 86 18 43 3 9 58 13 45 35 27 46 61 22 33 54 32 79 20 57 76 53 60 44 40 19 -30 -1 -42 -15 -71 -14 -31 -37 -12 -80 -52 -78 -64 -69 -81 -16 -92 -28 -24 -72 -2 -39 -74 -6 -7 -59 -83 -38 -36 -21 -23 -56 -29 -89 -11 -95 -55 -10 -4 -8 -48 0
50 8 47 66 64 40 22 62 84 32 19 82 45 29 83 72 31 6 81 28 67 27 -25 -4 -13 -80 -39 -86 -43 -51 -73 -74 -58 -2 -48 -33 -35 -55 -11 -85 -87 -16 -65 -91 -15 -10 -36 -46 -41 -76 -17 0
54 76 68 74 52 34 35 86 41 20 51 70 56 24 29 43 82 28 55 47 58 15 9 44 21 -59 -11 -85 -40 -94 -10 -7 -12 -93 -49 -5 -57 -37 -25 -8 -75 -63 -92 -19 -48 -14 -61 -91 -83 -53 -71 -46 -81 -27 -67 -62 -31 -79 -65 -66 0
13 67 2 89 43 5 19 18 53 50 31 80 84 26 46 17 87 61 3 73 81 63 34 71 8 47 15 22 33 52 91 69 51 82 58 92 -86 -11 -77 -85 -24 -95 -64 -20 -23 -28 -72 -27 -10 -93 -62 -54 -57 -40 -66 -38 -88 -16 -30 -70 -21 -59 -49 -35 -83 -48 -60 -56 -36 -45 -94 -29 -42 -65 -7 -79 -75 -76 -78 -1 -6 0
44 80 70 69 30 47 -42 -93 -19 -57 -71 -37 -66 -38 -10 -76 0
71 40 30 49 31 87 2 62 -1 -20 -64 -70 -86 -72 -26 -11 -69 0
4 27 90 65 84 16 40 49 58 37 71 6 76 56 93 43 13 31 94 75 54 36 11 91 66 79 30 82 64 -34 -95 -3 -22 -48 -28 -8 -44 -77 -23 -67 -1 -74 -73 -70 -92 -47 -62 -51 -35 -7 -20 -46 -89 -55 -72 -39 -88 -33 -10 -17 -15 -61 -45 0
10 86 90 11 55 44 35 88 76 46 3 42 25 63 58 52 5 51 67 -45 -29 -6 -75 -37 -81 -48 -7 -78 -57 -92 -73 -60 -82 -21 -49 -54 -17 -56 -19 -89 0
38 51 94 93 57 90 20 54 -13 -79 -16 -60 -15 0
84 56 67 43 34 20 39 47 81 16 74 60 64 68 36 23 17 86 21 73 6 91 78 5 52 3 59 9 27 69 65 13 1 92 -83 -24 -22 -30 -44 -77 -62 -95 -57 -25 -33 -61 -31 -41 -70 -87 -71 -89 -8 -88 -53 -45 -80 -28 -54 -93 -51 -55 -15 -4 -10 -12 -26 -66 0
45 19 29 44 27 56 58 42 35 91 24 2 53 93 39 13 52 55 15 23 57 1 62 -38 -31 -85 -74 -76 -82 -28 -8 -70 -86 -66 -18 -32 -89 -94 -30 -22 -54 -67 -6 -33 -88 -20 -16 -84 -36 -71 -77 0
21 40 28 14 8 33 57 81 31 78 87 18 7 22 64 39 48 46 53 94 58 86 68 75 55 5 32 -10 -38 -88 -37 -66 -13 -42 -67 -30 -63 -2 -51 -73 -3 -72 -77 -16 -74 -9 0
16 72 5 39 74 21 12 50 8 35 44 1 20 55 68 25 36 70 61 11 9 85 10 93 2 23 29 92 37 53 82 15 81 95 90 3 52 22 69 78 71 4 62 24 38 75 18 34 -27 -65 -51 -13 -17 -31 -49 -63 -48 -87 -42 -66 -77 -26 -86 -83 -91 -30 -76 -6 -57 -54 -79 -73 -45 -40 -80 -67 -7 -41 -19 -33 -59 -43 -60 -28 -89 -84 -88 -32 -46 -47 0
95 5 7 19 35 65 34 14 42 68 10 33 40 58 1 31 93 18 69 22 74 59 45 94 76 41 -50 -13 -28 -54 -56 -73 -62 -53 -72 -3 -21 -15 -83 -61 -86 -2 -24 -39 -80 -46 -92 -82 -4 -26 -64 -60 -88 -27 -36 -70 0
28 40 33 13 64 47 15 89 85 59 -43 -9 -37 -76 -44 -94 -16 -3 -14 -48 -70 -91 0
54 95 42 48 16 29 70 37 89 -65 -39 -85 -13 -36 -87 -49 -53 -34 -94 -44 -83 -20 -60 0
36 72 32 41 79 67 16 58 61 15 92 83 76 44 39 27 33 87 -2 -1 -94 -18 -74 -77 -17 -40 -43 -57 -14 -88 -34 -42 0
28 1 72 93 46 50 65 85 3 13 94 27 83 62 -89 -68 -17 -45 -76 -40 -61 -69 -42 -20 -64 0
94 46 13 92 6 62 28 11 75 86 31 91 95 42 80 57 45 30 87 90 56 89 2 25 85 44 24 74 41 26 66 68 55 72 83 82 12 8 67 78 52 58 34 36 -51 -38 -18 -76 -59 -9 -65 -40 -48 -7 -14 -21 -22 -70 -23 -69 -29 -88 -1 -17 -61 -50 -39 -15 -27 -16 -54 -77 -63 -10 -49 -81 -43 -35 -64 -20 -37 -4 -3 -33 -79 -84 -47 -32 0
38 -60 -65 -61 0
61 64 95 59 42 71 74 85 25 23 55 32 54 78 70 2 81 18 52 29 83 40 28 80 22 57 10 43 65 66 14 44 89 77 73 36 82 48 26 11 16 -94 -15 -1 -87 -39 -24 -37 -47 -30 -34 -76 -4 -86 -17 -53 -50 -93 -56 -46 -75 -13 -58 -79 -38 -21 -5 -35 -12 -7 -49 -45 -90 -31 -3 -92 -67 -33 -27 -72 -19 -6 -51 -20 -41 0
76 8 57 69 4 74 10 55 49 42 6 67 32 80 17 79 30 2 94 82 78 20 75 28 34 33 77 86 46 12 65 23 15 45 21 7 11 89 22 70 3 53 -40 -64 -59 -61 -81 -92 -90 -26 -44 -19 -48 -54 -58 -39 -43 -13 -36 -93 -50 -51 -31 -63 -47 -5 -25 -16 -9 -91 -88 -83 -27 -41 -1 -68 -24 0
84 91 7 13 77 68 40 1 61 47 26 50 39 38 62 19 36 51 4 52 65 33 60 82 32 48 -15 -31 -85 -80 -89 -5 -69 -81 -87 -94 -86 -11 -72 -18 -44 -59 -74 -78 -95 -67 -37 -88 -79 -49 -27 0
29 49 26 63 39 32 74 90 86 93 13 71 87 5 88 41 60 7 75 78 10 17 11 50 68 33 30 1 84 19 67 40 44 28 36 16 56 22 65 37 42 14 80 3 24 25 91 -54 -70 -81 -82 -66 -72 -59 -58 -76 -51 -94 -69 -57 -4 -35 -55 -52 -12 -34 -73 -85 -18 -23 -6 -21 -79 -38 -62 -27 -2 -15 -53 -9 -89 -47 -77 -83 -8 0
15 86 82 58 42 12 72 48 88 95 54 41 63 10 56 19 84 77 8 59 79 87 65 57 61 32 92 94 90 89 18 7 91 27 22 26 43 -35 -71 -83 -75 -81 -16 -47 -53 -14 -4 -36 -68 -66 -70 -51 -37 -69 -24 -44 -49 -78 -85 -45 -20 -34 -55 -64 -21 -28 0
76 92 19 67 42 40 87 70 17 75 74 91 50 58 24 66 86 55 60 33 83 28 53 29 79 16 59 54 -69 -13 -35 -46 -15 -64 -68 -41 -3 -26 -48 -10 -85 -82 -9 -20 -84 -12 -5 -56 -73 -72 -65 -45 -8 -95 -78 -38 -27 -93 -94 -88 -22 -11 -39 -37 -89 -61 -36 -77 -25 -14 -4 -1 0
89 41 12 27 59 91 58 20 90 1 73 47 81 29 62 66 30 67 53 8 40 80 72 64 4 2 13 57 15 -75 -79 -35 -34 -49 -69 -68 -86 -76 -26 -63 -22 -83 -46 -71 -93 -32 -82 -52 -42 -14 -11 -45 -56 -92 -16 -39 -94 -7 -36 -31 -23 -3 -50 -95 -84 -6 -37 0
14 32 50 83 69 61 -77 -95 -62 -43 -13 -52 -24 -49 -51 -19 -26 -67 -76 -7 -82 -57 -29 0
78 93 21 81 25 50 62 91 45 94 77 54 44 34 37 30 51 18 82 74 33 20 58 24 53 88 92 31 1 73 61 95 27 28 -32 -83 -85 -40 -22 -59 -14 -64 -60 -12 -3 -26 -49 -57 -71 -5 -43 -47 -8 -63 -80 -87 -69 -67 -6 -79 -48 -16 -52 -10 -72 -76 -89 -68 -65 -41 -2 -66 -70 -90 0
56 68 63 45 69 17 25 65 20 33 52 94 50 86 38 89 81 36 72 4 16 53 34 8 87 -92 -90 -77 -54 -1 -40 -85 -67 -74 -91 -23 -7 0
34 7 18 24 6 31 45 75 22 88 13 79 73 41 55 95 1 74 17 77 72 66 56 89 33 23 43 92 19 57 60 82 90 76 61 -93 -35 -30 -84 -83 -64 -12 -78 -62 -4 -86 -26 -80 -38 -71 -47 -2 -54 -63 -50 -44 -39 -59 -91 -87 0
54 56 21 82 38 42 88 55 73 83 79 46 -12 -30 -58 -48 -64 -35 -25 -89 -90 -4 -57 -71 0
10 73 12 42 76 7 37 3 45 49 53 31 6 39 52 48 94 86 47 15 71 21 90 87 30 26 60 61 13 -69 -92 -28 -18 -8 -55 -83 -58 -54 -41 -84 -24 -70 -50 -33 -78 -1 -66 -59 -4 -9 -19 -51 -80 -29 -35 -74 -79 -95 -36 -22 -67 -38 -93 -16 -57 -63 -89 -40 0
49 21 94 66 92 25 29 57 53 33 9 58 2 80 43 67 16 88 -4 -65 -8 -30 -42 -47 -19 -59 -40 -82 -44 -11 -6 -14 -12 -5 -37 -24 -56 -63 -7 -87 -60 -26 -13 -39 -28 -62 0
71 95 93 83 57 20 43 52 42 40 1 64 37 28 51 2 30 66 33 91 48 75 25 62 89 19 18 41 22 78 11 8 77 55 84 50 53 58 16 7 80 15 29 14 82 9 32 47 54 46 -39 -38 -12 -79 -35 -45 -21 -94 -70 -34 -87 -59 -31 -24 -17 -23 -60 -90 -63 -67 -61 -36 -73 -3 -76 -44 -13 -49 -88 -72 -92 -10 -74 -81 -86 -69 -6 -26 -85 -5 -4 -65 0
63 82 6 30 35 7 4 50 75 34 67 53 81 3 41 78 84 56 44 45 5 68 28 26 8 29 1 57 89 80 42 72 23 49 -32 -2 -37 -73 -47 -43 -58 -36 -86 -19 -65 -9 -87 -14 -77 -21 -55 -16 -51 -74 -20 -17 -70 -79 -85 -40 -66 -48 -95 -27 -24 -15 -22 -39 -76 -18 -54 -25 -10 -61 -90 -94 0
40 57 80 74 27 78 13 85 34 19 61 37 23 8 3 26 30 75 48 17 -91 -28 -45 -4 -93 -21 -10 -11 -60 -53 -12 -7 -20 -83 -32 -76 -15 0
34 13 50 24 54 38 70 41 93 31 81 1 21 82 85 75 95 89 83 59 42 40 28 -86 -43 -20 -5 -33 -3 -12 -80 -52 -48 -6 -53 -58 -27 -87 -4 -51 -44 -84 -90 -61 -37 -74 -49 -14 -15 -68 -10 -55 -79 -46 -64 -76 0
8 41 57 82 4 48 45 30 12 9 81 85 79 59 69 20 49 54 71 90 62 43 32 51 56 7 18 29 34 58 -66 -35 -27 -22 -73 -14 -91 -17 -44 -77 -87 -25 -55 -42 -89 -86 -21 -39 -64 -37 -60 0
29 91 10 57 8 82 69 12 75 62 90 85 33 14 50 18 46 67 44 26 45 32 9 83 73 49 22 53 54 61 76 59 42 58 2 15 70 3 64 68 30 56 71 -55 -66 -94 -16 -72 -60 -36 -79 -43 -19 -95 -13 -92 -41 -89 -81 -38 -88 -63 -78 -31 -40 -39 -34 -5 -65 -80 -51 -1 -11 -23 -35 -37 -24 -47 -93 -17 -28 -74 -52 -77 -21 -7 -27 0
29 82 58 65 31 74 11 15 19 7 8 71 91 40 53 10 52 93 68 21 2 44 24 25 13 5 26 9 75 72 -67 -17 -73 -49 -86 -20 -6 -54 -79 -90 -41 -56 -76 -42 -1 -62 -63 -55 -69 -57 -70 -85 -88 -36 -50 -39 0
68 51 26 46 38 76 39 15 77 90 59 84 3 9 6 48 27 92 79 81 87 24 47 22 37 1 82 18 -69 -55 -74 -12 -58 -63 -56 -89 -93 -17 -86 -71 -45 -43 -25 -14 -88 -42 -44 -34 -72 -60 -36 -94 -20 -78 -50 -64 -13 -53 0
32 40 67 17 -37 -61 -23 0
69 -41 -7 0
23 4 66 28 22 49 39 67 43 9 88 15 31 18 68 19 20 1 6 54 82 38 71 8 36 62 46 91 87 35 65 59 89 78 95 13 -70 -61 -76 -47 -14 -11 -69 -84 -27 -56 -81 -30 -40 -73 -92 -51 -79 -25 -21 -52 -44 -64 -55 -32 -45 -75 -80 -74 -17 -24 -60 -16 -83 -26 -3 -58 -93 -7 -85 0
93 76 4 13 62 86 41 -23 -39 -36 -92 -81 0
78 14 86 75 62 10 51 25 87 82 44 9 29 35 52 80 73 13 54 69 94 26 16 48 15 85 46 74 77 41 67 39 37 17 33 31 89 -64 -81 -30 -8 -24 -12 -4 -91 -50 -34 -3 -6 -23 -58 -11 -60 -28 -5 -92 -79 -72 -21 -7 -88 -36 -1 -22 -2 -93 -71 -57 -32 -95 -43 -84 -42 -68 -76 0
50 40 55 4 86 91 41 64 63 43 53 79 29 32 9 94 49 17 92 11 18 24 61 15 57 56 20 10 78 75 6 88 34 67 46 95 90 27 74 3 12 83 -60 -14 -89 -87 -85 -25 -77 -47 -58 -68 -48 -54 -52 -36 -21 -93 -35 -44 -22 -7 -13 -30 -69 -37 -33 -45 -51 -26 -42 -31 -82 -23 -72 -84 -70 0
3 76 80 19 64 12 26 69 82 66 15 71 23 -11 -17 -20 -28 -84 -65 -5 -94 -75 -57 -67 -49 0
69 93 65 38 48 88 63 57 70 61 92 -37 -50 -39 -45 -2 -68 -44 -53 -64 -34 -31 0
92 35 14 -51 -62 -46 -19 -49 -37 0
71 16 60 42 31 44 77 94 2 79 12 1 54 40 35 80 81 15 3 45 37 65 49 5 70 69 -57 -90 -6 -43 -66 -29 -8 -25 -68 -72 -53 -11 -50 -48 -75 -26 -30 -51 -18 -91 -13 -33 -19 -32 -23 0
31 40 6 69 95 1 7 -45 -56 -22 -38 -81 -26 0
82 46 92 70 76 5 55 69 20 79 27 38 53 56 94 7 95 18 17 24 62 28 26 54 32 88 59 45 75 93 4 36 1 9 43 73 21 -10 -39 -50 -51 -61 -11 -64 -35 -40 -44 -13 -80 -52 -6 -68 -65 -3 -8 -37 -16 -25 -74 -78 -87 -90 -81 -86 -19 -33 -29 -83 -30 -47 -72 -85 -91 -49 -89 -58 -22 -77 -63 -41 -57 -34 -31 -84 -48 0
17 6 11 27 5 -75 -22 -37 -50 0
93 45 87 95 64 26 54 36 44 10 79 37 59 69 25 8 48 46 52 85 41 40 22 70 51 65 78 4 73 62 -61 -86 -23 -50 -71 -19 -32 -74 -12 -14 -31 -60 -33 -49 -24 -84 -92 -80 -2 -55 -75 -7 -94 -39 -16 0
57 85 39 10 89 23 30 24 91 12 61 2 74 80 22 73 62 52 67 68 26 64 56 70 38 27 65 11 1 77 94 71 40 16 69 45 33 53 7 76 -49 -86 -18 -28 -32 -55 -79 -21 -8 -50 -81 -41 -14 -60 -51 -13 -36 -54 -5 -44 -82 -58 -95 -66 -31 -29 -47 -46 -19 -25 -78 -92 -84 -88 -63 -9 -15 -72 -6 -90 -37 -75 -35 0
7 38 64 59 82 55 92 94 78 29 69 5 43 51 93 8 31 11 14 68 46 -34 -66 -63 -81 -79 -16 -18 -22 -41 -19 -85 -74 -83 -84 -3 -52 0
49 8 46 91 9 23 90 94 86 34 10 52 79 63 83 32 80 93 -41 -24 -27 -57 -84 -62 -48 -11 -66 -74 -17 -31 -18 -3 -67 -37 -7 -35 -26 -33 -81 -14 0
47 43 56 25 89 45 35 9 84 79 63 39 24 93 81 67 54 78 29 7 86 59 14 52 11 53 55 74 61 40 44 41 85 82 65 22 42 18 16 68 36 62 -32 -23 -87 -13 -69 -72 -49 -15 -38 -51 -34 -30 -90 -70 -46 -2 -20 -57 -76 -12 -21 -92 -3 -91 -58 -83 -17 -37 -48 -71 -10 -28 -94 -95 -60 -77 -31 -66 -8 -33 -75 -80 -6 0
25 89 13 49 4 22 14 28 27 83 90 95 73 72 50 65 44 34 87 16 17 94 -45 -63 -80 -15 -54 -59 -86 -37 -85 -84 -18 -88 -9 -67 -31 -33 -30 -70 -69 -2 0
57 6 62 39 33 29 91 80 38 37 70 94 92 45 83 15 7 34 52 8 16 48 68 2 44 59 75 4 5 65 88 40 93 42 14 30 78 -53 -74 -9 -90 -72 -82 -64 -13 -23 -11 -58 -66 -85 -63 -35 -10 -51 -86 -87 -25 -1 -54 -79 -18 -50 -22 -46 -71 -31 -41 -60 -73 -3 -76 -89 -32 -12 -17 -20 -55 -27 0
72 5 35 68 55 59 19 9 -43 -67 -87 -53 -30 -74 -63 -20 0
40 4 6 79 61 24 23 32 92 73 89 19 56 47 63 13 48 87 18 54 84 16 29 34 5 26 93 41 77 36 81 3 39 75 42 38 28 52 82 83 72 43 67 70 64 11 65 46 -45 -88 -37 -85 -50 -12 -27 -49 -8 -69 -62 -31 -15 -68 -10 -20 -66 -7 -80 -33 -21 -17 -14 -86 -90 -1 -74 -59 -53 -9 -71 -60 -94 -44 -76 -35 -95 -91 -22 -55 -78 -30 -51 0
52 25 81 67 22 28 34 82 69 90 18 73 41 8 9 54 84 59 -53 -85 -83 -68 -3 -45 -20 -7 -21 -6 -65 -30 -5 -77 -14 -56 -78 -33 -2 -17 -4 -74 -1 -26 -12 -70 0
29 49 35 2 53 -87 -1 -38 -12 -62 0
58 11 61 39 69 20 28 48 87 5 42 23 40 14 12 46 35 76 -38 -88 -10 -51 -59 -33 -89 -77 -84 -90 -83 -68 -85 -75 -56 -64 -47 -19 -63 -79 -27 -62 -6 0
42 67 1 49 83 14 22 62 19 -92 -30 -38 -26 -75 -95 -4 -54 -90 -3 -73 0
64 36 19 13 28 81 61 23 30 43 5 79 60 76 8 57 73 85 4 7 51 92 74 31 62 46 69 18 49 72 26 15 -14 -66 -78 -42 -58 -77 -52 -54 -93 -11 -68 -83 -17 -59 -1 -56 -3 -25 -40 -29 -53 -45 -90 -2 -88 -41 -55 -84 -21 -70 -71 -32 -94 0
45 15 46 77 72 2 79 89 93 73 68 18 10 53 27 21 91 36 47 28 39 43 94 48 92 17 38 26 60 13 29 70 57 44 90 50 52 1 23 16 67 95 9 71 75 -20 -66 -14 -55 -19 -64 -58 -25 -84 -76 -4 -24 -11 -62 -41 -6 -86 -51 -33 -12 -49 -42 -69 -5 -61 -82 -54 -31 -32 -83 -22 -87 -65 -59 -56 -40 -81 -3 -78 -80 -35 -7 -37 0
34 84 66 57 -19 -71 -87 -90 -20 -43 -10 -50 -31 -78 -38 -59 -51 -36 -77 0
93 16 72 78 19 10 89 11 56 31 39 80 52 25 73 7 66 6 95 79 68 17 22 58 41 53 76 33 87 61 3 44 14 92 20 4 45 67 34 12 23 35 84 38 32 37 81 -94 -71 -90 -36 -5 -49 -86 -8 -13 -51 -43 -74 -70 -64 -15 -9 -18 -27 -63 -29 -50 -28 -2 -1 -46 -91 -82 -48 -55 -69 -88 -47 -85 -77 -62 -42 -26 -75 -21 -40 -60 -65 -57 0
92 95 42 9 5 13 36 3 54 20 51 23 76 56 7 83 84 25 67 58 93 43 15 88 44 72 91 16 71 82 28 22 61 31 49 74 40 45 66 69 26 90 -64 -52 -75 -55 -68 -46 -8 -2 -33 -59 -50 -6 -60 -35 -10 -63 -53 -27 -37 -41 -19 -30 -34 -57 -62 -87 -89 -32 -24 -73 -79 -39 -12 -18 -21 -78 -47 -70 -11 -81 -1 -14 -17 -4 -80 0
54 44 3 88 77 28 38 76 27 78 14 87 13 66 29 68 24 59 39 25 53 32 6 94 23 5 8 82 57 92 95 31 41 64 90 40 18 55 84 47 12 45 15 35 -26 -70 -49 -93 -71 -75 -51 -36 -79 -46 -9 -50 -11 -30 -2 -73 -42 -91 -33 -80 -52 -62 -10 -48 -63 -16 -37 -1 -7 -20 -72 -43 -89 -86 -85 -22 -69 -34 -19 -65 -81 -4 -67 -17 -58 -61 -56 -83 -21 -74 0
16 75 32 29 79 68 86 28 84 -3 -93 -71 -64 -35 -60 -2 -59 -44 -90 -66 0
12 15 26 47 17 68 23 67 46 57 14 88 39 85 77 33 27 -13 -59 -49 -73 -65 -22 -60 -61 -18 -1 -55 -11 -74 -79 -56 -75 0
19 4 88 16 41 24 28 14 38 52 68 21 32 25 26 58 29 46 76 61 69 77 72 43 8 91 49 59 60 79 22 81 67 10 15 36 86 11 62 -84 -53 -55 -74 -12 -64 -7 -44 -80 -45 -63 -54 -13 -31 -2 -87 -17 -30 -78 -20 -34 -35 -3 -9 -39 -92 -56 -6 -48 -5 -89 -94 -90 -1 -85 -23 -71 -47 -50 -75 -66 -70 -57 -51 -95 -73 -93 -37 0
54 58 94 -20 -68 -44 -72 0
32 69 14 91 10 34 94 88 51 42 89 84 36 46 37 63 60 81 85 44 24 79 28 73 26 15 5 -77 -7 -25 -49 -43 -9 -82 -55 -48 -58 -2 -66 -87 -4 -39 -59 -17 -1 -71 -74 -54 -13 -31 -62 -27 -52 -61 -16 -76 -35 -90 0
8 74 55 10 59 79 77 44 51 27 5 14 81 -76 -1 -82 -48 -13 -19 -56 -36 -15 -26 -45 -64 -87 -2 -66 -21 -42 -18 -73 -22 0
94 77 60 76 29 90 14 37 87 19 64 92 53 61 65 24 52 23 95 56 -66 -57 -2 -84 -36 -1 -22 -73 -12 -55 -32 -7 -75 0
50 94 31 47 68 53 49 70 76 85 89 14 64 51 33 37 15 74 35 2 24 36 63 79 87 71 54 82 52 59 21 6 -90 -78 -73 -16 -25 -26 -95 -67 -13 -22 -58 -66 -75 -19 -27 -4 -91 -65 -77 -5 -18 -8 -57 -86 -62 -10 -20 -84 -56 -92 -55 -28 -12 -45 -9 -83 -39 -34 -81 -72 -48 -3 -46 -41 -93 -1 -61 -88 0
33 49 84 7 -17 -26 -77 -94 0
15 68 72 14 83 63 31 -43 -32 -3 -71 0
56 95 17 -31 -58 -8 -85 0
76 18 44 88 61 82 84 45 38 83 86 8 34 32 90 42 1 87 2 75 52 70 6 57 14 28 62 71 72 -69 -19 -50 -58 -77 -79 -47 -5 -22 -31 -26 -41 -15 -3 -12 -73 -36 -89 -23 -7 -91 -48 -55 -66 -85 -11 -67 -81 -29 -30 -43 -33 -59 0
38 63 22 73 28 25 57 18 20 61 17 59 94 49 9 23 85 68 76 34 37 39 13 3 -6 -58 -35 -74 -42 -69 -88 -41 -78 -43 -8 -56 -71 -5 -19 -87 -93 -75 -15 -66 -1 -36 -89 -44 -82 -84 -54 -80 -55 -67 -77 -27 -50 -83 -24 0
63 86 46 59 87 36 81 58 68 6 42 64 84 34 -38 -75 -80 -3 -50 -9 -82 -65 -45 -83 -25 -14 -32 -30 -27 -24 -1 -78 -13 -10 -26 -7 -12 -70 0
37 72 90 64 50 12 14 34 19 69 78 54 4 23 3 87 29 55 25 81 27 84 75 85 30 1 -42 -35 -5 -88 -9 -46 -57 -47 -56 -76 -91 -63 -6 -10 -32 -68 -73 -60 -11 -79 -65 -92 -48 0
48 5 93 39 25 36 19 46 44 89 54 10 84 45 37 26 52 92 82 59 53 34 58 16 86 65 68 35 32 3 7 -49 -78 -30 -47 -24 -76 -95 -83 -18 -9 -38 -8 -88 -63 -60 -77 -64 -28 -91 -55 -56 -2 -79 -50 -94 -62 -69 -33 -40 -71 -11 -4 -57 -41 -73 0
73 91 9 86 1 63 66 45 -47 -38 -49 -62 -64 -41 -11 0
60 49 92 67 83 7 66 63 35 91 25 44 -18 -37 -43 -88 -58 -68 -71 -86 -33 -8 -16 -36 0
71 20 90 28 55 63 34 68 35 3 19 87 22 84 8 23 32 59 61 79 83 51 10 88 12 25 86 57 95 9 62 54 1 39 4 52 11 50 72 67 -2 -60 -48 -77 -41 -73 -89 -42 -40 -81 -58 -76 -5 -75 -43 -45 -64 -27 -33 -21 -44 -47 -80 -17 -92 -26 -16 -24 -85 -56 -36 -38 -53 -78 -69 -93 -46 -31 -18 -15 -7 0
60 83 65 86 19 64 6 85 34 38 14 29 72 63 21 81 46 82 40 49 31 36 15 13 80 20 22 87 32 84 24 10 54 25 77 42 37 26 48 50 66 4 33 92 -75 -93 -57 -70 -5 -1 -58 -89 -16 -91 -39 -71 -53 -44 -12 -61 -47 -62 -7 -41 -88 -8 -95 -90 -9 -56 -45 -2 -55 -74 -28 -3 -27 -52 -23 -30 -51 -73 -43 -76 -35 -17 -59 0
68 14 28 77 38 56 8 60 32 58 86 54 10 78 57 61 66 -84 -80 -1 -29 -94 -91 -26 -89 -41 -20 -55 -9 -34 -36 -59 -85 -50 -92 0
61 59 24 79 56 51 73 42 22 23 81 90 68 89 8 75 32 44 67 9 72 93 63 76 14 37 18 43 20 12 77 26 31 71 85 53 13 64 74 34 83 91 50 95 6 29 -7 -94 -15 -86 -69 -84 -70 -82 -39 -65 -41 -10 -30 -47 -54 -17 -60 -78 -55 -66 -16 -80 -35 -62 -3 -88 -4 -48 -46 -33 -45 -92 -21 -25 -52 -57 -58 -36 -2 -1 -87 -49 -19 -11 -5 -28 -38 0
68 87 46 5 84 56 39 16 86 50 51 40 21 55 88 94 93 2 1 71 65 22 6 91 82 53 18 95 60 59 70 45 58 23 89 25 78 90 34 31 41 26 52 11 80 9 43 66 -85 -64 -83 -48 -15 -4 -32 -33 -77 -36 -69 -79 -13 -24 -17 -3 -8 -67 -12 -75 -73 -44 -47 -27 -7 -76 -92 -74 -57 -35 -63 -10 -28 -42 -54 -19 -20 0
51 42 37 82 31 21 62 79 17 32 61 34 88 20 53 81 77 41 95 15 87 91 76 72 59 12 10 90 14 85 45 80 35 29 44 -19 -36 -66 -78 -24 -74 -5 -83 -73 -13 -67 -58 -75 -26 -69 -49 -94 -16 -71 -63 -6 -93 -68 -38 -25 -56 -57 -28 -65 -8 -54 -9 -89 -3 -47 -52 -64 -60 -92 -43 -70 -7 -50 0
42 74 6 20 43 51 5 67 4 37 35 83 49 56 60 63 3 78 19 62 30 22 45 18 48 68 9 52 53 65 15 73 82 64 39 1 12 50 -41 -31 -14 -23 -81 -10 -36 -44 -86 -47 -79 -88 -71 -27 -24 -11 -95 -29 -59 -2 -55 -61 -76 -69 -72 -80 -57 0
34 76 48 94 35 6 89 39 43 11 87 17 70 44 71 66 18 32 52 74 33 86 7 16 63 14 93 73 38 72 23 56 53 85 58 2 46 90 26 27 -36 -81 -69 -10 -55 -12 -29 -40 -31 -13 -78 -64 -88 -45 -41 -19 -92 -24 -21 -68 -84 -49 -25 -79 -75 -51 -59 -4 -77 -20 -65 -8 -91 -5 -80 -28 -3 -30 -22 -82 -57 -60 -9 -67 -15 0
85 5 9 69 2 12 1 25 81 67 56 32 87 35 62 11 36 93 51 14 3 22 16 41 76 55 44 54 -53 -21 -74 -57 -83 -64 -70 -20 -45 -47 -50 -29 -78 -72 -42 -61 -43 -59 -86 -77 -30 -84 -18 -26 -58 -10 0
59 94 18 42 30 16 7 81 26 84 19 29 5 14 13 48 17 47 70 65 31 10 63 9 58 95 57 41 86 43 36 51 3 23 61 38 25 68 66 89 49 40 64 27 1 67 55 77 54 85 78 90 12 71 79 -53 -88 -87 -82 -76 -33 -35 -2 -69 -21 -74 -11 -50 -34 -45 -22 -72 -83 -93 -62 -6 -8 -32 -15 -28 -46 -24 -91 -44 -92 -60 -52 -73 -39 -56 0
82 40 74 34 2 79 46 57 65 38 23 8 71 26 66 59 78 55 7 21 61 6 93 51 16 29 75 4 68 44 42 25 1 63 36 60 50 67 70 92 17 27 64 89 39 -90 -45 -28 -88 -62 -12 -15 -24 -35 -84 -20 -33 -9 -58 -11 -19 -37 -91 -54 -32 -77 -10 -56 -13 -53 -5 -43 -52 -48 -22 -85 -72 -41 -18 -31 -83 -73 -80 -95 -81 -86 -3 0
85 12 55 40 79 22 33 36 81 21 59 83 77 73 57 86 54 6 66 94 19 42 25 49 9 61 14 87 90 15 92 91 74 20 65 37 38 24 78 27 89 72 53 63 -2 -41 -3 -5 -62 -75 -71 -34 -8 -18 -47 -32 -51 -60 -30 -23 -31 -80 -11 -52 -70 -13 -26 -76 -93 -84 -1 -64 -69 -82 -58 -88 -95 -10 -4 -39 -50 -44 -17 -48 -29 -45 -16 -68 -46 -67 0
63 52 30 42 86 89 68 21 54 47 71 40 84 93 67 87 65 39 20 76 33 13 77 16 8 82 -10 -45 -14 -95 -31 -5 -75 -83 -26 -36 -28 -24 -15 -44 -92 -29 -73 -88 -78 -55 -81 -64 -79 -19 -1 0
