c NeuroCodeBench 2.0 CNF formula with verdict Sat
p cnf 91 560
54 13 66 82 58 86 17 24 57 1 16 20 80 27 34 64 31 21 75 25 74 3 30 32 9 -26 -88 -51 -78 -91 -38 -83 -35 -8 -11 -42 -50 -90 -41 -68 -12 -56 -22 -77 -19 -79 -61 -67 -52 -71 -60 -14 -63 -53 -69 -49 -6 -59 -70 -87 -65 -15 -73 0
33 77 37 60 36 53 42 9 74 -35 -69 -54 -75 -65 -8 -1 -40 -67 -82 0
53 80 77 47 23 68 24 91 20 8 60 61 79 54 41 69 29 43 27 65 26 78 46 75 19 6 71 32 81 10 36 -82 -85 -55 -38 -37 -25 -58 -73 -89 -63 -87 -4 -67 -52 -49 -31 -72 -76 -21 -74 -2 -17 -62 -18 -5 -48 0
26 36 43 60 79 33 13 56 5 22 55 63 71 2 61 16 84 31 9 8 7 18 49 74 35 17 72 70 14 48 78 54 52 47 88 86 80 73 -91 -29 -10 -57 -85 -64 -32 -4 -27 -59 -65 -89 -75 -58 -50 -25 -6 -53 -68 -51 -83 -3 -38 -77 -11 -45 -23 -44 -46 -62 -12 -20 -39 -81 -30 -1 -66 -21 -82 -34 -69 -15 -67 -76 -87 -42 -41 -28 -40 -37 0
54 29 52 19 84 50 10 69 25 53 20 9 33 30 5 26 -78 -83 -34 -62 -70 -27 -75 -74 -51 -4 -66 -36 -49 -48 -56 -41 -11 -1 -38 -21 -13 -79 -28 -72 -2 0
83 34 21 13 69 70 75 32 29 31 27 78 82 2 85 88 80 49 35 38 44 65 91 56 30 77 9 90 51 61 73 64 11 -12 -81 -3 -16 -37 -6 -43 -14 -72 -57 -28 -60 -41 -22 -42 -18 -1 -48 -25 -74 -71 -23 -54 -26 -59 -89 -19 -10 -66 -52 -47 0
30 44 16 35 -36 -48 -67 -28 0
65 9 48 26 88 85 86 53 17 68 66 74 57 84 49 89 80 81 59 54 82 12 32 35 56 34 21 18 46 45 83 4 -3 -41 -15 -38 -5 -69 -76 -87 -25 -23 -1 -91 -90 -36 -14 -44 -75 -70 -37 -31 -52 -62 -19 -71 -51 0
82 74 45 65 35 21 84 29 19 30 66 50 15 17 13 67 90 44 5 43 71 49 63 53 91 12 36 75 3 -31 -86 -10 -26 -88 -68 -85 -69 -46 -52 -81 -76 -54 -70 -7 -33 -24 -34 -72 -89 -79 -2 -64 -27 0
68 53 6 17 18 21 14 -29 -27 -78 -60 -3 -13 -4 -32 -71 -85 -10 0
6 84 0
51 90 15 81 13 18 24 71 61 21 47 31 16 82 -10 -17 -3 -89 -43 -86 -57 -35 -72 -37 -2 -62 -28 -60 0
33 46 89 12 35 21 27 80 64 70 13 31 87 53 56 40 28 54 41 30 62 3 91 76 2 61 23 58 47 57 49 9 8 48 -60 -4 -69 -50 -82 -71 -15 -36 -16 -11 -79 -32 -55 -45 -7 -39 -22 -83 -1 -66 -72 -34 -77 -6 -25 -78 -90 -65 -19 -88 -84 -67 -63 -5 -14 -29 -81 -10 0
21 30 78 60 46 36 15 56 70 62 6 25 84 7 33 45 3 10 61 34 11 14 26 17 29 4 40 66 76 77 13 88 2 74 27 89 20 -48 -42 -79 -90 -72 -18 -43 -37 -63 -65 -75 -9 -91 -52 -69 -51 -80 -82 -59 -57 -19 -32 -31 -50 -68 -16 -64 -12 -85 -8 -58 -22 -67 -86 -55 -73 -83 -39 -41 0
8 46 2 60 16 78 87 26 11 32 89 81 13 5 82 7 77 31 30 -76 -86 -19 -90 -53 -15 -20 -48 -21 -70 -80 -56 -47 -72 -68 -73 -24 -10 -29 -50 -65 -54 -74 -37 -3 0
10 84 74 3 35 61 89 30 72 49 31 15 50 25 85 27 1 87 24 6 43 54 20 79 4 41 33 -58 -12 -45 -48 -36 -64 -11 -38 -91 -32 -86 -9 -16 -57 -17 -46 -5 -26 -51 -19 -14 -59 -21 -28 -44 -90 -69 -76 -73 0
50 87 70 81 11 14 30 23 38 2 48 83 73 85 18 90 20 19 71 77 40 29 47 88 72 66 36 24 57 26 5 31 28 55 15 -43 -7 -33 -45 -54 -60 -27 -39 -12 -22 -9 -4 -3 -32 -16 -17 -56 -84 -25 -42 -58 -51 -89 -44 -82 -8 -13 -67 0
39 27 4 52 15 9 68 21 17 35 55 82 41 50 47 7 59 79 45 85 12 84 20 56 60 54 38 29 37 3 44 8 83 87 61 33 -62 -67 -75 -86 -66 -34 -14 -31 -40 -36 -26 -65 -49 -72 -42 -90 -18 -19 -53 -73 -70 -32 -78 -28 -10 -80 -74 -89 -1 -16 -23 -25 -58 -24 -71 -69 -57 -5 -43 -6 -22 0
60 19 53 55 64 -78 -44 -84 -6 -65 0
35 55 19 68 73 71 52 89 44 16 87 59 61 13 24 47 51 63 28 1 65 45 27 70 39 49 15 46 80 12 54 31 76 78 25 8 67 64 42 58 2 26 18 -57 -23 -62 -82 -66 -21 -69 -53 -11 -88 -81 -74 -60 -36 -4 -86 -84 -22 -43 -38 -14 -9 -30 -41 -79 -75 -33 -40 -83 -85 -34 -10 -20 0
19 85 15 24 67 73 84 30 89 25 79 54 77 55 87 88 78 66 49 50 3 56 37 33 8 57 20 27 51 11 43 82 83 40 17 74 75 58 -52 -46 -36 -14 -38 -23 -76 -44 -12 -72 -26 -21 -5 -4 -35 -9 -34 -71 -29 -80 -32 -16 -63 -68 -60 -86 -61 -1 -10 -41 -22 -64 -69 -42 -6 -65 -31 -81 -18 -45 -53 -39 -48 -28 -2 -7 -90 -59 -62 -47 -13 -70 0
77 84 88 28 11 52 53 2 69 47 71 91 54 23 13 34 25 14 21 43 78 39 20 81 50 62 86 90 56 -64 -9 -36 -29 -55 -7 -68 -48 -80 -67 -35 -27 -60 -82 -74 -1 -87 -8 -32 -76 -51 -42 -31 -70 -15 -3 -5 -4 0
31 16 67 69 7 17 43 28 22 -37 -56 -20 -83 -15 -91 0
49 64 9 70 87 62 24 32 14 26 3 31 18 77 80 58 79 40 20 46 83 38 53 60 27 57 72 84 90 21 42 8 29 4 52 51 36 75 7 61 -25 -48 -67 -1 -89 -71 -19 -39 -33 -68 -56 -6 -55 -2 -66 -78 -22 -45 -73 -47 -50 -37 -41 -59 -44 -65 -69 -63 -12 -82 -88 -85 -16 -11 -5 -34 -91 -74 -17 -30 -76 0
43 55 67 -74 -84 -63 -11 -7 0
87 70 72 86 33 89 90 27 48 49 85 12 14 22 53 20 36 62 80 56 7 39 40 91 58 3 4 8 71 11 1 65 -66 -41 -43 -54 -37 -38 -23 -60 -45 -9 -18 -73 -57 -81 -21 -82 -42 -52 -47 -32 -24 -51 -55 -35 -34 -10 0
70 12 63 20 53 1 -64 -86 -24 -44 -34 -25 -69 -18 -17 -75 -10 0
13 68 40 57 74 87 85 1 28 67 69 77 82 60 90 65 -73 -86 -76 -58 -7 -35 -10 -72 -71 -66 -80 -41 -4 -20 -45 -22 -51 0
89 57 90 33 35 10 3 86 12 16 60 74 71 34 40 27 78 68 49 17 85 45 1 26 22 76 -84 -41 -59 -31 -53 -36 -18 -65 -67 -66 -37 -24 -81 -62 -77 -63 -6 -19 -7 -87 -73 -43 -61 -72 -15 -47 -20 -25 -21 -91 -64 0
27 50 72 58 84 67 49 10 77 74 37 69 79 65 9 54 32 36 45 76 43 48 38 4 41 82 46 35 14 18 31 64 25 71 61 1 21 51 68 66 -88 -26 -24 -33 -90 -62 -86 -87 -22 -59 -19 -2 -42 -44 -63 -13 -12 -6 -16 -30 -3 -80 -55 -34 -89 -23 -60 -85 -91 -28 -7 -56 -52 -83 -81 -78 0
85 16 27 54 63 40 41 80 79 48 69 81 4 32 53 83 23 2 11 56 6 18 72 45 -90 -57 -62 -91 -20 -78 -7 -60 -44 -24 -49 -39 -25 -5 -50 -14 -52 -33 -84 -12 -13 -75 -58 -82 -64 -15 -61 0
21 64 50 28 34 37 -49 -90 -60 -61 -7 -20 -71 -23 0
85 39 56 55 6 84 38 76 48 8 51 15 60 37 -47 -35 -3 -52 -14 -34 -69 -80 -45 -91 0
18 50 51 20 40 84 41 90 39 86 2 61 -11 -10 -65 -52 -72 -3 -66 -68 -78 -42 0
26 50 64 40 15 68 58 30 53 60 36 12 85 91 5 9 35 43 81 45 82 48 69 22 44 25 65 3 -84 -63 -87 -46 -28 -37 -21 -24 -17 -86 -70 -73 -78 -34 -76 -56 -41 -33 -52 -16 -47 -90 -61 -29 -8 0
46 70 45 33 30 90 59 69 88 50 10 85 89 24 14 72 28 39 60 53 58 41 64 77 80 3 82 -2 -25 -7 -66 -56 -36 -1 -31 -76 -38 -87 -65 -48 -81 -29 -61 -73 -75 -52 -78 -63 -18 -71 -5 -91 -49 -8 -12 -86 0
47 25 26 80 79 45 -87 -60 -42 -86 -1 -85 0
78 69 74 39 47 44 57 35 16 64 19 1 43 33 73 41 60 56 45 52 23 28 71 79 -11 -2 -40 -53 -6 -31 -22 -48 -3 -49 -34 -4 -37 -62 -76 0
34 33 81 4 62 38 32 1 10 29 61 41 89 52 87 3 50 48 21 78 59 25 53 16 91 27 56 68 90 65 55 83 63 49 60 -47 -75 -84 -36 -17 -64 -72 -76 -82 -22 -43 -35 -23 -39 -30 -66 -67 -40 -51 -28 -5 -80 -37 -6 -54 -70 -2 -74 -44 -12 0
54 20 23 35 78 32 -24 0
37 67 84 34 31 40 23 15 38 5 48 60 3 29 55 39 54 24 26 45 -90 -59 -52 -58 -62 -73 -16 -69 -61 -9 -65 -51 -35 -88 -76 -20 -78 -27 -53 0
83 71 49 64 27 36 79 4 65 87 90 -41 -56 -7 -39 -78 -82 -37 -60 -25 -21 -40 0
27 9 22 71 43 62 -53 -90 -32 -65 -39 -46 -24 -76 -72 -23 0
69 19 89 6 7 68 56 -23 -16 -14 -81 -72 0
54 40 69 41 27 49 75 87 86 65 67 89 74 1 36 4 62 47 83 81 26 38 79 91 68 42 57 80 -15 -5 -78 -34 -70 -37 -56 -84 -7 -60 -12 -6 -85 -73 -88 -28 -31 -46 -2 -33 -13 -11 -66 -19 -30 -52 -17 -55 -20 -76 -90 -72 -16 -61 -24 -48 0
89 76 25 34 55 36 61 33 38 82 41 27 78 42 12 35 31 79 60 1 68 62 23 15 83 75 17 50 45 48 2 65 43 24 53 71 77 -66 -32 -7 -74 -73 -72 -69 -88 -6 -64 -44 -4 -11 -70 -13 -20 -91 -49 -30 -40 -46 -59 -21 -56 -87 -19 -14 -84 -22 -81 -39 -47 -5 -86 -58 -57 -90 -16 0
53 79 73 35 90 28 3 52 88 7 9 24 47 78 80 42 43 5 36 -27 -30 -77 -58 -33 -37 -23 -21 -26 -34 -8 -56 -82 -38 -50 -72 -75 -19 -16 -66 -76 -64 -12 0
41 39 13 71 51 77 60 57 11 42 85 25 36 32 -14 -69 -15 -67 -55 -59 -27 -8 0
40 49 80 21 16 12 8 77 39 28 44 15 68 22 27 84 58 52 57 10 34 78 35 62 65 42 -73 -86 -24 -74 -90 -4 -81 -9 -87 -32 -18 -89 -51 -91 -82 -54 -70 -64 -63 -56 -26 -20 -60 -29 -72 -69 -66 -2 0
74 59 76 60 36 90 66 49 71 25 47 21 46 58 82 -3 -70 -54 -56 -20 -6 -7 -51 -57 -15 -73 -72 -44 -33 -39 -85 0
44 80 27 8 67 42 69 76 72 74 52 66 21 16 31 6 60 86 49 11 23 25 18 26 3 91 64 13 56 75 45 35 54 46 4 -57 -15 -38 -88 -41 -36 -30 -39 -58 -22 -70 -12 -43 -63 -2 -48 -65 -62 -73 -1 -5 -19 -40 -85 -59 -68 -20 -33 -29 -24 -90 -34 -47 -87 -71 -81 -61 0
10 84 42 34 19 3 49 18 62 37 74 15 33 75 76 55 57 45 25 38 52 58 54 29 89 32 83 77 70 30 6 11 -48 -13 -14 -72 -24 -43 -73 -41 -53 -28 -82 -27 -60 -90 -35 -63 -23 -59 -50 -31 -26 -64 -87 -46 -4 -61 -47 -8 -9 -69 -5 -40 -81 -86 -21 -17 0
6 21 -86 0
33 86 -47 -13 -71 0
73 7 48 86 33 77 49 12 82 66 15 67 44 75 64 37 41 60 23 30 46 88 34 69 21 13 10 17 3 70 85 38 57 22 79 81 36 29 32 45 42 90 39 63 14 56 55 58 11 91 78 83 24 25 -59 -52 -1 -9 -54 -28 -43 -74 -71 -62 -65 -40 -47 -53 -35 -18 -8 -72 -50 -2 -5 -4 -51 -76 -87 -84 -68 -61 -31 0
64 48 32 1 4 8 58 88 90 -36 -84 -65 -23 -31 -69 -75 0
44 74 55 61 19 82 89 75 40 12 51 62 71 72 42 79 91 25 26 52 28 24 -21 -16 -2 -78 -45 -81 -66 -65 -41 -77 -50 -53 -57 -5 -48 -36 -33 -23 -11 -60 0
61 73 56 52 60 3 89 47 19 81 2 85 -71 -83 -9 -26 -31 -55 -53 -5 -90 -37 -23 -46 -51 -34 -30 -22 -14 -21 -82 -36 -16 0
76 46 29 31 51 82 73 90 64 58 53 6 20 57 26 25 9 80 22 27 38 45 78 69 15 56 77 83 84 63 11 1 72 70 41 7 66 62 44 59 89 12 24 37 50 16 -48 -67 -68 -40 -65 -81 -8 -17 -2 -14 -34 -61 -52 -42 -36 -55 -10 -60 -91 -39 -28 -3 -23 -43 -85 -33 -54 -74 -5 -4 -35 -30 -21 -86 -13 -88 -32 -18 -71 -79 -19 -87 0
80 73 16 69 30 43 55 25 61 48 10 2 89 12 -51 -1 -59 -42 -81 -37 -46 -4 -21 0
42 33 64 15 37 71 5 22 63 12 74 55 76 68 9 65 26 35 72 57 3 61 52 43 29 54 60 66 18 78 27 19 31 30 -21 -84 -86 -23 -90 -85 -91 -17 -14 -24 -51 -47 -40 -56 -77 -20 -44 -75 -8 -46 -32 -59 -41 -7 -25 -34 -53 -50 -38 -11 -82 -6 -62 -39 -67 -80 -81 -70 0
50 69 59 11 77 -47 -6 -42 -35 -56 -82 -7 -66 -37 -16 -64 -21 -54 -45 -29 -51 -55 0
86 51 13 63 8 45 34 64 17 47 46 33 27 21 2 60 76 37 43 -6 -57 -19 -26 -52 -65 -77 -84 -40 -39 -11 -49 -5 -18 -87 -29 -44 -81 0
33 13 22 87 14 75 59 79 58 72 -81 -52 -50 -40 -86 -69 -4 -61 -2 -83 -88 -7 -36 -64 -10 0
62 87 42 76 3 73 22 30 32 6 86 -59 -34 -63 -16 -79 -68 -21 -31 0
60 46 28 70 16 36 72 91 1 64 80 38 27 67 85 11 76 69 3 22 40 66 41 18 2 20 9 82 81 49 50 90 55 33 17 8 15 74 30 -14 -79 -62 -35 -63 -54 -75 -57 -34 -5 -26 -84 -25 -71 -45 -39 -4 -21 -19 -13 -77 -56 -78 -44 -10 -89 -48 -32 -7 -47 -52 -58 -68 -88 -37 -23 0
20 80 24 91 46 13 59 76 78 56 52 27 14 60 87 30 38 72 15 16 10 68 83 21 85 42 5 9 69 26 12 48 29 61 36 33 19 4 88 89 -58 -22 -34 -32 -73 -77 -65 -49 -55 -82 -23 -53 -45 -17 -41 -63 -44 -1 -11 -47 -37 -18 -75 -43 -64 -35 -40 -3 -90 -54 -28 -31 -39 -51 -67 -66 -86 -2 -57 -81 -84 -70 -79 -7 -74 -6 -71 -50 0
56 17 62 59 90 43 29 51 -69 -57 -28 -50 -24 -65 -22 -76 -72 -74 -66 -48 -11 0
36 2 65 63 3 17 72 32 16 51 54 23 49 21 45 68 8 29 86 79 76 90 39 34 20 43 10 78 84 18 83 80 81 13 69 37 11 42 53 22 40 -35 -52 -26 -75 -67 -12 -88 -33 -15 -48 -66 -47 -56 -58 -6 -70 -85 -25 -71 -59 -77 -60 -50 -44 -24 -30 -82 -62 -64 -38 -9 -61 -41 -55 -5 -28 -73 -7 -57 -19 0
11 59 40 41 65 61 85 14 6 27 86 26 87 36 82 77 1 3 73 63 37 33 24 70 19 75 31 39 -45 -13 -56 -64 -44 -55 -53 -17 -38 -62 -23 -60 -68 -66 -52 -83 -57 -84 -50 -8 -76 -88 -10 -54 -2 -29 -43 -89 -90 -7 -5 -80 0
56 75 73 90 51 31 38 53 63 84 54 10 49 36 22 39 44 2 6 48 72 91 -20 -50 -58 -82 -70 -46 -76 -81 -30 -64 -74 -4 -71 -33 -13 -17 -18 -42 -28 0
68 82 28 58 33 55 8 78 44 88 57 81 70 62 54 42 43 -73 -48 -75 -31 -20 -15 -18 -27 -4 -2 -21 -65 -46 -35 -89 0
47 91 44 88 36 71 21 9 86 11 8 76 80 22 60 90 28 20 75 5 1 14 4 -43 -51 -81 -15 -57 -74 -35 -17 -63 -48 -39 -10 -84 -82 -53 -12 -78 -73 -34 -24 -83 -61 -31 -45 0
25 60 17 79 38 42 71 15 56 78 28 82 22 3 31 47 29 37 67 34 6 62 16 2 10 91 84 63 44 18 19 -20 -26 -85 -50 -12 -39 -89 -9 -72 -8 -74 -83 -53 -58 -57 -81 -46 -80 -76 -14 -68 -55 -7 -13 0
38 15 81 53 11 1 89 34 35 41 19 17 65 2 23 37 63 68 27 33 70 52 64 32 79 86 14 73 9 31 51 8 72 45 82 49 18 -4 -55 -67 -69 -83 -28 -30 -13 -47 -87 -90 -48 -78 -58 -16 -61 -20 -77 -36 -6 -46 -91 -75 -80 -66 -44 -43 -59 0
27 38 69 79 41 46 32 84 65 36 22 40 51 82 49 6 34 56 57 11 64 75 35 31 61 66 20 12 29 68 52 71 44 91 -47 -74 -63 -60 -54 -86 -39 -85 -1 -59 -24 -88 -9 -58 -19 -23 -14 -37 -87 -26 -4 -2 -7 -3 -73 -21 -48 -77 -33 -76 -62 -78 -81 -83 -16 0
48 69 74 89 85 36 86 73 80 13 7 84 2 81 56 8 3 -30 -17 -5 -60 -28 -53 -9 -26 -67 -6 -64 -57 -29 -76 -77 -42 -31 -16 -51 -55 -12 -66 -75 0
53 31 41 70 90 55 47 22 67 85 40 48 35 42 15 2 61 24 71 20 50 52 65 73 88 19 26 12 69 43 83 89 11 14 -4 -17 -29 -87 -1 -32 -72 -62 -37 -82 -77 -33 -79 -28 -91 -64 -36 -13 0
45 28 11 77 46 27 85 7 31 67 30 4 72 74 89 47 82 79 90 84 87 39 18 17 -20 -57 -9 -37 -70 -34 -43 -21 -2 -63 -80 -1 -48 -32 -42 -61 -24 -71 -22 -23 -50 -3 -19 0
75 70 29 27 6 47 14 51 5 66 33 31 63 -44 -83 -39 -25 -9 -41 -20 -34 -56 0
15 21 61 20 9 27 24 91 53 -64 -77 -43 -47 -14 -19 -26 -60 -12 -85 -42 -67 -16 -90 0
32 21 12 23 45 90 59 49 62 79 18 82 -85 -2 -44 -91 -54 -38 -63 -68 -11 -56 -40 0
39 38 6 20 18 47 69 10 68 37 42 9 82 7 22 59 61 65 60 63 62 1 34 56 24 85 76 35 43 90 27 4 73 -74 -17 -8 -31 -91 -66 -58 -16 -40 -29 -25 -84 -21 -78 -80 -46 -15 -87 -12 -32 -41 -49 -52 -54 -77 -23 -26 0
7 32 43 87 75 36 66 40 20 8 19 14 24 39 80 52 85 63 5 17 16 27 41 61 22 72 74 58 67 49 78 81 10 59 57 50 21 83 86 46 38 -42 -88 -30 -37 -11 -26 -2 -82 -31 -69 -89 -62 -56 -18 -79 -47 -3 -65 -48 -23 -15 -45 -71 -25 -4 -91 -51 -68 -28 -60 -90 -34 -35 -84 -9 -73 -12 -13 -77 -54 -6 -1 -53 -76 -70 -55 -44 0
54 57 47 73 75 4 69 66 28 34 58 38 32 70 77 43 23 21 48 24 42 86 50 60 89 20 29 3 8 10 68 52 16 46 79 64 14 5 6 87 72 85 76 62 9 15 63 81 53 90 30 91 -19 -26 -18 -59 -78 -49 -22 -65 -88 -74 -84 -17 -36 -12 -80 -40 -13 -37 -35 -45 -31 -83 -61 -56 -44 -55 -41 -67 -2 -82 -7 -27 -39 -11 0
16 71 46 13 -50 -82 -18 -85 -76 -87 0
52 15 13 56 82 45 72 21 27 83 67 33 90 60 -2 -22 -3 -39 -16 -40 -62 -71 -44 -6 -5 -77 -26 -37 -14 -12 -46 -58 -42 0
87 46 71 74 84 43 -13 -55 -90 -40 -44 -78 -7 -47 -62 -5 -32 0
50 63 65 84 55 70 69 91 86 85 34 82 10 90 25 15 39 -5 -12 -74 -67 -66 -52 -35 -6 -44 -9 -61 -26 -13 -76 -89 -59 -42 -36 -78 -64 0
57 68 5 13 80 89 38 36 2 12 24 42 37 85 65 32 21 82 77 75 73 72 88 18 54 90 33 31 41 3 22 39 23 -67 -45 -27 -53 -44 -64 -48 -15 -34 -55 -60 -74 -11 -62 -61 -46 -84 -76 -51 -69 -1 -17 -28 -71 -7 -30 -20 -59 -16 -66 -6 -79 -50 -81 -25 -35 -14 -78 -19 0
80 76 65 91 18 73 25 50 78 43 1 36 -12 -4 -84 -67 -55 -51 -10 -32 -53 -39 -71 -19 -33 -52 -72 -37 -34 -79 -44 -87 -85 -58 -90 0
73 22 41 63 4 48 29 90 82 42 -84 -87 -24 -55 -39 -10 -66 -7 -36 -77 -57 -44 -79 -35 -69 -62 -12 -85 -83 -80 -72 -15 -88 0
79 15 29 1 44 91 26 53 32 35 67 41 64 71 20 74 2 82 63 22 24 78 27 31 49 25 -21 -69 -42 -76 -45 -60 -52 -36 -54 -38 -28 -87 -83 -3 -89 -14 -62 0
27 22 25 7 45 28 50 31 64 37 87 20 79 63 10 26 21 18 72 1 67 2 4 85 59 73 60 19 15 61 65 11 14 56 17 47 30 75 29 24 71 6 69 9 36 57 13 77 -91 -58 -12 -53 -39 -8 -55 -44 -43 -32 -62 -82 -46 -48 -83 -80 -74 -23 -54 -16 -84 -68 -38 -42 -81 -51 -70 -78 -33 -52 -90 -86 -34 -66 -5 -3 -76 0
74 24 42 73 82 10 47 44 -7 -22 -87 -77 -19 -45 -60 -4 -2 -52 -34 -43 -51 -50 -59 -56 0
87 13 32 68 76 49 74 86 67 72 77 80 44 75 6 81 57 55 14 83 5 47 27 40 29 62 7 18 30 -50 -59 -70 -16 -42 -4 -78 -10 -54 -53 -46 -8 -51 -35 -65 -3 -20 -15 -34 -31 -84 -43 -48 -17 -89 -66 -38 -91 -25 -9 -1 -12 -26 -73 -85 -28 -39 -36 -41 -90 -2 -71 -79 0
45 85 76 33 81 72 43 34 52 -53 -28 -71 -83 -61 -21 -82 -64 -24 0
3 -14 0
42 79 90 32 38 45 4 69 29 59 67 12 75 23 26 6 86 82 49 78 10 14 60 66 21 54 48 53 50 28 65 72 8 55 74 51 57 58 19 30 44 18 13 43 17 9 -85 -56 -87 -63 -89 -36 -33 -46 -7 -83 -11 -40 -73 -52 -27 -15 -76 -80 -2 -88 -24 -71 -62 -34 -91 -77 -64 -68 -39 -35 -22 -47 -16 -31 -1 -25 -84 -3 -20 -81 -41 -37 -70 0
66 12 68 36 84 91 3 61 46 83 42 32 78 6 35 21 -57 -11 -1 -65 -33 -73 -15 -51 -22 -87 -63 -43 -17 -2 -19 -71 -89 -23 -85 -81 -75 -18 -72 -20 0
13 68 90 49 5 89 20 8 23 2 34 64 55 28 74 33 12 37 38 40 48 -56 -32 -18 -82 -30 -1 -50 -70 -62 -41 -36 -6 -3 -69 -65 -17 -75 -67 -29 -59 -31 -91 -43 0
85 66 73 30 1 26 48 81 28 78 68 79 56 36 40 57 20 90 70 50 77 43 72 91 29 32 13 15 41 60 3 14 17 74 21 10 51 18 -33 -75 -16 -54 -59 -87 -52 -64 -65 -83 -25 -35 -6 -9 -61 -86 -53 -84 -38 -34 -71 -45 -24 -37 -5 -63 -7 -23 -44 -27 -39 -88 0
16 77 14 19 5 85 65 22 12 3 57 23 51 81 73 54 76 87 18 71 58 -47 -46 -30 -25 -15 -11 -4 -33 -79 -20 -24 -66 -49 -39 -32 -50 -83 0
45 12 17 13 8 2 21 78 48 -16 -44 -10 -83 -26 -51 -50 -69 -37 0
85 43 48 27 38 23 61 13 62 -81 -5 -4 -28 -21 -12 -50 -7 -41 -56 -77 -91 -29 -69 0
56 47 83 3 64 33 71 48 45 -11 -22 -84 -21 -2 -72 -50 -18 -76 0
43 6 10 55 12 89 38 39 52 77 23 90 11 5 32 72 44 -65 -73 -15 -64 -2 -70 -60 -9 -91 -63 -8 -35 -53 -47 -46 -4 -37 -78 0
44 13 81 54 34 65 75 61 63 69 60 22 90 55 87 74 36 84 39 89 57 -2 -10 -29 -16 -68 -76 -5 -43 -78 -18 -41 -27 -32 -9 0
13 59 84 44 82 16 22 86 23 48 58 18 76 47 60 32 34 1 85 65 70 50 4 64 87 35 53 37 10 28 11 79 -49 -89 -51 -2 -83 -62 -67 -3 -5 -55 -81 -52 -66 -46 -57 -15 -36 -14 -69 -88 -29 -72 -74 -33 -73 -24 -56 -39 -61 -80 -38 -41 -71 -40 -54 -91 -25 -31 -6 -20 -7 -75 -27 -9 -21 -77 0
16 -88 -52 0
26 90 20 68 6 86 -24 -12 -30 -84 -1 -42 0
29 21 62 6 78 53 19 50 74 34 82 84 54 37 87 73 15 64 5 76 48 4 68 79 75 -42 -24 -17 -71 -22 -86 -38 -7 -2 -32 -81 -44 -80 -33 -11 -60 -43 -91 -46 -52 0
55 43 6 -51 -88 -87 -49 -66 -17 -5 0
1 68 91 90 19 17 77 46 29 24 18 71 43 54 69 64 65 35 22 87 -66 -38 -23 -39 -72 -76 -27 -2 -5 -82 -62 -85 -73 -6 -89 -74 -83 -16 -10 -49 -78 0
29 58 25 62 51 82 61 9 6 55 26 90 56 44 14 47 60 16 53 15 63 80 13 7 37 70 28 49 -78 -74 -11 -59 -84 -12 -18 -79 -66 -83 -22 -45 -71 -24 -72 -67 -3 -39 -17 -46 -48 0
65 69 17 33 19 38 21 6 86 1 89 81 59 34 30 42 15 53 20 13 46 68 88 23 50 77 10 49 11 8 91 43 22 58 70 5 40 52 31 18 63 57 66 41 -87 -79 -9 -35 -60 -48 -4 -12 -25 -80 -67 -24 -76 -27 -84 -47 -16 -7 -56 -83 -61 -39 -62 -44 -26 -74 -82 -2 -72 -32 -28 -14 0
8 20 81 39 59 76 32 63 83 42 23 48 68 78 49 3 46 30 89 80 74 17 91 11 29 7 6 35 65 90 71 -60 -86 -52 -34 -28 -15 -67 -43 -77 -84 -10 -4 -56 -25 -33 -16 -31 -40 -14 -12 -44 -57 -70 -50 -87 -22 -1 -38 -54 -19 0
5 31 8 40 16 53 62 79 77 86 32 11 13 84 65 44 61 48 63 15 3 37 87 71 2 56 29 21 82 89 12 72 14 27 38 25 28 18 4 81 88 20 34 6 83 73 55 -54 -85 -22 -7 -19 -35 -41 -42 -66 -67 -70 -57 -26 -36 -78 -52 -33 -45 -60 -64 -58 -43 -17 -39 -68 -90 -76 -30 -75 -49 -46 -47 -91 -51 -10 -23 -80 -74 -50 -9 -69 -1 -59 0
28 15 38 25 22 82 58 7 51 5 9 52 63 42 90 62 36 32 29 -59 -85 -14 -19 -48 -6 -18 -41 -91 -72 -68 -39 -26 -60 -70 -2 0
7 11 68 83 61 82 89 30 70 40 32 90 34 29 17 55 87 76 72 71 59 25 74 -21 -31 -80 -13 -19 -39 -23 -27 -14 -60 -3 -26 -28 -44 -22 -47 -69 -86 -73 0
60 81 47 57 71 69 80 28 86 52 -48 -53 -74 -12 -9 -91 -68 -3 0
1 45 9 33 46 59 85 47 44 5 35 2 63 21 25 86 64 73 17 77 22 -57 -54 -31 -23 -67 -65 -90 -16 -53 -70 0
71 23 20 14 88 32 35 44 82 51 46 28 11 89 41 10 54 67 24 78 -62 -4 -47 -13 -5 -7 -72 -17 -26 -31 -48 -39 -22 -29 -12 -1 -64 0
45 58 73 31 8 37 84 20 7 22 56 33 50 34 29 1 2 26 9 62 87 59 72 13 76 89 30 18 48 80 82 23 46 -5 -81 -86 -42 -71 -32 -40 -41 -61 -67 -53 -79 -43 -52 -83 -57 -69 -78 -28 -14 -6 -19 -63 -16 -54 -10 -4 -88 -47 -44 -38 -77 0
39 66 63 37 56 87 22 7 82 6 42 44 10 2 77 73 4 20 58 43 26 29 28 69 35 45 85 14 -49 -27 -36 -79 -41 -8 -64 -65 -61 -52 -11 -19 -5 -16 -12 -1 -38 -89 -68 -88 -62 0
45 55 89 1 12 90 51 72 81 67 33 17 43 -63 -62 -80 -39 -25 -7 -68 -14 -5 -42 -35 -30 0
15 18 81 4 5 44 60 62 55 3 10 68 22 91 13 25 39 46 71 24 77 87 63 85 52 66 83 35 -51 -11 -12 -28 -6 -89 -8 -61 -65 -53 -29 -84 -56 -40 -34 -31 -86 -75 -70 -14 -23 -47 -20 -67 -90 -72 -74 -9 -19 -76 -73 -1 -42 -7 -54 -78 -16 -50 -38 -45 0
14 29 77 15 23 30 53 86 55 61 76 67 13 90 63 45 33 60 41 6 66 39 91 57 73 87 71 82 25 68 11 -18 -81 -26 -59 -31 -37 -69 -4 -62 -43 -47 -54 -85 -40 -22 -50 -20 -56 -44 -10 -58 -36 -49 -24 -17 -79 -78 0
71 77 45 28 46 26 72 85 24 44 21 30 5 37 48 34 2 80 20 15 10 63 87 59 57 88 27 7 42 91 39 47 13 75 41 64 81 82 86 49 43 17 54 31 -62 -35 -79 -25 -36 -78 -73 -84 -18 -74 -56 -83 -23 -29 -60 -9 -67 -50 -61 -4 -16 -53 -70 -3 -14 -1 -32 -52 -65 -40 -68 -55 -6 -76 -11 -89 -51 -38 0
82 12 61 28 41 48 78 11 30 51 20 23 85 77 63 54 65 50 72 57 -38 -27 -19 -39 -43 -80 -66 -24 -32 -68 -84 -91 -17 -71 -59 -9 -5 -6 -46 -37 -53 -10 -86 -69 -22 -34 0
2 90 25 38 14 23 34 5 57 80 4 59 40 83 17 1 10 7 26 21 6 62 66 47 31 36 74 67 88 32 22 52 39 13 -27 -11 -91 -84 -86 -55 -15 -8 -24 -60 -30 -20 -48 -3 -18 -37 -76 -71 -44 -50 -33 -85 -73 -78 -41 -45 -42 -77 -64 -82 -89 0
85 74 69 2 48 36 11 23 32 18 53 79 9 43 24 47 40 64 82 81 84 80 71 49 13 30 16 10 54 42 76 21 91 66 52 26 50 68 45 70 65 46 41 -89 -63 -29 -88 -83 -67 -58 -25 -77 -33 -62 -19 -73 -51 -90 -28 -55 -38 -7 -15 -8 -75 -31 -4 -78 -22 -72 -37 -44 -59 -39 -27 -5 -14 -35 -20 -17 -60 -1 -86 -12 -56 0
72 5 17 44 26 10 21 48 74 90 67 73 40 19 3 47 82 12 8 50 1 75 53 80 29 25 79 41 58 84 6 45 32 42 34 46 37 65 18 60 11 20 -64 -39 -63 -68 -88 -71 -55 -61 -56 -69 -57 -14 -76 -22 -87 -91 -52 -89 -2 -83 -23 -38 -13 -4 -51 -24 -31 -77 -35 -36 -85 -27 -62 -7 -33 -86 -70 0
61 74 78 13 72 68 73 48 90 21 82 -58 -18 -5 -85 -79 -80 -23 -15 -26 -86 -17 -43 0
25 36 11 15 35 86 51 67 87 40 53 66 70 5 56 75 61 13 74 57 42 44 72 47 39 7 79 14 48 71 3 60 81 78 28 33 84 45 17 73 89 31 52 -24 -34 -38 -80 -85 -64 -54 -76 -18 -30 -69 -63 -55 -29 -9 -58 -4 -82 -8 -32 -43 -1 -46 -21 -23 -62 -91 -65 -68 -6 -27 -88 -77 -22 -2 -16 -12 0
62 21 33 64 25 14 5 77 66 32 91 7 83 3 75 20 1 48 60 40 37 34 72 51 11 58 22 35 -38 -87 -86 -69 -74 -88 -82 -26 -39 -19 -57 -8 -30 -10 -54 -43 -15 -65 -50 -4 -68 -80 -46 0
20 21 44 70 86 29 13 49 88 69 73 82 1 77 31 34 7 8 63 26 91 45 72 64 9 41 37 25 61 3 4 65 80 87 48 16 -53 -66 -76 -2 -27 -17 -67 -83 -10 -79 -62 -15 -68 -52 -24 -28 -36 -84 -51 -85 -5 -81 -18 -11 -6 -22 -47 -30 -55 -42 -19 -38 -59 -75 -54 -43 0
28 72 48 12 54 9 57 82 88 39 29 33 3 8 45 86 21 4 26 36 79 25 50 65 40 27 16 22 73 62 -41 -30 -46 -7 -47 -64 -18 -91 -68 -6 -60 -77 -83 -20 -37 -14 -84 -59 -75 -55 -43 -52 -51 -85 -38 -11 -87 -74 -66 -70 -15 -89 -71 -2 -1 -90 -56 -17 -42 0
30 82 66 78 85 9 22 54 73 83 -70 -49 -45 -26 -47 -42 -5 -32 -24 -56 -48 -1 0
40 51 45 55 8 2 7 59 85 42 47 13 34 90 46 35 30 60 3 1 66 73 91 64 24 33 56 44 39 -80 -23 -36 -10 -75 -27 -17 -87 -89 -70 -15 -26 -52 -68 -28 -4 -48 -77 -78 -32 -31 -74 -18 -6 -49 -29 -61 -16 -41 -83 -54 -84 -63 -58 -25 -88 -11 -43 -67 0
46 29 11 40 12 14 43 61 20 26 81 6 86 7 9 30 57 88 19 25 1 36 13 68 41 -32 -56 -55 -5 -58 -75 -83 -82 -54 -64 -38 -33 -67 -16 -45 -90 -8 -80 -18 -74 -23 0
76 44 50 56 18 37 41 80 71 42 64 33 77 89 24 45 85 79 2 70 12 34 59 23 19 62 3 91 49 26 73 28 8 27 81 9 88 63 48 -72 -40 -46 -68 -58 -13 -47 -60 -61 -52 -16 -30 -25 -35 -14 -20 -67 -75 -74 -90 -39 -22 -51 -4 -82 -36 -66 -78 -54 -11 -69 -43 -21 -86 -87 -38 0
42 24 64 45 22 58 85 5 71 76 39 57 61 8 21 72 -56 -49 -69 -91 -63 -25 -82 -51 -87 -59 -29 -3 -35 -40 -6 -28 -73 -47 0
45 2 7 31 9 27 16 63 20 87 81 48 53 69 59 19 91 60 15 77 65 85 29 70 -73 -25 -55 -14 -5 -41 -75 -28 -26 -32 -88 -57 -42 -44 -34 -21 -83 -52 -38 -12 -82 -39 -33 -47 -46 -30 -10 -54 -86 -62 0
59 15 37 82 38 10 47 39 74 18 63 60 81 41 29 57 11 -91 -70 -73 -14 -61 -51 -66 -87 -17 -84 -1 -52 -34 -24 -90 -55 0
73 83 63 13 44 76 56 -23 -24 -71 -54 -82 -5 0
41 49 16 -28 -88 -46 0
10 74 25 31 41 60 43 -15 -81 -75 -72 0
14 40 7 8 16 3 52 36 65 51 33 39 56 80 32 63 6 70 84 47 21 15 91 69 83 88 30 85 64 75 -35 -25 -49 -28 -48 -67 -5 -11 -26 -44 -58 -59 -81 -61 -45 -20 -89 -17 -62 -72 -29 0
23 81 5 7 34 91 11 67 32 90 21 57 33 13 58 27 72 15 -22 -77 -49 -36 -20 -71 -31 -43 -62 -16 0
64 40 67 47 35 3 46 12 20 71 21 49 82 54 32 80 30 34 59 10 7 -76 -37 -43 -31 -87 -74 -79 -5 -89 -33 -90 -24 -29 -56 -77 -45 -55 -51 -70 -17 -42 -6 -62 -19 -86 -84 -44 -91 -50 -39 0
79 65 73 32 80 23 69 89 75 51 20 35 86 2 36 39 43 21 14 11 13 15 56 59 29 58 57 81 68 38 28 17 62 49 83 4 46 67 -25 -52 -42 -33 -22 -63 -40 -70 -87 -30 -77 -1 -85 -74 -7 -5 -18 -78 -12 -76 -88 -54 -8 -72 -37 -66 -26 -41 -84 -45 -19 -10 0
5 66 73 87 44 39 48 81 24 4 1 46 57 34 85 52 80 32 28 64 -62 -26 -25 -33 -35 -15 -53 -22 -59 -88 -12 -21 -7 -71 -2 -13 -3 -16 -56 0
19 62 29 45 28 46 12 59 18 84 58 4 82 80 49 54 39 38 89 48 75 40 73 24 -56 -7 -76 -37 -34 -11 -66 -25 -68 -53 -9 -16 -31 -33 -65 -71 -20 -26 -44 -17 -79 -32 -91 -88 -42 -85 -90 -8 -61 -14 0
42 81 15 66 64 50 55 54 11 91 24 35 13 4 58 29 62 16 89 68 5 78 19 90 32 83 73 -86 -43 -22 -67 -31 -71 -56 -33 -41 -74 -36 -45 -69 -34 -12 -46 -75 -57 -85 -3 -77 -30 -14 -25 -28 -47 0
45 33 46 42 73 29 55 64 51 -80 -56 -50 -9 -84 -15 -1 -23 0
61 63 83 3 27 24 62 -6 -46 -17 -65 -70 0
51 36 50 43 66 22 31 6 16 44 49 87 32 7 27 64 77 63 85 8 40 62 1 69 45 76 75 47 79 48 3 80 19 10 15 20 21 46 35 56 -25 -78 -23 -83 -9 -12 -82 -17 -68 -53 -30 -34 -72 -91 -2 -60 -65 -54 -39 -58 -41 -57 -14 -29 -81 -26 -67 -52 -86 -38 -5 -59 -70 0
47 9 34 58 32 33 16 69 31 89 45 39 8 -28 -50 -17 -21 -88 -36 -61 -56 -66 -82 -79 -15 -48 0
67 36 33 6 48 46 64 57 41 -72 -75 -68 -25 -73 -16 -59 -79 -39 -10 -65 -80 -49 -23 -76 -38 -51 -20 -1 0
40 27 45 49 36 9 68 71 3 64 24 79 16 25 82 88 10 59 34 17 90 91 29 66 69 84 32 83 53 20 86 2 48 5 61 70 46 77 1 -73 -72 -80 -15 -30 -85 -11 -41 -13 -74 -87 -39 -47 -78 -62 -22 -60 -75 -8 -4 -67 -6 -12 -56 -51 -26 -28 -81 -31 -14 -89 -63 -50 -37 -76 -55 -33 -44 -43 0
15 4 48 49 74 11 20 19 13 84 35 67 5 36 10 14 70 9 63 26 47 91 85 17 77 80 52 82 34 78 61 8 79 68 29 62 42 60 24 59 -57 -69 -16 -88 -44 -30 -38 -87 -3 -39 -40 -76 -28 -43 -33 -86 -46 -31 -23 -56 -21 -41 -50 -27 -32 -7 -18 -81 -12 -75 -64 -83 -25 -58 -71 -1 -66 -6 -37 -89 -2 -90 0
86 27 41 68 4 8 3 40 25 37 2 48 73 76 13 14 28 84 16 10 57 32 29 70 6 24 -88 -64 -18 -55 -49 -35 -69 -11 -1 -63 -38 -50 -71 -59 -5 -33 -82 -53 -22 -91 -85 -83 -42 -43 -74 -44 -39 -78 -51 -90 -89 -34 -21 -9 -19 -75 0
64 71 52 66 36 34 32 65 43 35 44 4 80 -70 -3 -76 -51 -81 -63 -46 -14 -61 -11 -50 -26 -1 0
67 5 87 17 22 51 23 86 21 15 68 76 9 42 43 80 -31 -26 -88 -57 -60 -39 -12 -54 -7 -8 -55 0
83 36 10 40 72 16 64 45 82 56 90 13 30 65 -91 -42 -18 -9 -50 -41 -69 -80 -48 0
28 36 72 73 34 70 31 11 59 26 83 57 4 14 35 16 37 3 42 77 64 55 32 41 58 43 71 -23 -76 -82 -25 -5 -80 -19 -38 -56 -40 -52 -27 -91 -85 -86 -74 -24 -66 -39 -69 -10 -51 -90 -13 -29 -54 -75 -61 -68 -22 -44 0
69 14 42 6 62 85 5 52 79 1 59 84 4 37 36 43 19 8 81 68 25 55 46 24 16 56 66 73 13 51 11 23 29 38 -18 -49 -30 -70 -26 -63 -3 -61 -21 -74 -2 -41 -34 -33 -53 -32 -67 -82 -65 -17 -22 -9 -15 -35 -72 -28 -12 -88 -47 -91 -45 -86 -80 -83 0
45 55 6 89 4 8 60 79 19 28 35 68 53 86 44 34 67 61 11 3 77 62 -58 -49 -90 -10 -29 -30 -57 -91 -74 -43 -59 -52 -82 -37 -75 -84 -54 -25 -71 -76 -66 -36 -39 -24 -13 -87 0
89 39 58 0
14 79 83 42 33 85 45 68 31 77 71 -86 -66 -6 -39 -36 -57 -23 -15 -43 0
9 72 41 69 44 70 59 50 82 3 65 20 19 42 63 22 37 47 -77 -54 -49 -87 -84 -40 -7 -2 -90 -71 -48 -91 -25 -66 -28 -15 -85 0
47 61 89 3 75 81 74 22 36 8 87 67 86 56 52 1 85 65 19 49 76 66 2 48 45 42 26 18 57 64 33 10 46 7 83 88 15 79 20 13 78 58 14 35 27 21 -32 -16 -23 -73 -11 -44 -43 -82 -31 -28 -72 -60 -68 -50 -54 -17 -63 -62 -30 -70 -5 -84 -24 -4 -9 -37 -71 -39 -6 -38 -40 -41 -59 -77 -12 -34 -29 -25 -51 -90 0
82 71 39 36 52 81 51 17 90 34 27 76 40 20 68 10 21 70 83 74 91 66 9 78 14 75 53 49 -13 -19 -80 -38 -46 -63 -4 -73 -62 -2 -31 -18 -16 -59 -87 -89 -57 -58 -79 -25 -23 -29 -11 -69 -84 -88 -43 -50 -8 -47 -15 0
25 10 56 49 48 17 72 62 34 71 40 90 86 5 55 82 -77 -36 -27 -83 -45 -80 -35 -43 -44 -7 -50 -84 -28 0
21 2 35 56 3 16 66 4 14 86 38 5 31 89 20 85 43 58 51 80 50 49 -13 -28 -63 -74 -68 -57 -87 -90 -64 -91 -81 -76 -79 -52 -33 -41 -30 -77 -11 -8 -24 -54 -46 -36 -53 -27 -15 0
12 52 27 39 48 24 83 37 78 29 42 31 -64 -53 -45 -35 -9 -67 -71 -23 -66 -82 -16 -55 -25 -3 -79 0
76 17 3 54 60 44 4 5 -18 -26 -13 -90 -58 -51 -30 -52 0
33 74 67 68 54 18 73 59 8 35 71 72 44 31 34 76 69 46 75 6 85 90 38 9 77 43 78 82 23 49 45 42 91 37 -16 -29 -39 -60 -28 -57 -26 -21 -62 -11 -7 -17 -13 -56 -65 -79 -19 -47 -83 -41 -12 -84 -14 -64 -20 -32 -30 -15 -81 -63 -66 -24 -80 -50 -2 -3 -70 -27 -89 -22 -48 0
71 4 70 42 12 14 39 33 55 81 56 21 16 2 91 28 15 3 -37 -65 -11 -1 -43 -69 -40 -59 -32 -6 -57 -51 -10 0
13 59 16 53 46 3 51 87 21 1 70 26 83 90 8 88 29 5 22 23 76 -30 -45 -57 -89 -74 -75 -32 -47 -71 -73 -4 -66 -41 -81 -48 -54 -44 -24 -86 -11 -50 -79 -91 -35 -27 -31 -82 -14 -78 -69 -39 -15 -65 -28 -49 -80 -18 -60 -6 -34 -10 -77 0
53 85 50 24 58 83 -27 -21 -26 -33 -34 -54 -3 0
40 75 63 62 67 25 72 76 1 32 18 26 91 56 29 19 15 70 14 60 68 88 66 39 52 -79 -73 -9 -53 -58 -80 -8 -23 -5 -69 -61 -3 -48 -16 -21 -7 -87 -11 -43 0
1 72 81 79 20 66 28 51 -11 -57 -65 -76 -49 -58 -15 -6 -86 -29 -60 -9 -71 -41 -42 -84 -52 -31 -19 -78 -37 0
4 25 91 86 78 29 74 77 42 48 2 37 89 5 72 68 -67 -52 -82 -30 -90 -40 -1 -8 -11 -32 -53 -12 -19 -39 -73 0
22 8 6 32 69 77 31 34 85 84 68 18 16 48 86 56 2 30 35 47 66 70 38 65 26 74 28 63 36 15 3 73 23 20 42 17 88 59 -90 -76 -14 -78 -57 -72 -62 -25 -91 -40 -13 -4 -12 -64 -19 -80 -33 -10 -11 -50 -52 -79 -27 -83 -71 -1 -24 -21 -60 -55 -67 -51 -89 -29 -5 -7 0
80 23 60 87 73 90 22 65 54 53 25 45 70 85 49 20 8 91 27 57 38 69 68 74 50 11 76 -46 -31 -29 -67 -17 -5 -24 -72 -14 -28 -18 -56 -43 -51 -52 -39 -2 -75 -55 -58 -35 -82 -6 -26 -48 -16 -61 -3 -7 -41 0
65 57 84 54 74 71 3 91 26 85 73 8 10 52 14 25 19 75 66 13 16 43 2 6 28 42 15 59 30 89 40 61 9 47 23 88 22 60 -90 -33 -51 -86 -35 -67 -18 -29 -49 -68 -64 -55 -69 -44 -78 -80 -37 -77 -12 -1 -20 -36 -32 -38 -50 -41 -11 -46 -63 -4 -34 -21 -62 -58 -81 -83 -82 -7 -31 -5 -27 -56 0
42 70 7 73 25 8 24 72 46 22 67 17 80 -89 -36 -21 -55 -86 -11 -64 -15 -61 -81 -38 -68 -45 -53 -10 -30 -66 0
57 65 33 32 39 64 77 6 58 85 44 72 50 24 25 10 5 91 71 15 87 68 62 88 79 30 54 4 37 84 80 2 43 21 90 75 67 -7 -17 -28 -9 -45 -29 -13 -61 -78 -74 -34 -1 -8 -47 -14 -55 -81 -20 -40 -49 -48 -51 -18 -59 -36 -41 -31 -60 -83 -86 -19 -26 -76 -22 -27 -89 -69 -82 0
48 27 72 30 11 12 64 29 55 2 18 58 35 37 77 31 6 28 78 60 17 8 87 68 75 66 90 10 43 80 79 53 82 22 73 84 65 50 24 16 44 -69 -52 -14 -42 -39 -9 -86 -15 -70 -46 -32 -81 -1 -83 -89 -23 -62 -61 -26 -67 -71 -20 -7 -21 -91 -56 -38 -63 -76 -59 -13 -74 -5 -51 -47 -25 -49 -41 -45 -57 -40 -54 -88 -36 -85 -3 -19 0
33 4 8 38 3 19 70 86 49 26 80 39 61 72 52 35 79 -62 -90 -63 -81 -20 -84 -48 -14 -24 -53 -40 -54 -57 -28 -12 -5 -36 -31 -77 -21 0
66 53 60 41 56 51 15 13 23 85 17 88 42 24 74 40 32 30 27 64 73 54 38 26 67 55 65 -21 -37 -46 -91 -34 -71 -87 -78 -44 -43 -62 -63 -61 -35 -22 -10 -4 -70 -89 -86 -20 0
26 87 19 67 17 54 9 44 72 50 47 90 78 57 6 83 1 49 40 62 61 52 80 63 11 41 16 10 74 43 20 68 65 82 7 -33 -25 -89 -56 -5 -84 -86 -79 -31 -75 -91 -15 -76 -81 -24 -21 -46 -8 -55 -66 -38 -4 -85 -51 -23 -42 0
75 14 63 34 50 9 53 22 17 12 60 83 71 5 74 21 76 41 11 77 62 32 48 31 39 1 67 -89 -33 -13 -81 -18 -36 -66 -55 -70 -82 -40 -73 -65 -72 -23 -27 -20 -15 -30 -79 -57 -6 -19 -69 -3 -59 -42 -61 -10 -56 -35 -87 -16 -7 -45 -86 -54 -88 -26 -78 -24 -85 -52 -47 -25 -4 -68 0
78 26 7 75 38 33 6 40 80 3 60 69 11 79 65 14 32 70 82 81 21 47 51 17 30 58 66 1 -57 -39 -86 -36 -31 -88 -10 -9 -18 -41 -20 -22 -12 -15 -77 -63 -55 -4 -68 -45 -19 -53 -44 -29 -28 -71 -84 -73 -23 -61 -37 -35 -87 -8 -74 -89 -90 -76 -25 -64 -52 -43 -54 -24 -50 -49 -85 0
20 80 35 28 23 38 40 60 -55 -8 -3 -58 -76 -77 -50 -43 0
59 22 28 37 76 46 87 74 24 14 51 61 75 81 6 40 49 78 90 2 23 15 -20 -12 -65 -19 -91 -83 -7 -82 -33 -85 -48 -31 -42 -13 -60 -89 -21 -88 -16 0
3 54 88 13 -31 -91 -36 0
65 28 40 90 23 31 34 -38 -21 0
5 59 19 87 41 58 62 57 20 28 84 17 13 74 80 64 30 22 35 68 31 72 -10 -79 -63 -9 -81 -77 -67 -66 -6 -26 -21 -15 -11 -91 -45 -82 -49 0
9 81 60 2 42 66 57 4 29 49 8 10 50 83 6 28 48 22 68 25 37 43 73 85 46 91 64 20 13 15 53 -75 -74 -90 -18 -89 -82 -39 -76 -72 -38 -58 -30 -65 -45 -23 -40 -27 -69 -51 -19 -70 -17 -47 -26 -63 -56 -59 -54 -86 -11 -16 0
21 22 67 87 3 43 20 47 50 86 -60 -85 -53 -71 -26 -14 -38 -69 -89 -4 -5 -55 -12 -63 -24 -77 -68 0
70 85 60 50 62 18 76 69 82 24 39 10 6 65 78 56 13 57 47 27 55 90 64 34 66 67 -77 -43 -33 -59 -79 -26 -16 -44 -86 -84 -4 -81 -14 -91 -48 -80 -5 -29 -63 -36 -58 -68 -17 -54 -87 -2 -37 -49 0
23 69 16 63 29 87 31 53 80 55 44 28 45 71 21 11 -52 -41 -17 -70 -86 -68 -13 -22 -34 -75 -24 -33 -9 -74 -57 -48 -39 -37 -18 0
38 63 32 19 13 65 43 54 41 50 20 39 30 86 3 73 62 58 33 8 40 82 61 45 83 24 64 -56 -68 -91 -25 -71 -60 -76 -23 -12 -51 -34 -16 -29 -21 -31 -66 -55 -10 -5 -67 -42 -85 -17 -36 0
57 27 71 10 76 47 60 7 72 66 61 3 82 89 65 16 58 45 8 78 81 14 32 23 90 64 91 54 36 31 69 85 11 46 6 33 15 43 5 37 56 52 55 63 25 22 50 38 -42 -2 -20 -34 -88 -28 -79 -83 -87 -35 -49 -44 -18 -73 -29 -12 -77 -4 -67 -19 -39 -41 -86 -26 -30 -70 -9 -51 -53 -80 -48 -62 -59 -84 -24 -13 -21 -40 -75 -68 -1 -17 0
55 26 56 -68 -52 -6 -60 0
6 78 44 11 72 54 71 87 39 51 29 90 47 63 81 91 30 23 32 10 66 40 82 88 46 41 3 61 8 19 7 77 67 13 31 -80 -89 -60 -4 -43 -27 -56 -28 -24 -34 -75 -58 -25 -22 -69 -38 -17 -42 -86 -45 -35 -52 -70 -26 -53 -15 -62 -36 -5 -74 -48 -85 -9 -12 -79 -33 -57 -83 -59 -16 -64 -1 -18 -73 -65 0
32 57 73 56 24 26 11 38 85 55 68 60 84 51 30 81 89 46 43 6 12 39 90 2 41 44 -77 -61 -8 -21 -37 -76 -59 -31 -40 -13 -62 -33 -64 -63 -35 -71 -19 -80 -5 -86 -91 -50 -49 -58 -52 -88 -18 0
41 22 84 50 21 62 9 75 12 63 55 5 91 8 15 40 17 60 82 48 24 34 51 46 -58 -87 -26 -44 -78 -10 -69 -16 -4 -18 -77 -65 -30 0
7 13 77 67 62 66 17 43 72 25 -78 -71 -35 -57 -36 -33 -91 -75 -83 -4 -29 -69 -10 -85 -32 -81 -89 0
27 34 33 21 76 72 80 32 51 82 10 79 20 26 -60 -18 -44 -88 -11 -37 -7 -81 -83 -29 -54 -19 -86 -42 -73 -5 -53 -56 -71 0
75 46 30 14 65 29 24 15 36 50 44 32 59 55 56 76 1 53 83 19 80 9 42 88 57 45 49 6 5 21 79 69 7 33 31 10 67 28 41 68 74 71 73 90 27 37 62 -60 -63 -3 -86 -2 -51 -66 -4 -12 -52 -47 -26 -54 -78 -20 -23 -25 -17 -85 -18 -81 -43 -8 -13 -22 -38 -70 -91 -72 -64 0
73 62 6 65 11 33 29 36 26 61 58 53 34 7 74 79 35 63 54 69 70 21 57 59 10 37 71 91 49 31 2 81 67 1 19 78 87 -22 -83 -64 -14 -28 -18 -39 -88 -23 -12 -75 -32 -90 -8 -86 -52 -85 -80 -24 -46 -84 -68 -17 -89 -13 -45 -27 -42 -47 -16 -44 -25 -72 -77 -15 -20 -43 -55 -66 -48 -60 0
51 -22 0
22 78 84 43 21 58 70 45 25 34 59 3 49 72 2 18 54 20 76 83 44 73 66 24 75 8 4 48 28 60 12 -26 -19 -51 -14 -46 -87 -91 -41 -17 -82 -9 -80 -31 -33 -10 -85 -1 -42 -68 -53 -90 -74 -39 -36 -55 -11 -38 -69 0
86 52 69 90 71 3 33 91 12 66 83 34 53 82 8 61 39 88 64 31 47 84 28 58 20 16 21 1 10 2 18 55 62 85 48 59 63 9 27 45 46 -25 -50 -11 -89 -41 -70 -49 -56 -65 -7 -4 -67 -38 -17 -44 -32 -68 -75 -23 -60 -19 -26 -76 -81 -57 -37 -6 -42 -5 -30 -40 -14 -80 -13 -78 -15 -72 0
7 41 81 55 48 53 31 10 72 26 63 77 38 49 88 2 9 28 17 66 74 76 8 40 6 16 58 3 18 54 5 46 36 33 56 80 67 75 47 84 -34 -42 -71 -13 -24 -11 -37 -23 -32 -78 -35 -14 -65 -86 -39 -43 -12 -70 -30 -83 -60 -69 -91 -20 -4 -73 -1 -51 -89 -87 0
26 56 15 85 59 87 77 28 52 36 4 88 14 31 65 11 47 41 80 45 40 86 24 51 75 48 27 46 74 54 69 33 44 9 16 90 -22 -7 -53 -50 -60 -89 -39 -6 -67 -37 -10 -61 -12 -66 -91 -34 -57 -78 -58 -17 -3 -43 -2 -25 -68 -8 -70 0
39 78 41 56 7 26 36 87 43 59 50 17 60 58 27 44 19 24 75 76 84 34 67 88 72 89 68 53 70 22 79 33 28 40 81 32 54 37 23 38 -80 -55 -9 -57 -85 -21 -66 -29 -45 -42 -86 -11 -6 -69 -51 -83 -77 -90 -31 -65 -73 -25 -15 -1 -5 -64 -20 -30 -91 -47 -16 -12 0
8 71 22 86 48 6 5 91 29 15 64 89 9 1 83 18 61 77 68 23 13 76 46 20 19 32 82 44 4 26 62 53 88 28 33 -60 -70 -49 -41 -90 -72 -38 -34 -7 -57 -56 -2 -50 -21 -40 -85 -52 -69 -58 -11 -17 -39 -45 -55 -79 -59 -16 -14 -67 -78 -51 -31 -30 -80 0
53 35 65 -7 0
16 33 87 71 5 30 49 60 58 91 -37 -42 -26 -11 -75 -18 0
51 15 33 5 12 87 61 42 64 11 38 67 45 91 69 63 65 30 80 52 71 40 89 78 19 60 44 29 31 7 9 86 73 -6 -22 -43 -82 -58 -37 -77 -2 -34 -27 -70 -75 -21 -3 -54 -62 -56 -83 -8 -26 -66 -59 -20 -1 -35 -76 -50 -48 -53 0
39 15 67 48 83 43 38 61 13 73 -11 -82 -66 -27 -17 -24 -64 -35 -76 -57 -47 -81 -80 -56 -63 -88 0
43 3 24 78 20 47 45 66 -51 -16 -55 -52 -57 -67 -56 -54 -18 -5 -17 -72 -8 0
75 24 17 80 77 21 54 20 67 47 76 13 37 45 23 86 66 74 27 44 62 70 6 72 56 78 58 5 73 63 68 42 90 84 87 29 2 4 -41 -85 -38 -59 -51 -15 -11 -8 -60 -79 -25 -14 -53 -30 -36 -69 -22 -28 -39 -16 -71 -46 -26 -83 -64 -43 -81 -88 -61 -89 -18 -9 0
74 55 42 80 27 8 78 4 73 69 84 83 7 66 59 29 16 11 -10 -24 -41 -28 -39 -3 -75 -1 -23 -54 -79 -19 -47 -48 -51 -67 -76 -50 -12 -43 -68 -82 -77 0
37 59 24 78 34 69 23 88 91 72 90 75 9 63 54 28 43 3 45 47 7 62 73 -64 -14 -40 -51 -4 -25 -49 -36 -38 -33 -22 -16 -66 -12 -11 -15 -29 -10 -31 0
91 52 22 46 85 40 56 75 9 31 4 77 66 32 7 12 67 53 6 45 13 64 80 72 81 49 17 59 58 48 57 20 74 29 23 10 26 28 5 -36 -89 -39 -25 -35 -62 -38 -55 -86 -69 -1 -16 -2 -47 -21 -84 -88 -65 -14 -3 -82 -70 -87 -11 -18 -42 -63 -60 -33 -30 -50 -76 0
36 79 37 14 77 73 81 50 19 72 20 9 91 17 60 80 87 46 82 56 67 66 89 12 30 -54 -32 -39 -90 -16 -78 -5 -23 -45 -33 -29 -49 -70 -61 -31 -11 -42 -88 -1 -47 -34 -51 -41 -8 -40 0
26 76 13 71 16 33 67 80 15 65 27 10 28 -62 -69 -5 -37 -29 -25 -90 -79 -88 -19 -56 0
28 12 80 69 70 29 32 79 65 78 8 3 55 19 5 -36 -23 -43 -64 -50 -15 -90 -13 -34 -18 -2 -67 -81 -85 -33 -44 -72 -31 -56 -42 -73 0
23 72 54 82 80 33 3 71 68 37 53 24 10 19 40 89 87 41 64 83 90 59 91 60 34 45 78 20 -63 -61 -39 -29 -50 -55 -18 -4 -66 -26 -47 -31 -30 -21 -11 -32 -51 0
40 86 12 85 58 54 14 69 44 5 41 6 36 90 -38 -18 -73 -51 -78 -68 0
15 23 90 6 91 30 52 9 1 55 25 72 69 50 62 83 8 14 19 21 -22 -44 -10 -89 -49 -65 -39 -68 -17 -81 -48 -61 -66 -26 -36 -77 -51 -34 -76 -57 0
19 56 3 6 11 18 34 13 64 42 91 15 87 47 85 7 88 79 63 30 49 29 58 31 16 89 74 44 26 10 54 41 73 35 59 90 52 68 20 39 81 2 46 1 77 17 33 43 -72 -86 -25 -83 -28 -23 -84 -50 -22 -60 -80 -8 -70 -51 -38 -4 -67 -21 -36 -27 -57 -48 -45 -53 -24 -61 -75 -62 -78 -82 -69 -65 -66 -14 -37 -40 -12 -76 -55 -5 -71 0
78 86 19 29 46 15 45 25 33 44 75 14 69 6 10 64 11 50 8 71 38 68 30 3 18 90 54 16 35 47 82 -48 -56 -80 -51 -17 -7 -81 -60 -12 -31 -37 -4 -32 -65 -63 -40 -76 -59 -62 -52 -49 -21 -89 -77 -22 -28 0
3 25 38 72 86 66 34 75 71 81 79 11 44 36 4 51 42 63 24 37 74 53 18 -40 -29 -15 -20 -45 -10 -5 -50 -48 -8 -54 -39 -22 -85 -69 -6 -57 -64 -23 -76 0
28 25 13 -68 0
79 43 15 9 75 90 7 67 73 63 37 -30 -57 -87 -65 -62 -55 -13 -88 -40 -80 -44 0
14 42 35 76 89 72 17 91 62 50 27 -30 -33 -9 -88 -34 -90 0
54 23 -51 -60 -38 -71 0
85 10 39 -34 -59 0
9 48 88 80 27 18 26 72 15 83 32 21 10 73 75 78 34 68 22 69 3 19 7 29 43 1 79 51 81 5 16 -59 -77 -76 -36 -57 -56 -8 -14 -42 -60 -62 -11 -87 -20 -39 -46 -17 -86 -12 -47 -89 -55 -91 -53 -40 -2 -6 -50 0
26 10 81 80 68 89 79 25 87 43 3 86 24 17 63 31 34 83 77 60 23 41 45 36 49 46 30 84 2 53 6 54 47 18 33 32 66 28 62 44 38 22 57 91 29 64 59 -90 -61 -40 -20 -19 -78 -73 -12 -70 -8 -37 -11 -74 -58 -1 -51 -48 -14 -88 -65 -82 -35 -56 -75 -69 -4 -55 -72 0
13 86 45 27 38 68 74 54 55 32 26 8 62 35 11 89 75 79 60 19 48 -57 -87 -34 -78 -33 -14 -88 -20 -83 -56 -17 -29 -43 -66 -28 -15 -64 -65 -59 -31 -4 -10 -70 -41 0
28 12 20 64 15 3 34 70 37 75 9 18 -19 -23 -60 -82 -54 -79 -44 -41 -30 -5 -83 -29 -50 -14 0
29 12 61 13 59 88 9 55 71 91 -70 -62 -64 -53 -20 -19 -86 -15 -24 0
79 53 87 74 42 81 6 45 65 90 14 83 5 63 32 47 51 75 1 24 8 43 58 38 52 22 84 -59 -41 -60 -77 -44 -28 -10 -4 -68 -40 -17 -36 -73 -48 -9 -61 -78 -62 -29 -7 -71 -19 -34 -89 -26 -21 -85 -72 -31 -50 -67 -2 -16 -35 -23 -54 -82 0
78 23 64 41 8 44 39 79 26 54 68 12 87 75 53 60 49 74 88 45 34 57 35 86 7 77 48 69 83 9 67 70 24 80 17 21 25 19 30 42 -85 -71 -22 -59 -52 -20 -40 -43 -32 -37 -50 -4 -38 -76 -72 -66 -3 -61 -5 -63 -6 -56 -46 -91 -36 -55 -65 -18 -89 -10 -90 -27 -16 -31 -11 -28 0
2 47 69 63 30 4 50 78 59 52 6 24 71 17 1 66 64 65 38 7 72 58 56 22 28 8 34 53 33 3 45 -75 -67 -49 -32 -79 -57 -46 -39 -48 -90 -68 -35 -11 -84 -91 -89 -27 -81 0
66 2 91 39 26 46 71 72 35 49 44 54 11 24 64 32 77 45 22 41 20 36 58 61 81 60 31 88 6 78 5 80 68 47 48 28 74 87 89 86 84 82 85 75 -51 -27 -42 -3 -34 -21 -90 -8 -67 -65 -38 -62 -15 -76 -79 -19 -4 -73 -70 -7 -10 -33 -1 -13 -56 -23 -29 -53 -55 -83 -69 -50 -12 -16 -25 -43 -57 -9 -18 -17 -52 -40 0
6 57 87 78 33 53 8 58 67 39 13 84 42 66 77 52 64 56 51 83 65 27 7 73 22 3 18 88 72 25 15 21 30 74 80 63 89 43 20 1 -26 -29 -34 -55 -41 -69 -90 -19 -45 -86 -68 -17 -76 -71 -47 -61 -36 -79 -44 -16 -35 -28 -23 -91 -60 -32 -54 -49 -50 -11 -70 -82 -59 -12 -2 -4 -75 -40 -81 -31 -9 -38 -37 -24 -14 -85 -46 0
17 1 6 86 57 64 60 76 -3 -12 -74 -89 -69 -77 -35 0
82 84 11 76 13 32 10 54 2 74 63 61 73 40 72 41 -29 -68 -88 -78 -53 -37 -3 -57 -62 0
39 86 62 77 46 36 -5 -25 -31 -52 -73 -74 -3 -30 -17 -37 -83 -33 0
54 70 58 50 22 71 21 90 46 4 79 29 56 55 48 27 39 9 30 28 17 64 77 82 61 -62 -35 -60 -59 -13 -43 -8 -2 -32 -20 -44 -65 -38 -34 -6 -89 -76 -15 -14 -83 -81 -51 -63 -66 -69 -52 -72 -37 -11 -33 -24 -5 -3 -88 -40 -12 -31 0
60 75 30 36 16 23 67 44 65 8 -58 -18 -52 -38 -10 -72 -33 -51 -40 -43 -70 -42 -83 0
40 89 62 19 67 45 50 61 16 68 80 6 60 7 29 34 57 47 13 56 83 24 88 87 48 73 75 -52 -42 -26 -22 -33 -12 -63 -64 -44 -71 -31 -76 -37 -2 -3 -85 -46 -27 -70 -91 -25 -84 -74 -53 -4 -1 -39 -23 0
62 24 68 70 57 7 30 29 61 81 52 56 50 84 -49 -83 -54 -41 -17 -21 -15 -14 -4 -12 -75 -74 -72 -42 -5 0
10 40 87 19 79 80 -13 -56 -26 -74 -1 -15 -5 -89 -77 -21 -57 -35 -65 0
83 79 19 61 22 31 -81 -29 -18 -23 -87 -48 0
63 46 33 53 76 54 64 73 9 10 30 6 41 2 55 16 22 83 25 86 69 59 91 74 19 42 87 56 8 84 -20 -68 -79 -82 -37 -50 -17 -18 -81 -62 -32 -67 -88 -60 -12 -26 -80 -89 -72 -75 -39 -34 -61 -29 -21 -51 -14 0
59 2 12 1 74 90 62 15 64 43 27 -29 -68 -4 -69 -50 -84 -3 0
89 36 58 13 87 66 90 55 91 5 20 14 52 65 21 84 27 2 53 16 72 45 41 38 67 30 48 10 80 43 44 78 73 -4 -18 -8 -71 -82 -9 -64 -79 -49 -57 -22 -88 -75 -32 -42 -39 -37 -1 -50 -7 -15 -51 -11 -69 -74 -85 -23 -81 -12 -17 -77 -34 -6 -63 -56 -3 0
81 89 38 18 80 85 40 41 31 62 -2 -84 -86 -88 -48 -35 -13 -82 -73 -24 -15 -25 -54 0
34 61 73 60 68 12 10 2 50 1 82 90 28 58 6 -87 -39 -53 -26 -19 -88 -84 -69 -71 -81 -65 -49 -85 -79 0
52 84 -3 0
90 9 36 15 14 1 29 -44 -76 -30 -16 -53 -78 -12 0
41 84 11 63 29 2 70 3 59 25 54 50 47 55 17 86 79 75 -30 -32 -88 -64 -58 -49 -16 -10 -1 -73 -51 -33 -5 0
46 50 66 14 -67 -59 0
13 48 33 6 46 78 79 68 17 59 29 -21 -85 -88 -54 -38 -70 -57 -62 -67 -83 0
18 67 64 75 26 50 -3 -86 -78 -21 -87 0
86 49 73 63 38 5 61 47 79 9 76 18 59 15 19 83 90 1 68 66 3 51 -88 -11 -12 -57 -42 -21 -31 -2 -53 -69 -82 -67 -36 -24 -46 -45 -17 -72 -30 -16 -28 -10 0
31 73 47 2 41 77 83 86 69 75 1 4 39 82 89 36 72 85 6 35 84 79 16 70 8 -15 -63 -17 -53 -58 -20 -18 -10 -14 -65 -57 -55 -71 -21 -9 -24 -68 -25 -56 -87 -44 -74 -38 0
56 36 32 3 31 74 7 48 85 73 8 13 89 41 55 4 29 75 77 64 34 71 9 46 17 67 82 -53 -65 -63 -80 -76 -1 -16 -59 -60 -90 -70 -54 -57 -47 -20 -2 -86 -84 -35 0
82 27 65 2 45 44 79 24 57 7 75 46 -89 -54 -15 -73 -50 -19 -37 -31 -43 -74 0
89 25 27 51 81 16 64 -69 -76 -73 0
53 60 51 85 20 63 -86 -1 -77 -50 0
14 82 17 53 2 -44 -26 -39 -85 -90 -29 -80 -84 -73 -22 -83 -68 -48 -61 0
86 52 7 49 11 89 43 62 69 60 -39 -74 -17 -5 -3 -41 -18 -21 -8 0
73 61 66 62 57 78 5 50 18 68 76 24 15 11 36 30 67 63 46 2 3 65 52 26 23 22 40 72 -4 -64 -34 -29 -10 -7 -1 -70 -51 -79 -19 -56 -35 -81 -53 -87 -38 -32 -75 -69 -21 -83 -85 0
9 44 24 8 76 49 91 13 1 16 59 26 5 34 4 89 61 67 -3 -45 -71 -22 -54 -77 -38 -85 -27 -74 -58 -21 -80 -52 -42 -46 0
13 71 61 6 35 67 66 23 24 82 51 54 81 44 55 8 46 39 62 43 65 38 86 25 60 72 32 89 40 10 83 20 3 59 45 80 -91 -21 -68 -15 -42 -85 -76 -70 -31 -74 -64 -47 -49 -37 -28 -75 -14 -63 -11 -18 -52 -7 -56 -77 -17 -34 -41 -90 -57 -78 -9 -79 -2 -73 -12 -5 -50 -87 0
2 60 71 -67 -42 -19 -49 -34 0
23 12 27 87 15 34 13 78 50 -57 -26 -62 -89 -63 -90 -82 -18 -2 -47 0
29 70 62 28 78 33 63 24 2 38 32 76 7 42 66 1 23 35 -46 -56 -80 -67 -52 -73 -16 -90 -69 -54 -44 -5 -59 -72 -64 -60 -79 0
39 45 77 12 1 74 10 9 71 62 72 89 91 82 22 29 36 66 28 43 42 20 88 58 27 59 26 79 73 75 85 19 70 64 50 78 76 -8 -15 -56 -2 -17 -31 -52 -14 -84 -53 -57 -86 -60 -21 -65 -46 -80 -68 -34 -23 -51 -18 -90 -69 -87 -55 -5 -7 -44 -13 -67 -61 -54 0
71 61 66 38 26 69 63 5 73 53 67 29 52 3 44 12 31 51 13 79 39 75 74 58 83 89 27 28 70 80 23 17 32 6 87 82 8 -91 -55 -60 -59 -30 -37 -35 -84 -19 -21 -64 -46 -40 -49 -48 -81 -76 -10 -15 -41 -62 -45 -1 -20 -90 -78 -2 -77 -4 -22 -88 -72 -42 -11 -16 -24 -56 -34 -65 -43 0
48 72 59 33 37 18 9 19 52 76 13 21 -24 -79 -15 -7 -2 -70 0
14 9 36 89 71 7 41 28 12 52 29 38 81 46 15 44 61 26 25 8 57 -48 -24 -75 -31 -37 -10 -16 -69 -4 -86 -1 -74 -6 -21 -59 -5 -77 -68 -70 -18 -2 0
80 62 65 17 39 56 84 86 83 68 40 13 27 38 73 22 10 37 24 11 90 76 89 61 70 81 75 9 66 -29 -47 -53 -78 -16 -5 -36 -15 -60 -64 -51 -6 -20 -42 -52 -35 -26 -79 -87 -54 -43 -71 -23 -77 -18 -63 -34 -59 -41 -28 0
53 32 15 26 81 9 7 1 75 58 48 66 37 11 45 85 70 57 82 38 78 68 54 20 8 28 31 43 65 80 23 -84 -41 -88 -55 -83 -91 -60 -62 -42 -71 -50 -17 -74 -35 -59 -13 -18 -72 -12 -25 -10 -29 -39 -47 -67 -49 -21 -77 -63 0
27 69 81 4 35 5 47 61 80 76 87 3 26 91 1 17 48 56 14 37 84 6 86 39 77 20 15 63 33 10 71 29 12 67 53 75 -7 -19 -22 -51 -46 -54 -2 -25 -74 -89 -82 -72 -11 -64 -44 -49 -66 -65 -79 -8 -24 -34 -41 -70 -57 -42 -59 -43 -18 -30 -31 -28 -78 -9 -45 -83 -52 -16 -62 -32 -55 0
40 25 51 8 19 85 30 55 60 15 64 61 42 1 34 6 80 57 74 -62 -12 -28 -7 -5 -49 -75 -21 -41 -18 -67 -47 -70 -84 -33 -32 -22 -68 -89 0
56 83 85 70 49 31 21 44 60 84 50 61 74 24 9 54 76 -26 -91 -4 -37 -36 -38 -58 -90 -27 -1 0
82 29 33 26 56 1 61 24 65 90 40 79 43 4 89 88 16 66 6 53 42 13 39 31 83 81 45 9 34 84 -36 -7 -57 -47 -72 -85 -14 -49 -68 -10 -30 -60 -50 -59 -78 -12 -75 -44 -46 -17 -62 -21 -5 -54 -58 -77 -20 -8 -19 -52 -37 -91 -67 0
9 5 25 61 51 13 -73 -8 -76 -49 -86 -40 -31 0
36 39 71 60 2 87 14 65 68 25 9 29 85 78 76 82 18 28 75 15 48 49 44 10 72 37 63 77 89 27 38 54 73 80 12 56 6 30 66 74 53 86 5 61 33 50 88 -26 -52 -17 -62 -79 -23 -21 -43 -22 -58 -51 -59 -81 -7 -84 -91 -3 -4 -20 -34 -70 -57 -31 -67 -32 -24 -8 -46 -45 -41 -42 -35 -11 -1 -55 -13 -40 -47 0
80 45 82 38 26 -57 -36 -5 -47 -51 -3 -14 -28 -56 -72 -89 -52 -10 0
29 48 75 40 50 84 76 18 10 43 39 90 35 13 87 85 53 51 57 58 54 20 47 32 46 31 59 63 62 9 22 -70 -19 -65 -16 -80 -44 -66 -41 -25 -27 -2 -36 -91 -12 -33 -82 -72 -28 -37 -26 -3 -79 -23 -89 -73 -64 -55 -49 -24 -78 -15 -34 -11 -14 0
89 73 32 25 52 46 40 1 87 49 69 70 15 58 33 26 17 27 90 74 42 23 56 44 54 39 35 19 -81 -85 -84 -31 -83 -37 -34 -10 -7 -66 -29 -68 -72 -4 -18 -28 -60 -59 -9 -30 -13 -11 -51 -53 -24 0
35 33 41 51 13 77 14 26 25 9 28 49 24 71 37 2 32 53 -8 -88 -23 -58 -3 -90 -27 -89 -91 -7 -75 -66 -82 -86 -18 -69 -42 -80 0
57 70 36 59 85 22 55 56 87 58 -80 -67 -81 -9 -34 -40 -53 -37 -14 -44 0
4 33 82 18 88 60 46 5 80 23 59 54 69 16 12 79 63 25 -84 -40 -10 -71 -17 -77 -49 -30 -66 -6 -1 -13 -11 -42 -70 -58 -91 0
21 59 25 77 7 27 29 69 22 14 71 61 3 60 39 66 5 18 70 53 68 4 85 19 52 12 74 55 73 24 -81 -35 -58 -49 -2 -45 -86 -51 -28 -87 -8 -40 -47 -50 -13 -91 -6 -41 -43 -10 -38 -31 -44 -42 -75 0
57 7 70 23 14 51 28 54 42 22 82 20 80 45 11 86 12 71 46 27 63 76 79 48 81 -49 -69 -15 -64 -36 -1 -60 -35 -87 -30 -3 -5 -90 -52 -26 -24 -38 -53 -6 0
33 32 62 77 60 13 45 18 49 58 15 70 39 38 23 27 35 30 55 26 41 20 72 24 67 11 9 3 48 -6 -47 -68 -42 -56 -90 -25 -73 -5 -34 -2 -81 -86 -91 -51 -83 -88 -63 -22 -66 -28 -31 0
2 6 83 79 31 39 48 78 86 -82 -77 -72 -89 -32 -62 -41 -5 -50 -19 -57 -56 0
69 72 46 11 22 82 18 87 74 45 -43 -32 -52 0
85 89 18 44 45 8 88 81 37 22 19 76 39 33 40 50 14 70 74 62 11 56 58 34 82 -7 -66 -10 -79 -53 -21 -90 -51 -17 -5 -52 -16 -28 -63 -25 -26 -43 -3 -29 -84 -36 -80 -83 -87 -68 -78 -61 -4 -73 -1 -65 0
18 88 -44 -85 -45 0
75 66 27 88 13 52 24 41 60 38 16 62 25 90 67 -73 -43 -46 -54 -70 -69 -63 -85 -34 -36 -19 -50 -48 -28 -9 0
11 23 50 40 44 20 70 22 73 74 25 56 35 36 26 17 34 42 4 68 57 52 18 8 3 54 63 67 64 -12 -82 -48 -32 -30 -43 -78 -49 -31 -27 -66 -15 -61 -16 -86 -45 -71 -81 -10 -51 -37 -69 -6 -58 -88 -72 -21 -90 -2 -13 -29 -1 -65 -62 -85 -14 -28 -76 -83 -24 -53 -87 -5 -41 0
44 10 45 36 32 13 85 46 12 29 17 68 62 73 66 51 9 79 7 34 25 23 53 58 81 78 82 21 42 37 55 1 26 52 20 47 49 40 27 88 19 -50 -83 -67 -15 -43 -57 -38 -22 -75 -59 -4 -28 -14 -76 -2 -18 -24 -63 -41 -72 -8 -35 -6 -31 -80 -48 -39 -54 -71 -61 -70 -60 -84 -91 -87 -89 -5 -90 -30 -33 -11 -3 -56 0
33 24 51 78 21 29 75 31 10 56 79 74 81 23 46 68 77 87 36 66 20 59 63 -37 -15 -9 -69 -52 -58 -67 -30 -5 -91 -43 -19 -45 -90 -85 -2 -72 -41 0
24 75 12 50 1 41 54 34 16 2 63 14 19 90 80 77 69 3 40 68 61 58 -86 -73 -88 -29 -10 -83 -53 -51 -66 -71 -49 -32 -70 -17 -65 -89 -60 -74 -31 -82 -56 -28 -79 -11 -26 0
19 21 60 70 23 65 53 62 73 68 5 45 48 -85 -57 -11 -22 -7 -33 -71 -20 -39 -91 -89 -67 -1 -10 -15 -42 -44 -90 -31 -4 -59 -32 -28 -75 -24 0
10 4 45 89 15 32 8 -21 -53 -9 -90 -86 -83 -63 -47 -1 -46 0
63 91 47 30 -23 -31 -80 -51 -74 -88 0
65 4 80 62 27 23 55 75 88 18 9 46 68 43 31 20 19 86 57 78 87 69 13 77 24 72 36 58 60 70 11 52 84 25 14 42 2 1 67 8 63 10 -37 -83 -54 -39 -3 -21 -50 -5 -81 -7 -59 -15 -33 -34 -30 -74 -48 -28 -44 -56 -6 -82 -26 -71 -51 -90 -45 -41 -85 -49 -91 -64 -12 -66 -61 -29 -89 -22 -16 -73 -40 -76 -17 -79 -35 0
69 32 38 16 53 77 -27 -7 -65 0
60 15 38 44 41 26 5 36 87 23 10 31 40 32 85 28 88 47 45 4 -81 -30 -43 -42 -67 -75 -49 -24 -65 -2 -64 -56 -6 -77 -55 0
5 20 88 26 21 -23 -36 -59 -42 -53 -75 -55 -12 -74 0
24 58 32 78 27 73 91 15 43 84 1 53 40 77 20 51 70 63 88 12 28 36 64 6 37 18 47 34 31 55 90 49 74 2 52 87 -61 -39 -41 -35 -42 -67 -22 -16 -79 -80 -66 -26 -3 -23 -71 -9 -13 -5 -81 -8 -10 -14 -68 -7 -62 -38 -30 -50 -4 -33 -54 -72 -17 -19 -45 -21 -86 -82 -25 -89 -56 -59 -69 -57 -60 -29 -85 -83 -65 -48 -75 -46 -76 0
78 64 69 31 3 9 40 53 32 27 73 47 57 39 30 28 66 6 51 18 54 33 38 4 71 1 89 85 58 8 -87 -50 -55 -49 -60 -46 -65 -48 -19 -59 -12 -45 -17 -35 -36 -11 -29 -68 -81 -7 -90 -41 -44 -23 -26 -34 -10 -15 -70 -79 -42 -80 -84 -74 -20 -14 -13 -22 -62 -88 -77 0
80 -3 -76 0
79 65 11 86 59 40 61 64 82 17 88 83 77 84 4 32 5 44 28 2 43 58 21 13 -67 -9 -27 -80 -22 -37 -30 -76 -85 -51 -75 -3 -41 -45 -70 -63 -91 -18 -38 -23 -89 -90 -69 -8 -34 -1 0
11 76 21 88 64 60 31 43 84 23 2 3 52 56 53 72 4 18 79 19 37 54 20 15 57 87 50 63 27 85 33 70 42 22 49 81 29 16 38 24 1 48 83 28 10 45 -77 -25 -44 -58 -32 -46 -59 -8 -9 -80 -51 -17 -47 -91 -39 -36 -14 -5 -26 -69 -65 -35 -78 -68 -6 -66 -67 -55 -7 -12 -90 -74 -86 -13 -41 -71 -82 -89 -73 0
51 87 42 9 20 69 56 48 7 63 22 28 55 68 46 89 81 12 90 79 -50 -52 -6 -25 -15 -2 -31 -24 -59 -43 -13 -60 -84 -62 -91 -83 -82 -76 -77 -39 -41 -21 -1 -27 -32 -33 -19 -14 -5 -34 -38 0
7 59 -73 -43 -12 0
88 83 39 18 -10 -27 -15 0
12 1 60 56 58 75 34 49 19 13 68 85 78 81 38 37 5 66 24 84 -31 -27 -17 -64 -45 -74 -80 -63 -40 -79 -54 -61 -39 -28 -47 -3 -83 -33 -52 0
27 84 82 38 52 87 3 67 88 68 30 71 73 4 86 78 31 9 2 13 63 33 65 80 11 55 59 74 57 39 25 62 1 15 64 81 10 34 46 49 91 23 -47 -6 -19 -5 -54 -42 -50 -45 -90 -61 -72 -58 -40 -89 -51 -60 -83 -29 -26 -24 -76 -12 -35 -56 -22 -17 -48 -79 -16 -85 -53 -7 -69 -75 -41 -20 -28 -36 -37 -66 -77 -18 -32 -44 -8 -14 -21 -43 0
20 64 73 22 21 35 72 30 90 88 68 83 2 19 56 12 13 9 51 43 41 1 17 82 75 27 26 14 49 52 54 3 61 8 25 -50 -6 -74 -53 -60 -4 -58 -67 -31 -76 -62 -7 -77 -24 -39 -85 -55 -59 -91 -81 -34 -80 -86 -46 -66 -65 -38 -45 -5 -48 -87 -69 -18 -16 0
33 5 80 -90 -36 -12 -75 -11 -68 -71 -25 -54 -37 -10 0
22 71 55 53 76 8 90 63 4 2 20 88 60 12 65 79 17 28 32 7 1 35 -10 -41 -78 -26 -84 -54 -9 -11 -46 -14 -34 -39 -44 -16 -6 -68 0
14 32 58 47 83 80 19 71 12 4 5 27 11 7 55 70 22 74 77 73 53 28 18 37 48 23 63 62 45 64 91 21 30 39 75 40 -68 -84 -50 -25 -88 -81 -34 -38 -41 -20 -44 -78 -52 -65 -26 -61 -43 -85 -90 -29 -15 -46 -76 -36 -82 -49 -17 -56 -51 -87 -16 -13 -3 -79 0
25 55 91 48 32 87 40 42 11 24 33 62 53 72 79 8 64 21 45 63 83 77 -80 -2 -34 -22 -50 -39 -61 -10 -29 -88 -86 -54 -59 -76 -6 -52 -90 -41 0
2 32 85 61 36 8 66 33 86 77 88 12 35 -57 -54 -21 -47 -43 -44 -5 -80 -31 -69 -60 0
35 19 45 47 27 63 52 33 23 64 4 89 5 67 77 22 16 53 44 59 38 1 32 48 34 24 17 20 30 21 50 86 60 49 87 62 6 57 70 72 58 41 85 25 69 71 83 -91 -65 -10 -84 -7 -31 -75 -2 -56 -80 -76 -26 -90 -11 -74 -54 -13 -79 -29 -51 -14 -39 -82 -61 -12 -36 -46 -3 -43 -78 -66 -73 -88 -68 0
90 76 25 87 46 40 22 45 -8 -36 -18 -14 -43 -32 -23 0
71 74 20 85 87 84 -90 -3 -24 -18 -2 0
55 79 45 47 31 25 90 3 86 11 51 73 17 85 70 34 12 23 2 20 62 57 67 15 61 9 48 43 44 46 27 76 52 71 -84 -64 -14 -33 -82 -89 -40 -75 -38 -83 -81 -5 -19 -65 -7 -66 -56 -68 -88 -60 -30 -21 -13 -54 -37 -39 -6 -49 -35 -50 -58 -8 -4 -18 -24 -77 -32 -10 -80 0
46 77 86 38 39 41 18 24 17 35 71 60 25 2 48 16 67 43 42 73 10 88 37 15 59 36 80 83 56 20 26 12 44 72 82 -62 -66 -19 -49 -91 -22 -78 -58 -31 -33 -5 -50 -40 -13 -1 -11 -27 -54 -79 -51 -29 -7 -84 -47 -65 -9 -68 -85 -52 -87 -70 -23 -45 -76 -69 -81 -53 -8 -89 -57 -75 -63 -34 -74 -90 -21 -55 -6 -32 -14 -30 -61 -28 -4 0
79 10 34 -49 -53 -14 -45 0
5 60 51 77 25 26 6 79 59 -17 -34 -78 -3 -9 -1 -80 -70 -18 -58 -62 -73 -35 -37 -86 -14 -33 -89 0
64 66 20 63 31 33 50 40 57 59 70 90 8 72 23 27 1 84 11 35 10 80 30 42 4 83 -37 -46 -45 -32 -17 -61 -39 -60 -43 -56 -52 -86 -91 -76 -16 -55 -89 -13 -71 -6 -12 -49 -18 -77 -88 -47 -65 -41 -44 -14 -28 -5 -51 -25 -53 -67 -74 -75 -73 -21 -48 -79 -81 -36 -26 -34 -82 -38 -9 0
16 72 67 66 17 6 14 60 53 82 25 19 47 38 -76 -3 -32 -11 -58 -30 -71 -2 -39 -41 -62 -73 -13 -74 -31 -43 -56 -22 -8 -91 -37 -12 -78 -29 -77 -57 -70 -10 -51 -34 -27 -33 -69 0
36 89 82 81 52 66 83 58 33 55 90 65 26 13 51 76 91 84 79 19 17 78 15 40 41 75 30 56 24 23 -32 -10 -49 -21 -1 -73 -53 -8 -16 -62 -5 -44 -2 -60 -70 -20 -12 -42 -38 -11 -86 -61 -45 -63 -22 -57 -27 -50 -68 -74 -77 -28 0
56 1 31 73 13 57 61 62 18 14 11 70 33 69 16 91 2 17 8 41 43 4 50 22 30 55 38 86 -32 -21 -39 -64 -5 -27 -89 -42 -35 -24 -74 -36 -46 -49 -6 -12 -76 -10 -84 0
68 79 8 40 90 77 85 46 83 28 59 80 88 74 2 16 34 20 55 31 78 35 23 66 12 73 44 58 67 57 71 41 33 52 9 76 50 18 -43 -14 -72 -29 -32 -13 -6 -56 -62 -81 -10 -25 -27 -36 -1 -39 -87 -22 -17 -24 -19 -54 -84 -49 -26 -30 -65 -7 -5 -51 -3 -42 -53 -11 -91 -4 0
18 9 1 15 5 11 86 12 4 28 70 6 27 -69 -54 -16 -73 -90 -83 -33 -56 -23 -26 -25 -76 -38 0
21 39 32 17 33 81 70 64 85 16 47 77 52 46 38 3 36 60 12 40 5 83 54 4 49 56 42 24 45 73 19 50 91 -37 -57 -9 -44 -65 -90 -8 -63 -29 -71 -18 -75 -25 -86 -1 -41 -72 -20 -31 -48 -7 -51 -55 -69 -30 -2 -89 -23 -78 -66 -59 0
39 10 69 40 83 86 88 45 44 27 28 13 30 59 -26 -64 -31 -54 -87 -70 -78 -51 -18 -6 -22 -90 -85 -17 -52 -48 -12 -15 0
84 60 91 21 62 23 -54 -37 -50 -33 -20 -43 0
30 13 24 53 44 32 64 72 23 76 2 50 12 7 20 66 -81 -45 -79 -75 -15 -22 -86 -90 -5 -38 -29 -62 -39 -87 -84 -47 -49 -57 -71 -88 -48 0
57 66 44 23 6 43 73 25 82 55 56 53 1 29 60 9 48 11 46 27 85 59 30 45 18 34 7 20 37 17 64 31 76 75 21 26 80 39 42 50 -83 -36 -15 -79 -62 -5 -13 -12 -77 -40 -74 -58 -16 -24 -32 -28 -65 -4 -86 -84 -47 -22 -69 -33 -87 -41 -51 -35 -68 -63 -78 -54 -90 0
54 9 44 57 39 7 23 77 74 60 21 91 -73 -36 -6 -67 -45 -37 -17 -55 -12 -51 -48 -16 0
24 25 54 26 57 40 32 85 44 5 83 58 43 7 9 53 88 -86 -34 -1 -52 -17 -20 -49 -11 -66 0
72 48 68 1 77 88 62 73 38 6 29 13 35 75 84 9 60 46 37 14 51 22 71 58 23 26 27 82 4 87 44 30 41 40 33 34 31 70 69 52 3 79 49 21 89 53 85 7 19 42 90 -5 -43 -47 -16 -65 -8 -63 -61 -2 -18 -32 -80 -59 -45 -57 -20 -83 -39 -55 -50 -66 -67 -11 -56 -74 -54 -81 -24 -76 -10 -86 -28 -15 -12 0
66 13 61 80 55 -9 -34 -1 0
23 18 46 52 69 78 48 35 30 21 43 77 24 89 62 84 50 87 22 60 14 27 -25 -58 -20 -75 -5 -61 -44 -42 -54 -1 -80 -6 -7 -16 -47 -10 -9 -12 -57 -68 -72 0
86 73 72 7 50 37 90 17 60 69 6 23 44 49 15 35 47 46 61 65 84 66 30 85 53 11 26 55 78 33 63 70 1 16 29 -36 -87 -91 -77 -64 -4 -79 -40 -88 -51 -12 -42 -43 -52 -8 -39 -38 -59 -48 -34 -75 -32 -21 -82 -3 -14 -45 -19 -54 -25 -71 -58 -9 -76 -28 -2 0
76 35 74 54 2 62 83 43 15 86 50 70 82 12 75 61 29 17 30 6 84 24 69 55 91 53 52 40 37 -16 -32 -46 -31 -48 -90 -34 -77 -85 -38 -45 -1 -78 -26 -41 -33 -22 -67 -66 -89 -64 -79 -7 -5 -25 -21 -57 -68 -27 -88 -39 -73 -42 -19 -28 -80 0
22 86 50 89 20 21 8 67 52 57 68 64 2 36 49 14 78 54 70 5 76 30 27 77 15 12 87 23 18 -6 -82 -28 -71 -60 -48 -32 -38 -19 -41 -31 -53 -73 -83 -55 -74 -91 -69 -29 -35 -37 -39 -11 -17 -33 -24 -3 -40 -72 -56 -80 -43 -81 -7 -65 -25 -75 -66 -1 -51 0
26 14 17 58 64 10 30 11 62 74 67 13 5 54 2 45 15 91 50 41 82 31 3 23 69 -16 -79 -53 -24 -32 -86 -40 -84 -39 -89 -90 -9 -77 -12 -47 -21 -52 -35 -81 0
48 50 41 22 62 49 81 63 65 5 23 25 44 10 47 88 55 76 67 84 45 72 24 6 54 34 14 40 -29 -27 -16 -89 -35 -17 -33 -37 -36 -39 -51 -18 -43 -11 -13 -87 -83 -80 -57 -53 -78 -75 -64 -8 -2 -4 -46 -30 -1 0
56 79 -25 -37 -55 -76 -62 -84 0
8 69 65 33 17 36 -7 -23 -15 -72 -14 -39 0
46 10 89 36 19 7 24 50 21 72 28 85 58 51 -88 -1 -66 -42 -6 -75 -69 -40 -54 -87 -63 -39 -47 0
79 75 26 48 62 64 43 30 20 33 83 72 80 4 73 87 25 13 49 28 -3 -10 -58 -35 -36 -71 -17 -78 -22 -85 -70 -89 -51 -11 -57 -52 -53 -81 -8 -14 -21 -82 -88 -60 -76 -42 -86 0
57 79 22 91 66 72 60 44 20 55 90 10 13 4 3 62 61 43 63 31 -19 -39 -52 -77 -80 -69 -33 -65 -11 -84 -76 -81 -85 -17 -8 -54 -87 -38 -45 -15 -50 0
8 29 46 90 75 57 86 89 3 61 38 21 -45 -18 -34 -56 -17 -74 -49 -77 -32 -13 -23 -85 -30 -65 -69 -24 -39 0
10 5 66 67 49 46 84 16 86 38 1 56 79 23 90 8 -18 -68 -48 -85 -75 -27 -28 -88 -60 -89 -64 -14 -81 -51 -72 -50 -20 -34 -41 -32 -15 -53 0
16 47 72 45 77 29 41 74 69 32 70 9 89 33 52 51 86 63 -61 -35 -81 -38 -87 -7 -56 -2 -20 -48 -73 -49 0
69 80 42 76 24 39 64 86 59 72 85 77 81 60 68 19 90 53 1 78 55 79 33 22 9 4 61 91 2 13 -43 -66 -74 -18 -10 -46 -7 -15 -65 -23 -84 -35 -31 -6 -45 -47 -48 -88 -36 -27 -70 -52 -3 -62 -16 -83 -63 -25 -54 0
34 22 9 86 58 30 13 38 82 81 29 79 7 8 69 63 80 45 59 42 40 17 70 21 15 -51 -52 -72 -44 -61 -14 -46 -12 -26 -60 -10 -25 -65 -4 -37 -49 -23 -68 -74 -64 0
90 22 68 24 25 -73 0
76 5 47 -40 -36 -64 0
72 86 5 90 60 18 36 40 52 41 70 48 38 20 51 35 30 61 1 -63 -19 -45 -8 -34 -75 -78 -9 -73 -32 -44 -21 -65 -6 -64 -85 -91 -89 -54 -84 0
18 64 47 20 16 23 50 49 35 46 26 83 59 71 14 54 80 39 44 90 5 57 76 25 41 15 88 30 52 7 56 61 29 24 45 33 75 85 79 66 -69 -21 -19 -1 -43 -38 -13 -78 -12 -73 -91 -82 -6 -74 -22 -28 -32 -17 -77 -9 -60 -67 -48 -86 -55 -11 -51 -63 -4 -58 -2 -37 -40 -8 -84 -36 -42 -62 -89 -72 -31 -68 -34 0
11 16 3 56 20 87 55 80 18 88 42 32 47 52 39 73 48 84 17 23 7 67 77 19 13 54 89 -14 -21 -72 -81 -62 -38 -46 -31 -27 -10 -51 -71 -49 -44 -83 -9 -6 -76 -74 -1 -8 -5 -66 -57 -68 -75 -35 -22 0
27 75 10 3 21 86 16 85 79 30 40 20 56 12 5 84 38 23 60 41 26 43 55 91 67 -58 -64 -36 -13 -63 -71 -46 -81 -76 -62 -78 -7 -8 -34 -53 -2 -72 -28 -6 -24 -15 -87 -45 -77 -29 -31 -82 -49 -4 -89 -25 0
41 50 60 72 5 29 11 42 44 43 59 58 78 3 53 21 7 70 34 15 71 79 48 22 64 30 63 -73 -75 -46 -37 -62 -12 -25 -90 -81 -83 -61 -52 -31 -86 -91 -16 -8 -74 -24 -36 -6 -87 -17 -84 -77 -23 -88 0
58 23 24 2 21 68 -46 -71 0
86 72 49 59 63 18 4 62 25 39 52 60 64 13 32 6 42 44 71 38 40 75 80 67 1 10 89 34 5 69 51 91 73 22 61 65 41 28 78 26 23 35 3 77 81 15 14 2 -68 -83 -46 -87 -8 -33 -9 -70 -20 -57 -31 -36 -21 -48 -82 -74 -19 -12 -58 -66 -85 -90 -88 -55 -76 -16 -45 -30 -27 -7 -37 -11 -43 -84 -79 -24 -29 -54 -47 0
51 72 58 80 33 78 62 88 47 35 71 3 69 16 17 42 61 8 14 12 1 27 81 66 10 84 73 -29 -91 -60 -44 -25 -31 -48 -37 -39 -4 -32 -30 -85 -40 -89 -67 -54 -46 -26 -6 -22 -43 -82 0
39 73 50 54 12 46 34 15 30 78 37 71 62 55 57 68 61 74 53 89 24 22 26 1 75 6 3 31 19 20 33 -36 -85 -18 -42 -27 -10 -11 -44 -29 -49 -67 -2 -51 -56 -32 -58 -59 -45 -66 -76 -38 -52 -79 -84 -25 -40 -86 -81 -64 -28 -63 -35 -70 -5 -69 -47 -91 -16 0
65 46 3 28 71 10 64 38 39 47 70 91 37 13 45 89 53 5 68 12 48 34 87 67 44 85 59 54 90 27 19 33 82 -79 -55 -66 -22 -31 -80 -56 -30 -84 -60 -61 -35 -18 -73 -43 -16 -11 -49 -15 -7 -23 -88 -1 -72 -75 -41 -26 -52 -78 -51 -74 0
32 57 49 44 82 22 52 38 42 48 87 59 10 41 70 72 26 78 61 15 31 50 67 85 88 39 47 55 17 46 20 73 25 80 83 65 -33 -89 -34 -14 -58 -60 -6 -16 -40 -63 -68 -86 -74 -75 -23 -36 -71 -18 -90 -84 -2 -79 -4 -53 -8 -54 -3 -1 -35 -12 -45 -77 -56 -19 0
39 45 10 52 14 12 42 30 40 33 51 8 2 16 1 54 19 15 36 18 22 53 28 67 17 81 86 46 6 75 20 48 21 41 90 26 50 3 27 -74 -66 -34 -79 -59 -78 -57 -62 -29 -91 -72 -47 -85 -84 -88 -25 -37 -35 -76 -73 -24 -87 -49 -89 -55 -13 -64 -58 -68 -11 -69 -43 -4 -70 -65 0
2 83 -26 0
71 47 44 37 17 87 70 10 25 76 31 33 28 55 42 63 72 64 27 59 3 65 51 54 61 18 2 41 29 58 21 36 15 16 7 -40 -20 -66 -56 -12 -30 -52 -62 -90 -13 -60 -49 -5 -46 -14 -1 -53 -86 -39 -80 -68 -73 -32 -57 -22 -78 -9 -74 -38 -84 -77 -81 -79 -82 0
62 48 52 54 77 83 74 45 41 88 28 37 16 44 46 91 18 68 10 86 85 1 73 79 22 38 23 82 63 60 33 90 6 69 21 65 7 47 3 70 57 24 53 8 50 34 84 -11 -80 -2 -81 -76 -30 -66 -61 -59 -14 -19 -72 -87 -29 -4 -58 -42 -89 -35 -71 -51 -9 -27 -64 -75 -5 -39 -78 -25 -56 -67 -17 -31 -40 -32 -49 -55 -13 0
76 17 -62 -78 -12 -34 -52 0
9 78 29 58 90 73 83 33 24 37 64 65 38 3 34 8 69 79 89 47 56 46 30 44 27 84 74 67 76 11 51 85 52 28 87 6 16 53 57 61 22 7 48 26 18 -35 -60 -70 -75 -32 -20 -15 -12 -14 -41 -59 -81 -77 -4 -36 -68 -2 -71 -72 -13 -5 -63 -88 -62 -45 -1 -21 -39 -54 -91 -40 -49 -43 -82 -66 -17 -23 -19 -10 -55 -42 -25 -50 -31 0
31 62 20 56 29 18 57 5 61 50 63 35 23 80 69 73 86 30 9 54 7 -48 -42 -13 -22 -45 -47 -37 -82 -65 -60 -6 -70 -89 -91 0
2 4 14 56 42 8 57 70 79 50 47 52 32 76 43 13 19 80 11 49 -78 -72 -65 -75 -48 -35 -34 -7 -31 -62 -20 -90 -73 0
15 63 87 19 70 22 78 47 60 25 21 57 35 79 84 38 4 71 82 68 -64 -8 -72 -55 -75 -18 -62 -41 -76 -61 -69 0
20 14 78 48 41 15 79 11 62 31 29 42 21 45 82 64 27 19 6 23 40 65 50 85 76 70 43 80 52 75 86 88 69 55 28 35 83 44 25 73 81 63 22 74 59 30 -17 -71 -49 -7 -26 -32 -3 -24 -51 -33 -46 -60 -67 -4 -34 -66 -53 -57 -56 -68 -61 -36 -84 -39 -87 -8 -89 -37 -77 -58 -10 -9 -2 -47 -5 -18 -54 -16 -91 -1 -38 -12 -90 -72 0
1 4 49 78 20 14 69 81 56 35 25 77 59 19 74 89 48 21 13 44 73 70 62 -79 -68 -36 -16 -53 -75 -8 -31 -15 -29 -83 -66 -41 -5 -26 -42 -80 -63 -28 -64 -17 -32 -71 -58 -10 -54 -52 -46 -55 -45 -87 0
69 39 60 18 47 30 7 63 79 24 33 90 25 80 73 22 19 88 62 43 15 87 58 85 68 14 50 75 86 91 -32 -31 -49 -54 -67 -70 -76 -52 -17 -3 -8 -61 -55 -6 -16 -46 -59 -20 -83 -13 -53 -57 -81 -26 -28 -72 -48 -40 0
15 34 27 51 12 35 17 20 39 73 38 40 7 80 76 1 65 4 64 55 21 57 71 89 84 49 11 -28 -62 -59 -86 -36 -46 -23 -24 -9 -77 -2 -74 -78 -67 -32 -72 -16 -91 -66 -47 -37 -69 -43 -68 -88 -25 -41 -52 -29 -83 0
31 22 69 7 89 54 74 36 49 47 20 35 56 15 70 48 28 60 23 65 53 26 82 38 2 -71 -19 -39 -91 -58 -80 -34 -45 -11 -4 -87 -66 -43 -62 -30 -77 -52 -14 -44 -33 -63 -61 -18 -73 -29 -57 -55 -46 -13 -50 -42 0
55 25 75 87 60 15 8 71 18 90 26 68 81 56 72 17 77 65 20 74 21 24 38 1 76 -6 -29 -34 -52 -37 -80 -40 -83 -59 -61 -79 -54 -30 -62 -91 -36 -12 -48 -70 -9 0
68 38 23 90 71 36 53 31 73 22 59 61 79 88 35 85 81 87 62 42 13 55 26 11 75 30 -34 -6 -80 -18 -9 -44 -32 -65 -49 -72 -12 -7 -91 -16 -19 -74 -77 -48 -41 -86 -40 -60 -50 0
51 45 34 50 14 63 23 42 74 88 69 60 75 37 89 7 25 38 24 39 26 53 17 -47 -61 -91 -15 -43 -76 -11 0
81 1 47 14 50 4 32 58 75 29 19 55 70 88 45 13 24 44 67 22 10 60 83 33 62 8 64 61 49 16 54 87 42 89 76 77 74 -79 -36 -25 -91 -21 -26 -17 -85 -7 -69 -57 -40 -80 -37 -51 -53 -18 -56 -41 -5 -35 -63 -30 -46 -11 -20 -90 -38 -59 -71 -78 -86 -15 -48 -43 -31 -73 -72 -68 -9 -3 -23 -82 -6 -2 -66 -28 -52 0
31 21 63 64 61 16 52 60 15 58 33 55 10 14 22 4 20 78 71 40 17 27 13 51 41 67 91 87 25 79 83 28 11 -54 -24 -89 -43 -45 -38 -86 -44 -47 -9 -49 -35 -73 -81 -1 -6 -36 -7 -80 -3 -76 -77 -2 -29 -75 -82 -84 -26 0
10 26 20 12 49 39 58 61 47 46 4 80 75 84 52 68 62 27 73 81 15 11 7 9 63 76 -66 -35 -5 -89 -33 -36 -2 -24 -57 -29 -16 -55 -56 -32 -14 -54 -87 -60 -22 -67 -31 -83 -28 -13 -34 -25 -6 -90 0
26 43 77 83 24 53 70 76 35 9 7 67 82 4 91 31 -87 -14 -36 -38 -62 -47 -84 -5 -73 -48 -86 -45 -78 -90 -68 -28 0
15 30 52 81 86 6 84 13 17 62 -61 -29 -26 -38 -32 -23 -83 -59 -2 -5 -9 -71 -89 -87 0
59 35 87 79 60 21 86 72 36 24 17 77 64 45 2 43 54 46 1 62 66 28 52 88 68 3 50 7 85 8 9 49 61 91 83 37 -23 -55 -39 -27 -26 -25 -30 -14 -78 -31 -82 -38 -5 -29 -56 -70 -20 -34 -90 -48 -53 -89 -44 -42 -80 -4 -10 -15 -12 0
23 72 12 77 -5 -61 -8 -22 -85 -38 -46 -63 -89 -30 0
49 88 30 20 86 74 34 46 1 54 82 26 79 45 50 14 65 15 57 51 6 40 22 2 -78 -48 -76 -66 -28 -36 -21 -84 -72 -32 -70 -55 -87 -5 -44 -41 -4 -53 -90 0
45 78 31 51 79 74 17 73 58 43 85 24 2 65 60 42 87 38 81 48 86 49 80 67 56 28 61 22 68 75 90 26 20 -89 -8 -34 -84 -70 -46 -5 -54 -59 -83 -35 -50 -69 -13 -52 -36 -82 -7 -63 -21 -44 -72 -23 0
70 33 2 20 51 26 50 77 87 39 43 28 11 75 48 19 58 47 3 62 67 44 53 4 79 56 12 27 64 6 22 24 86 17 1 -66 -8 -54 -72 -46 -42 -37 -29 -84 -88 -69 -68 -16 -49 -23 -73 -32 -35 -41 -25 -10 -52 -57 -78 -60 -18 -61 -9 -85 -40 -90 -82 0
19 60 14 40 56 62 51 30 91 49 23 44 3 25 65 31 86 52 78 10 15 70 18 29 47 50 71 89 7 48 58 43 37 34 77 74 72 79 24 55 5 63 -13 -90 -80 -33 -57 -76 -12 -28 -2 -16 -61 -82 -21 -26 -75 -6 -17 -83 -39 -20 -32 -9 -38 -11 -85 -41 -46 -54 -84 -42 -73 -27 -64 -35 -81 -59 -45 -69 -4 -67 -8 -36 0
80 42 52 19 67 44 66 30 81 2 68 79 47 23 72 12 48 20 35 45 76 88 -33 -87 -65 -64 -11 -3 -17 -6 -26 -70 -32 -85 -43 -82 -1 -71 0
21 13 56 7 42 65 87 74 48 9 90 12 71 34 2 5 85 72 47 40 6 33 76 75 37 81 59 66 19 77 17 11 38 27 83 78 18 80 30 -69 -89 -61 -52 -3 -64 -1 -20 -82 -53 -10 -67 -28 -46 -39 -54 -58 -44 -73 -45 -70 -25 -16 -29 -55 -23 -14 -22 -4 -88 -79 -91 -41 -49 -8 -57 -43 -31 -32 -36 -15 -51 0
91 3 8 29 41 51 60 18 81 82 74 10 25 32 89 59 75 45 40 72 49 52 78 65 -38 -53 -19 -90 -15 -58 -50 -84 -35 -23 -71 -24 -2 -36 -86 -55 -73 -1 -30 -54 -62 -39 -83 -43 -17 0
47 64 3 9 91 1 83 84 10 59 19 34 45 33 58 12 70 15 -29 -65 -48 -40 -7 -87 -39 -62 -50 -24 -68 -76 -60 -74 -37 -23 -46 -4 0
90 1 86 47 36 50 22 52 89 48 39 65 26 17 28 21 15 35 75 73 87 8 78 42 51 49 38 82 34 69 6 61 54 29 67 85 10 30 20 72 11 16 27 79 9 60 -74 -59 -33 -80 -5 -31 -25 -32 -23 -7 -43 -44 -13 -88 -2 -84 -81 -55 -56 -40 -66 -4 -76 -91 -83 -63 -24 -71 -12 -70 -19 -57 -58 -45 -41 -46 -64 -37 -77 -53 -62 0
1 45 86 64 12 19 6 87 5 48 10 89 3 4 43 -40 -20 -73 -66 -84 -91 -53 -77 -59 -65 0
5 -10 -87 0
86 37 36 56 16 67 29 27 76 25 80 66 9 22 -34 -38 -46 -23 -58 -6 -50 -65 -75 -64 -35 -20 -77 0
31 78 85 32 10 84 37 6 22 76 26 79 42 58 41 25 54 80 8 52 50 35 24 73 -83 -61 -27 -49 -34 -51 -48 -13 -87 -1 -74 -65 -12 -60 -62 -3 -36 -15 -86 -81 -69 -18 -19 -55 -77 -91 -45 -57 0
89 54 90 7 91 12 86 42 39 82 10 55 77 33 45 31 40 4 43 26 11 30 63 70 -64 -62 -36 -16 -48 -58 -76 -23 -80 -84 -13 -49 -66 -72 -59 -52 -3 -35 -29 -71 -2 -50 -87 0
64 79 70 90 86 50 5 18 91 55 74 33 39 20 11 34 35 58 12 63 76 80 36 68 21 73 40 23 71 56 46 26 78 37 27 67 43 15 59 -19 -29 -61 -85 -47 -6 -75 -41 -49 -2 -83 -16 -8 -45 -54 -88 -65 -82 0
87 56 57 18 77 34 81 14 90 59 73 82 44 58 1 5 48 -63 -9 -75 -85 -50 -45 -24 -52 -23 -2 0
3 54 30 66 -24 -31 -36 -71 -14 -47 -64 -65 -62 -57 0
33 8 27 52 35 15 24 86 58 77 62 66 74 46 81 19 55 89 57 16 44 91 83 82 51 13 30 40 20 12 29 67 22 34 72 78 6 49 -87 -38 -70 -25 -69 -4 -68 -32 -53 -64 -28 -73 -56 -17 -63 -47 -37 -7 -61 -5 -50 -59 -48 -11 -26 -36 -31 -3 -65 -41 -85 -1 0
13 51 48 62 15 40 44 11 21 87 16 64 10 59 71 75 33 3 39 7 91 24 66 25 27 6 -36 -78 -58 -35 -31 -57 -42 -1 -70 -55 -67 -50 -5 -88 -69 -8 -18 -9 -72 -81 -37 -56 -17 -43 -68 -46 -47 -23 -38 -54 -19 -41 -52 0
53 63 68 40 86 25 3 11 10 65 28 27 33 56 81 50 31 -70 -4 -43 -49 -14 -55 -88 -16 -62 -36 -60 -74 -66 -34 -24 -39 -5 0
67 27 66 79 80 65 28 7 55 10 3 8 19 40 90 41 12 73 14 74 77 35 62 44 78 -58 -70 -42 -17 -59 -53 -38 -88 -81 -64 -22 -47 -36 -11 -51 -63 -52 -18 -31 -25 -87 -76 -46 -69 0
85 28 77 88 69 58 49 6 52 45 31 64 7 54 51 26 16 25 89 22 21 81 70 59 75 -8 -90 -17 -24 -40 -37 -60 -14 -74 -4 -5 -29 -38 -30 -20 -23 -53 -34 -1 -68 0
23 78 24 9 75 89 91 7 84 12 63 45 30 38 10 11 90 28 65 82 55 85 15 -66 -62 -71 -21 -40 -39 -67 -18 -76 -20 -58 -4 -77 -60 -29 -26 -50 -19 -3 0
80 63 22 55 18 88 85 72 86 39 6 57 33 48 52 66 10 90 -77 -56 -21 -64 -3 -62 -13 -4 -29 -14 -83 -42 -78 -68 -46 -71 -51 -8 -69 -1 0
27 30 91 -3 -60 -34 -40 -67 -87 0
86 5 6 42 84 8 65 50 3 70 81 69 82 38 74 9 62 89 39 85 20 17 52 -11 -33 -57 -77 -35 -45 -21 -46 -24 -63 -51 -32 -72 -36 -53 0
38 70 -1 -78 0
39 51 85 71 48 8 86 53 21 59 1 78 63 44 27 37 74 90 2 79 84 35 77 91 75 6 22 28 52 80 72 66 56 13 70 23 88 76 31 47 7 82 57 15 46 26 5 -49 -17 -60 -42 -67 -50 -19 -34 -41 -24 -3 -64 -10 -36 -9 -55 -81 -54 -30 -18 -43 -4 -68 -61 -73 -69 -12 -89 -29 -11 -20 -87 -25 -33 -45 -38 -32 -62 -40 -83 -58 0
33 75 48 22 81 84 72 83 86 29 71 5 50 11 44 26 15 41 30 34 14 85 12 74 36 54 20 4 49 2 73 67 64 17 -24 -52 -88 -16 -58 -7 -59 -47 -45 -78 -61 -87 -37 -32 -63 -91 -13 -21 -60 -57 -90 -27 -55 -80 -10 -35 -1 -39 -82 -77 -31 -3 -38 -18 -70 -89 -53 -68 -43 -51 -62 -56 -28 -19 -42 -8 -46 -25 0
31 1 44 59 67 88 43 -47 -75 -2 -20 -26 0
66 39 67 32 29 8 18 30 25 36 17 69 61 72 22 6 59 58 -19 -47 -79 -53 -40 -11 -1 -51 -37 -87 -91 -62 -33 -78 0
26 38 77 68 64 88 -15 -85 -34 -16 -6 0
78 63 55 1 27 62 16 34 28 87 38 35 37 83 24 3 88 72 11 58 69 51 2 23 61 73 7 89 12 67 -41 -56 -76 -32 -65 -68 -50 -21 -47 -17 -31 -36 -30 -71 -39 -80 -75 -29 -59 -54 -14 0
68 62 85 50 42 64 86 91 56 13 87 20 80 43 1 37 73 76 -6 -28 -29 -74 -40 -78 -60 -69 -34 -5 -33 -19 -21 -75 -41 -71 -77 -8 -55 0
70 23 79 18 36 24 69 87 13 2 31 48 56 71 85 90 4 -91 -40 -45 -6 -86 -16 -50 -49 -10 -75 -3 -82 -29 -41 -63 -89 -59 -34 -19 -54 -74 -76 -62 -8 -72 -57 -11 -65 0
39 20 1 72 47 71 15 25 10 28 43 29 70 76 56 87 9 41 55 91 50 34 61 40 80 62 16 57 7 17 51 53 32 89 83 31 45 36 66 90 3 64 81 54 2 -19 -11 -38 -37 -88 -58 -46 -14 -24 -68 -6 -49 -75 -27 -52 -73 -65 -63 -86 -48 -59 -84 -79 -35 -5 -44 -4 -22 -85 -42 -23 -26 -60 -33 -13 -12 -30 -21 -67 -78 0
44 83 12 29 25 28 39 61 38 69 6 59 32 45 42 27 87 23 43 53 30 50 80 4 46 74 57 70 63 22 -7 -31 -72 -20 -68 -84 -33 -5 -8 -48 -41 -89 -15 -2 -47 -64 -60 -16 -66 0
67 15 88 8 4 76 23 20 11 26 68 25 5 28 6 54 35 10 39 -41 -36 -77 -66 -19 -53 -3 -12 -40 -82 -64 -22 -78 -16 -44 -72 -48 -45 -32 -43 -34 -83 0
1 61 56 67 23 78 40 37 19 12 41 58 -6 -4 -3 -39 -63 -24 -50 -79 -42 -14 -33 -88 -91 -60 -26 -90 -38 -80 0
7 77 44 90 53 64 46 43 15 73 65 80 76 82 71 -24 -51 -22 -84 -85 -4 -17 -59 -26 -79 -10 -91 -33 -62 -14 -57 -81 -56 -31 -78 -47 -50 -16 -29 -9 -42 -37 -58 0
25 49 68 24 35 70 84 8 85 54 36 80 71 59 31 22 72 39 16 23 90 40 61 4 87 43 14 44 73 76 56 3 57 62 91 79 75 45 48 51 28 9 18 19 74 55 41 83 -26 -77 -10 -47 -88 -37 -33 -52 -30 -7 -60 -81 -5 -50 -20 -46 -13 -64 -53 -32 -69 -12 -89 -6 -82 -1 -65 -11 -66 -17 -29 -2 -15 -27 -38 -86 -78 0
36 59 88 -32 -48 -4 -35 -82 -14 -22 -37 -77 -80 -74 0
79 85 2 19 78 66 35 65 71 3 59 22 74 70 46 28 88 16 64 50 61 12 81 18 20 84 73 54 68 31 69 15 91 42 34 29 -14 -9 -49 -76 -37 -24 -80 -75 -25 -45 -21 -6 -87 -63 -30 -40 -58 -17 -27 -43 -7 -4 -41 -39 -60 -89 -5 0
12 23 25 46 45 76 36 21 61 86 37 -9 -58 -42 -50 -90 -68 -88 -55 -91 -16 -10 0
87 32 7 23 62 1 37 29 21 20 73 -76 -58 0
54 60 31 30 87 80 78 26 35 86 84 25 43 49 1 2 13 3 64 73 41 66 70 58 21 23 8 82 47 76 15 -32 -44 -63 -59 -67 -91 -39 -18 -71 -10 -90 -5 -83 -52 -17 -4 -12 -55 -48 -81 -37 -74 -24 -11 -75 -28 -22 -29 -38 -7 -42 -61 -6 -88 -34 -65 -85 -33 0
77 42 7 35 17 50 3 58 23 19 41 2 52 18 79 21 -63 -30 -65 -82 -44 -68 -54 -5 -59 -9 -34 -49 -6 -11 -73 -24 -69 -37 -90 -83 -48 -70 -66 0
23 25 44 91 1 85 82 87 48 38 17 46 70 66 65 43 73 16 28 21 34 83 33 24 37 26 72 88 61 84 30 79 32 35 45 9 -42 -62 -60 -22 -14 -13 -50 -10 -81 -77 -4 -39 -63 -89 -52 -86 -55 -67 -80 -49 -3 -12 -6 -58 -90 -8 -59 -69 -47 -20 -56 -68 -11 -7 -51 -53 -57 -5 -18 -19 -71 -36 -54 0
45 1 65 18 68 61 47 84 69 80 21 19 26 7 79 64 44 55 12 33 75 28 53 48 -81 -87 -20 -42 -4 -27 -29 -78 -2 -46 -91 -31 -57 -34 -9 -63 -76 -10 0
88 7 -40 -73 -55 -67 0
46 40 29 39 20 19 86 67 -90 -15 -2 -32 -82 -12 -42 -55 0
71 15 70 66 32 47 1 81 82 30 87 7 84 80 64 59 13 45 75 11 89 73 26 41 44 -16 -28 -6 -10 -79 -55 -68 -21 -74 -35 -8 -83 -27 -12 -42 -20 -63 -19 -25 -48 -72 -18 -61 -39 -65 -90 -14 -56 -86 -49 -58 -46 0
48 27 12 5 1 44 80 37 82 79 83 62 7 71 23 70 46 14 85 86 18 26 33 40 49 77 76 42 3 21 31 13 50 91 38 72 35 39 20 53 90 51 54 -81 -66 -59 -29 -60 -22 -2 -36 -4 -24 -41 -34 -30 -55 -15 -57 -58 -75 -89 -56 -63 -65 -45 -19 -73 -47 -67 -84 -64 -16 -78 -52 -8 -68 -32 -88 -25 -17 -74 0
79 91 67 34 83 78 21 82 8 12 37 74 51 53 18 73 3 4 24 25 20 55 9 72 88 52 42 32 46 41 84 30 13 60 90 -61 -1 -56 -15 -81 -22 -89 -75 -45 -85 -10 -69 -47 -50 -2 -28 -23 -26 -31 -49 -27 -14 -80 -5 -65 -68 -70 -40 -35 -33 -48 -11 -19 -77 -44 -64 -38 -7 -36 -59 -39 0
74 19 7 2 66 79 75 46 65 27 55 88 62 30 14 76 32 24 45 1 11 49 37 31 89 33 26 81 54 53 29 38 61 6 25 44 34 16 5 15 -47 -73 -59 -83 -72 -56 -41 -10 -52 -4 -80 -8 -57 -91 -71 -13 -82 -78 -77 -40 -67 -22 -12 -85 -18 -51 -48 -64 -86 -42 0
40 61 72 21 38 22 16 15 50 27 7 44 46 3 69 53 29 5 37 24 25 30 88 23 -32 -68 -56 -83 -12 -14 -66 -75 -42 -1 -8 -90 -33 -65 -35 -84 -28 -49 0
67 31 73 33 28 44 61 6 42 34 81 91 79 60 68 90 41 21 25 3 65 9 56 58 26 88 57 85 80 46 45 70 64 35 89 18 -15 -76 -14 -16 -2 -36 -43 -87 -47 -66 -13 -50 -5 -11 -38 -22 -24 -83 -62 -7 -55 -52 -23 -39 -71 -54 -72 -12 -4 -10 -27 -48 -74 -75 -37 -63 -53 -8 -29 -78 -1 -82 -69 -19 0
60 57 0
76 68 87 35 18 88 41 19 70 82 13 47 58 73 80 67 79 74 10 91 34 7 50 4 75 86 44 2 12 -77 -89 -49 -72 -81 -52 -30 -14 -62 -24 -8 -17 -40 -3 -61 -65 -25 -63 -36 -31 -26 -37 -78 -16 -32 -22 -66 -38 -60 -53 -27 -33 -48 -45 -59 -64 -57 0
25 14 66 75 21 18 52 56 82 55 58 38 5 69 62 32 60 9 -68 -42 -22 -39 -35 -11 -79 -48 -33 -47 -41 -83 -10 -84 -40 -85 -23 -13 -12 -54 -29 -61 -57 -34 -81 -72 -77 0
2 44 74 55 90 15 85 4 78 39 3 49 60 80 65 8 69 6 63 47 45 33 17 61 88 71 7 24 46 66 77 36 50 16 31 64 81 19 53 86 62 51 56 38 79 22 -37 -43 -73 -70 -20 -83 -5 -54 -89 -48 -84 -10 -57 -67 -28 -52 -26 -25 -76 -87 -40 -27 -30 -58 -59 -1 -72 0
22 48 81 19 3 2 43 84 17 58 28 61 27 72 7 40 38 56 16 51 54 -30 -57 -88 -6 -8 -10 -78 -29 -25 -13 0
11 20 59 77 62 14 -54 -1 -73 -33 -48 -8 -84 -18 -41 -85 -76 -67 0
36 17 84 77 13 75 71 52 10 50 57 12 53 -23 -37 -24 -91 -19 -26 -76 -90 -11 -49 -14 -32 -20 -18 0
7 39 31 13 11 15 32 30 50 79 2 35 48 66 25 58 91 89 12 87 63 -88 -51 -74 -68 -55 -53 -9 -3 -22 -8 -46 -19 -18 0
53 13 32 10 66 45 60 3 21 40 76 87 37 2 56 77 42 48 50 12 8 75 47 49 6 67 44 81 58 24 -46 -9 -55 -14 -61 -78 -85 -72 -26 -68 -69 -62 -33 -83 -70 -5 -63 -59 -73 -22 -79 -86 -36 -29 -19 -54 -7 -4 0
76 75 54 58 90 69 27 41 15 23 72 34 10 64 66 46 84 36 38 4 2 52 21 -81 -51 -87 -7 -55 -33 -6 -19 -45 -53 -68 -57 -82 -65 -62 -63 -11 -88 0
34 22 20 91 77 23 37 7 21 60 4 56 76 65 2 46 38 67 81 83 75 36 70 -14 -85 -16 -90 -41 -55 -51 -82 -89 -84 -68 -86 -49 -33 -62 -52 -59 -48 -72 -30 -58 -54 -66 -10 -27 -87 0
31 7 36 83 57 30 71 49 66 56 89 43 91 41 19 70 22 38 1 39 80 23 46 67 50 10 -62 -5 -59 -8 -16 -2 -81 -14 -53 -77 -29 -79 -68 -54 -3 -86 -90 -78 -18 -82 -32 -35 -55 -40 -75 -51 -17 -6 -52 -26 -48 -76 -74 -69 -72 -12 -88 -13 -65 0
79 48 52 62 -68 -40 -86 -84 -87 -57 -2 0
76 13 53 86 20 49 6 18 25 4 89 74 62 47 77 69 16 2 29 -22 -10 -56 -71 -78 -72 -48 -65 -3 -64 -54 -41 -8 -83 -91 -60 -84 0
51 35 33 40 23 62 74 84 91 49 50 87 22 46 8 10 82 44 73 67 86 78 14 56 26 5 70 15 60 90 77 76 80 34 52 29 42 11 69 75 39 81 6 41 3 63 65 38 9 32 88 66 36 55 -27 -28 -48 -85 -72 -31 -68 -2 -71 -24 -16 -61 -19 -18 -12 -59 -57 -30 -13 -20 -21 -47 -25 -89 -53 -79 -45 -17 -1 -7 0
28 18 7 82 52 47 34 60 46 9 75 65 70 19 50 69 -74 -15 -91 -25 -83 -36 -86 -79 -22 -6 -40 -13 -61 -67 0
62 69 23 80 89 20 44 34 54 71 2 31 36 48 -46 -9 -8 -52 -58 -63 -88 -45 -91 -47 -26 -42 -72 -79 -32 -19 -25 -1 -6 -78 -27 -70 -41 -56 0
75 31 87 41 57 55 47 34 6 84 44 64 3 71 -38 -69 -51 -79 -18 -16 -49 -89 -88 -86 -73 -72 0
10 48 9 33 43 -53 -87 0
88 11 -78 -46 -30 0
73 58 76 37 47 74 44 41 26 80 43 20 75 19 5 69 34 9 6 21 67 3 23 11 72 85 55 88 42 78 18 89 65 -36 -90 -35 -70 -8 -61 -1 -53 -83 -7 -29 -91 -48 -84 -60 -27 -50 -66 -87 -4 -17 -56 -40 -68 -14 -51 -45 -33 -39 -2 -59 -46 -22 -28 -71 -63 -15 -81 0
4 46 -16 -65 -42 -72 -60 -31 -85 -48 -7 -13 -40 -56 0
16 30 45 48 82 53 8 3 58 65 84 64 21 61 36 46 63 49 10 43 22 25 50 60 79 1 62 14 19 72 5 71 -74 -91 -27 -12 -26 -31 -83 -81 -2 -76 -33 -13 -37 -28 -47 -40 -18 -11 -75 -55 -69 -86 -32 -56 -54 -20 -87 0
1 38 20 86 84 12 26 67 76 19 29 49 88 -37 -48 -16 -53 -33 -91 -18 -11 -31 -66 -59 -57 -36 0
49 5 56 38 45 43 68 63 16 90 17 85 22 78 74 -24 -8 -59 -15 -32 -13 -25 -9 -87 -54 -37 -84 -12 -41 -50 -62 -10 0
58 62 53 46 9 71 51 31 54 15 42 63 3 -34 -44 -66 -30 0
82 47 87 2 77 35 42 25 91 33 7 38 64 30 22 26 -40 -53 -13 -41 -48 -43 -18 -71 -27 -72 -67 -36 -55 -46 -73 -89 -16 -12 -1 0
2 68 62 47 10 16 22 30 26 33 28 11 15 21 18 91 27 25 48 9 34 1 66 35 3 65 90 59 63 41 43 61 -6 -88 -78 -50 -87 -71 -67 -54 -69 -20 -58 -42 -85 -89 -23 -53 -37 -46 -17 -7 -32 -4 -49 -40 -77 -14 -13 -83 0
5 2 80 63 23 33 19 58 -36 -11 -54 -86 -83 -46 0
6 35 46 68 66 27 39 9 70 41 22 44 21 26 4 77 71 31 -37 -36 -62 -73 -58 -16 -88 -63 -13 -10 -52 -54 -34 -3 -17 -75 -32 -76 0
3 72 -53 -88 -47 -54 0
79 67 3 48 13 29 54 81 41 38 76 75 66 60 78 73 8 24 91 2 84 74 11 90 52 45 -30 -39 -15 -77 -37 -53 -16 -17 -72 -9 -19 0
49 68 60 69 31 77 53 25 56 3 80 28 90 16 64 17 4 73 42 89 78 75 -51 -33 -47 -36 -72 -26 -83 -86 -24 -22 -58 -65 -48 -59 -81 -9 -21 -10 -8 -20 -91 -13 -61 -2 0
81 62 37 79 8 78 91 87 18 -19 -24 -48 -46 -33 -58 -5 -83 -73 -4 0
74 52 85 86 18 51 56 11 8 32 60 50 21 22 6 89 10 -46 -62 -23 -84 -68 -39 -5 -48 -57 -91 -61 -35 -58 -4 -83 -64 -33 -2 -47 -7 -27 -88 -19 0
90 60 19 29 58 83 39 34 74 47 6 4 66 49 91 80 88 44 89 13 59 30 9 77 53 76 43 68 52 42 35 50 48 40 22 73 5 10 3 63 14 65 61 21 16 -41 -17 -32 -20 -12 -36 -87 -64 -8 -2 -86 -33 -45 -72 -82 -70 -24 -1 -26 -28 -78 -23 -57 -84 -71 -81 -31 -46 -56 -15 -51 -37 -69 -79 -67 -27 -11 -55 -25 -75 0
11 26 35 79 3 2 20 49 70 30 22 32 54 81 83 15 16 75 91 59 31 82 5 28 62 44 71 42 88 87 14 84 66 47 63 43 60 41 34 68 74 39 86 80 21 46 51 4 58 72 12 -67 -65 -33 -8 -18 -36 -29 -52 -37 -48 -78 -6 -69 -50 -89 -73 -19 -61 -27 -90 -64 -7 -17 -10 -25 -53 -13 -45 -1 -57 -9 -23 -85 -77 -55 -56 -24 -40 0
9 21 7 16 2 11 86 84 24 61 37 25 77 19 53 69 8 83 27 1 79 73 78 15 3 56 10 64 31 66 12 36 28 68 63 43 88 34 4 91 13 -38 -23 -17 -40 -50 -32 -46 -6 -59 -41 -20 -48 -22 -81 -60 -47 -82 -57 -67 -45 -42 -54 -75 -74 -55 -26 -80 -18 -65 -52 -87 -44 -14 -90 -70 -62 -85 -76 -71 -35 -72 -39 -51 -5 -29 -49 -89 0
60 88 3 6 34 75 10 27 69 29 86 7 12 57 70 11 50 64 -33 -91 -26 -49 -73 -22 -87 -4 -48 -15 -77 -52 -54 -45 -30 -72 -89 -36 -32 -62 -66 -55 -67 0
8 29 53 46 75 3 9 7 37 59 79 51 38 24 14 34 61 23 52 43 16 42 74 13 33 5 50 22 32 21 39 86 11 55 6 60 18 12 30 89 64 67 4 17 47 20 69 -56 -45 -31 -54 -25 -68 -84 -91 -63 -81 -40 -85 -2 -28 -76 -80 -44 -72 -58 -26 -88 -87 -62 -19 -73 -66 -83 -10 -15 -71 -36 -90 -1 -48 -77 -82 0
75 56 12 83 81 71 58 49 87 62 10 34 22 11 84 8 -47 -30 -77 -85 -14 -74 -79 -44 -78 -23 -37 -76 -66 -39 0
43 38 28 29 56 51 18 57 19 84 24 4 27 58 26 9 7 80 -52 -47 -63 -49 -85 -12 -81 -40 -5 -77 -3 -64 -79 -45 0
27 81 35 51 70 82 4 47 18 36 15 25 26 71 33 48 21 49 -22 -80 -77 -53 -41 -31 -83 -6 -12 -64 -20 -37 -38 -23 0
84 59 12 21 47 46 75 89 -57 -24 -62 -79 -87 -43 -42 0
17 12 35 83 3 9 80 63 21 59 24 20 11 -89 -53 -90 0
36 9 54 78 62 52 25 41 60 79 19 27 4 2 85 31 -15 -76 -71 -74 -65 -69 -26 -46 -8 -30 -68 -3 -57 0
19 56 58 72 86 40 3 7 85 77 43 31 25 45 91 -16 -80 -83 -20 -70 -17 -60 -63 -14 -78 -1 -30 -12 0
34 75 25 91 27 36 84 19 43 6 67 56 60 48 86 45 71 23 81 65 58 87 80 82 18 10 -38 -61 -47 -49 -77 -12 -35 -20 -63 -85 -15 -4 -54 -37 -57 -76 -7 -14 -68 -29 -74 -30 -51 0
25 59 7 61 28 52 23 64 26 19 37 51 58 62 53 32 35 14 41 18 20 87 85 39 4 80 71 49 43 12 -21 -73 -56 -29 -67 -86 -79 -34 -17 -44 -90 -76 -8 -10 -89 -9 0
26 25 33 70 85 57 58 84 59 20 19 78 4 17 39 66 35 29 32 16 7 72 88 30 14 -53 -91 -11 -5 -21 -56 -50 -47 -45 -2 -46 -87 -90 -37 -15 -10 -28 -64 -69 -8 -77 -65 -63 -82 -31 -81 -40 0
62 40 36 61 4 87 16 43 82 63 85 90 6 50 30 89 32 84 45 18 9 75 26 57 73 -54 -37 -60 -64 -10 -23 -41 -53 -78 -79 -38 -39 -71 -19 -70 -56 -80 -34 -21 -48 -69 -74 -58 -8 -5 -14 -25 -13 -35 -27 -29 -42 -12 -65 -17 -83 -55 -31 -47 -86 -88 -68 -66 0
62 32 44 -12 -60 -40 -34 -50 -43 0
41 24 22 90 44 37 81 23 60 16 70 6 49 10 53 58 33 87 12 39 21 91 74 83 63 15 18 38 13 62 27 67 36 79 47 9 -31 -72 -40 -55 -28 -7 -34 -32 -11 -85 -1 -89 -2 -76 -4 -26 -54 -56 -71 -45 -73 -17 -3 -88 -48 -66 -57 -29 -80 -61 -5 -64 -65 -35 -78 -86 -59 -50 -20 -77 0
71 75 86 46 5 24 61 8 -9 -47 -40 -81 -18 -58 -50 -37 -54 -23 0
82 54 23 83 8 77 57 86 40 75 9 31 20 7 59 18 87 50 53 17 34 3 78 76 -68 -37 -41 -84 -12 -4 -64 -25 -58 -22 -39 -60 -66 -43 -81 -67 -63 -42 -14 -21 -16 -91 -89 -13 -38 -85 -2 -70 -26 -73 -71 -61 -15 -56 -45 -44 0
24 9 57 83 39 3 32 47 59 84 14 17 49 13 86 42 25 68 48 52 26 38 27 31 69 85 -8 -45 -91 -81 -36 -55 -53 -16 -89 -37 -20 -63 -5 -64 -74 -29 -54 -56 -58 -46 -43 -77 -87 -75 -18 -44 -35 -67 -19 -73 0
52 57 40 28 13 22 80 46 34 65 78 19 36 15 70 2 41 48 29 1 60 33 76 63 71 67 35 49 39 25 59 68 69 11 64 20 83 17 54 81 -82 -77 -58 -44 -45 -12 -30 -88 -42 -47 -87 -16 -91 -3 -90 -53 -72 -75 -85 -6 -26 -18 -37 -4 -7 -84 -61 -51 -14 0
2 69 54 64 17 48 28 60 55 50 49 75 40 59 39 12 29 1 34 61 32 -4 -24 -35 -30 -18 -43 -66 -71 -81 -89 -22 -62 -37 -27 -14 -63 -15 -79 -57 -13 -38 -53 0
60 45 79 73 41 42 20 52 83 74 61 43 22 18 28 30 84 55 48 11 72 8 81 66 49 -67 -4 -87 -44 -71 -54 -12 -36 -57 -69 -35 -10 -85 -14 -89 -65 -70 -23 -29 -39 -6 -88 -3 -15 -77 -37 -50 -21 -25 -38 0
58 78 84 12 43 86 6 72 90 19 -27 -4 -74 -44 -65 -49 -66 -22 -83 -61 -14 -31 0
83 37 38 3 11 71 18 27 16 67 79 6 34 69 8 75 35 63 84 2 62 26 82 68 80 57 20 74 29 61 88 24 23 50 25 70 13 41 -51 -47 -87 -54 -77 -1 -10 -73 -81 -56 -65 -44 -39 -40 -64 -12 -89 -22 -90 -49 -33 -85 -28 -91 -53 -19 -43 -7 -55 -32 -59 -45 -21 -9 -4 -76 -36 -46 -15 -52 -31 -86 -48 -14 -42 -30 -66 -5 -58 -60 -78 -17 0
76 13 52 49 8 41 73 4 78 88 83 64 6 84 26 50 70 18 27 20 56 91 80 34 35 16 14 22 48 10 38 62 59 77 17 25 24 82 47 -65 -57 -31 -7 -69 -46 -51 -1 -74 -79 -11 -87 -81 -89 -71 -68 -72 -36 -86 -44 -85 -61 -66 -2 -53 -33 -45 -90 -39 -42 -5 -21 -37 -3 0
-14 -10 0
15 82 51 77 78 49 52 45 66 65 56 23 38 57 63 43 17 62 13 5 3 84 -64 -85 -50 -6 -25 -16 -90 -41 -47 -44 -1 -4 -46 -20 -53 -83 -70 -26 -68 -9 -87 -59 -76 -54 -81 -32 -34 -61 -14 -35 0
81 64 26 10 76 75 7 73 62 89 23 66 77 53 87 65 28 91 54 22 31 4 20 5 27 72 34 85 69 21 16 19 15 -61 -12 -67 -42 -46 -58 -84 -51 -32 -6 -68 -80 -11 -88 -57 -2 -30 -82 -48 -59 -55 -83 -39 -14 -45 -60 -17 -8 -40 -18 -56 -47 -50 -43 -90 -29 -1 -44 -24 -41 -3 -37 -9 -70 -71 -86 -33 -25 -13 -38 -74 0
72 53 36 41 39 87 55 32 80 -85 -3 -75 -57 -8 -30 -66 -88 -42 -40 0
78 -4 -29 0
88 66 79 34 83 3 40 50 48 91 49 65 51 1 25 29 45 35 72 -33 -8 -64 -87 -74 -14 -70 -36 -68 -10 -67 -80 -9 -31 -89 -60 -32 -4 -15 -5 -38 -13 -2 -19 -59 0
58 82 16 30 26 84 23 19 -22 -10 -66 -35 -57 -85 -14 -33 -87 -24 -20 0
2 42 12 72 35 77 27 8 76 37 82 66 41 10 85 46 62 60 90 40 79 63 64 14 1 3 23 38 54 73 24 16 75 45 52 61 83 17 44 -29 -5 -91 -39 -11 -78 -67 -88 -15 -59 -6 -4 -84 -20 -21 -7 -81 -43 -26 -58 -55 -34 0
81 24 58 32 60 69 82 70 77 53 62 85 11 3 84 17 27 55 10 6 59 36 20 30 61 74 56 33 91 48 35 37 7 -71 -40 -51 -57 -1 -54 -83 -26 -4 -67 -90 -5 -13 -15 -45 -50 -14 -73 -86 -76 -38 -52 -28 -42 -80 -21 -72 -16 -89 -64 -22 -68 -44 -34 0
79 28 34 21 8 77 20 3 32 42 4 9 76 60 31 33 90 89 65 30 13 72 50 69 49 56 45 29 62 82 24 75 -91 -15 -36 -39 -2 -1 -35 -7 -18 -74 -80 -47 -54 -14 -52 -87 -71 -64 -81 -16 -41 -37 -73 -88 -78 -53 -44 -84 -83 -55 -66 -46 -63 0
5 37 53 46 79 42 54 73 86 78 44 27 8 50 76 48 90 57 82 59 36 66 -77 -6 -16 -62 -11 -22 -47 -32 -45 -34 -89 -19 -7 -71 -75 -1 -64 -20 -23 0
3 51 58 -46 -28 -17 -34 -60 -14 -5 0
46 81 49 42 8 11 23 34 77 21 86 53 90 -69 -47 -4 -71 -65 -52 -56 -24 -51 -12 -70 -73 0
49 27 57 89 73 51 10 23 53 6 58 -14 -38 -20 -62 -39 -86 -40 -71 -32 -48 0
10 84 61 33 80 34 63 73 21 58 79 14 72 -13 -41 -32 -23 -82 -54 -18 -38 -76 0
88 63 54 75 22 45 48 82 86 34 61 57 79 41 66 89 42 1 39 6 55 32 62 2 90 -14 -70 -68 -36 -72 -65 -40 -33 -24 -50 -17 -71 -78 -49 -38 -44 -26 -7 -35 -52 -25 -23 -83 -16 -15 -91 -30 0
-4 -86 -64 -73 -25 0
18 81 55 -82 -78 -50 -8 -25 -73 -84 0
2 53 59 21 16 22 48 60 19 14 64 45 50 8 43 42 15 80 11 54 51 74 -9 -33 -62 -4 -1 -61 -66 -34 -12 -46 -49 -37 -55 -69 -56 -41 -13 -79 -78 -65 -86 -67 -23 -91 0
15 53 51 45 72 66 56 59 68 55 10 49 46 8 37 62 63 20 82 -28 -33 -16 -84 -36 -90 -14 -40 -52 -57 -17 -38 -81 -12 -69 -3 0
82 85 25 18 67 78 30 46 91 84 74 3 86 88 17 51 29 87 38 80 76 71 39 69 23 75 6 45 -16 -59 -55 -53 -35 -89 -5 -8 -14 -32 -62 -27 -81 -65 -48 -66 -20 -36 -54 -79 -41 0
66 4 26 -35 -79 -86 0
90 88 70 15 2 71 7 39 40 26 64 52 32 46 58 41 36 44 25 22 63 34 10 20 42 3 80 55 69 74 50 6 56 8 77 23 21 -30 -57 -86 -16 -82 -49 -65 -75 -81 -59 -33 -27 -4 -5 -84 -38 -67 -61 -85 -11 -60 -14 -66 0
88 -79 -48 0
