c NeuroCodeBench 2.0 CNF formula with verdict Sat
p cnf 72 383
13 7 2 3 -15 -14 -1 -30 -56 -22 -69 -28 -49 0
45 26 58 23 11 20 32 57 14 12 53 -44 -71 -4 -21 -6 -67 -66 -40 -10 -5 0
36 39 64 1 41 10 28 63 65 25 16 30 26 40 8 32 66 17 14 61 9 55 60 42 33 19 18 2 29 68 23 31 69 44 70 -54 -24 -59 -45 -56 -11 -7 -57 -15 -47 -34 -72 -51 -67 -52 -58 -43 -4 -22 -71 -46 -37 -38 -13 -35 -49 -21 -3 -6 -5 -53 -50 -20 -27 -48 0
62 50 36 46 18 28 60 49 56 38 22 66 72 63 13 41 8 1 45 32 31 34 37 61 -51 -58 -71 -6 -69 -14 -11 -3 -17 -29 -59 -4 -21 -54 -67 -10 -24 -43 -5 -30 -25 -65 -16 -39 -15 -42 0
41 35 39 70 68 4 51 49 2 13 12 14 9 7 50 32 59 33 17 71 31 28 47 58 -6 -19 -1 -56 -3 -23 -65 -8 -60 -34 -72 -26 -18 -45 -64 -40 -48 -55 -27 -37 -15 -44 -57 -66 -24 -20 -11 0
53 33 -24 -8 0
23 45 69 9 20 27 3 30 24 7 31 28 71 55 12 70 11 47 41 25 -6 -34 -59 -35 -36 -22 -58 -54 -19 -2 -15 -57 -13 -16 -17 -29 -64 -14 -53 -38 -56 -61 -40 0
35 25 18 42 43 70 53 4 61 24 13 21 64 20 44 39 63 50 23 15 17 -5 -8 -72 -60 -48 -7 -32 -12 -22 -3 -28 -45 -16 -54 -9 -36 -52 -46 -66 -67 -71 -26 -40 -2 -34 -27 -38 -37 -57 -41 -68 -10 -65 -14 -55 -1 0
31 55 2 35 11 12 50 48 39 13 14 41 9 16 36 45 19 67 3 15 70 27 7 49 52 47 34 68 58 -62 -53 -32 -57 -59 -28 -72 -26 -6 -44 -17 -61 -43 -8 -25 -54 -65 -24 -38 -18 -5 -10 -69 -56 0
22 21 32 43 51 7 39 54 12 11 2 26 50 48 71 27 64 63 3 53 45 70 68 19 24 66 38 67 16 6 52 72 5 31 8 37 14 23 49 29 25 -18 -10 -34 -9 -1 -47 -20 -17 -44 -33 -59 -13 -62 -30 -65 -58 -60 -40 -61 -57 -36 -15 -55 -56 -35 -41 -28 -69 0
22 33 38 29 39 48 11 21 51 70 63 55 40 25 36 8 18 54 4 53 71 14 44 69 72 57 19 -64 -35 -5 -41 -68 -2 -59 -34 -30 -10 -66 -52 -56 -16 -45 -65 -49 -7 -13 -3 -43 -9 -28 -67 -1 -31 -26 -32 -46 -6 -20 -47 -61 -12 0
49 0
65 22 69 45 7 71 16 56 31 8 59 39 18 26 72 43 46 61 33 64 -55 -15 -51 -44 -1 -35 -47 -60 -14 -11 -34 -48 -12 -25 -37 -10 -5 -54 -40 -6 -68 0
43 -17 -42 0
43 65 38 39 13 40 12 34 53 -45 -24 -1 -2 -31 0
4 44 48 6 62 69 56 27 19 50 30 23 13 26 3 61 10 11 63 28 7 22 49 64 14 71 9 54 35 59 8 20 17 60 67 70 52 25 21 68 31 55 42 -66 -34 -38 -39 -37 -65 -40 -51 -12 -41 -58 -43 -5 -72 -18 -29 -1 -24 -16 -53 -46 -2 -57 -33 -47 -45 -15 -32 0
36 9 72 12 13 14 52 50 58 42 63 57 60 56 40 54 -43 -62 -70 -3 -28 -27 -18 -65 -46 -29 0
61 11 72 67 41 3 25 28 2 9 42 12 62 20 18 63 60 65 56 7 33 16 45 52 69 54 15 55 21 22 71 44 43 59 70 40 1 35 31 38 47 37 68 32 -29 -23 -8 -39 -36 -27 -13 -17 -5 -14 -49 -50 -57 -4 -53 -66 -46 -48 -19 -30 -6 -10 -34 -26 -58 -51 0
65 -15 0
70 41 56 1 28 61 55 -12 -65 -11 -23 -72 0
5 31 58 61 71 22 65 36 18 72 55 70 46 64 19 14 32 9 -37 -66 -52 -28 -49 -17 -13 -47 -53 -15 -12 -24 -1 -57 -51 -30 -41 -25 -10 -23 -40 -39 -35 -56 -59 -26 0
71 50 19 28 10 4 -16 -37 -23 -25 -46 0
5 63 56 11 1 41 29 70 67 62 44 51 17 20 38 59 26 9 42 8 33 27 6 60 12 61 22 69 -13 -50 -66 -65 -55 -16 -3 -72 -30 -28 -53 -18 -7 -68 -58 -2 -49 -47 -48 -45 -37 -4 -15 -31 -23 -64 -35 -40 -14 -21 0
21 64 23 33 40 48 8 -46 -55 -59 -60 -15 -35 -58 0
36 59 12 18 8 42 66 69 24 63 47 38 27 33 -3 -43 -50 -26 -54 -10 -15 -44 -35 -32 -49 -20 -22 -9 -46 -40 -51 -61 -60 0
44 -5 -60 -24 -71 0
29 26 72 6 40 39 10 64 66 60 14 28 46 61 65 41 2 50 33 18 43 13 30 7 38 37 4 59 21 48 45 54 53 23 -15 -57 -35 -51 -17 -1 -71 -44 -31 -25 -49 -55 -3 -16 -9 -12 -68 -19 -22 -20 -56 -67 -27 -36 -62 -58 -5 -47 -11 -42 -63 -34 -32 -8 -69 -52 -24 0
17 61 -62 0
29 28 3 67 71 5 60 34 15 57 40 27 44 62 48 58 7 14 38 42 43 53 47 52 70 26 11 33 32 18 -55 -23 -51 -69 -9 -65 -4 -24 -31 -39 -41 -13 -30 -61 -21 -36 -50 -35 -45 -46 0
55 30 46 36 51 20 -72 -29 -54 -69 -25 -38 -11 -5 -10 0
32 22 17 28 10 8 48 68 40 21 45 2 38 63 67 69 3 27 53 60 70 41 54 39 -20 -71 -18 -23 -16 -65 -43 -36 -52 -37 -62 -47 -1 -13 -15 -51 -49 -4 -33 -30 -25 -26 -5 -19 -55 -44 -12 -11 0
63 20 44 1 32 30 59 8 31 39 65 38 37 41 57 54 11 4 24 46 64 56 60 47 23 58 5 6 -49 -61 -35 -16 -67 -26 -10 -36 -66 -19 -14 -3 -18 -22 -21 -13 -53 -51 -55 -15 -40 -17 -2 -42 -68 -9 -27 -71 -48 -45 -62 -34 -43 -7 -69 -52 -12 -28 -70 0
6 7 24 13 17 -59 -32 -23 -67 -71 -12 -64 -19 -53 -4 -26 -54 0
45 1 37 68 18 50 48 14 52 24 9 43 -10 -69 -6 -64 -31 -42 -27 -58 -35 -65 -13 -17 -71 -44 -55 -5 -38 -56 -41 -34 -66 -57 -53 0
2 62 42 67 60 49 18 41 69 58 7 20 -3 -34 -27 -32 -46 -43 -37 -47 -15 -65 -30 -53 0
18 19 -8 -44 0
37 62 27 6 24 19 3 70 30 57 -2 -65 -47 -67 -41 -20 -54 -72 0
59 41 10 13 39 40 53 54 60 19 70 64 33 28 37 48 65 21 58 50 22 -32 -47 -4 -5 -11 -56 -35 -61 -25 -71 -3 -20 -63 -15 -36 -24 -1 -29 0
31 70 42 10 54 71 14 60 46 50 29 3 24 63 72 62 55 30 64 35 27 7 15 59 -4 -66 -19 -25 -8 -28 -68 -48 -20 -17 -5 -1 -6 -41 -69 -26 -53 -9 -36 -32 -38 0
63 42 64 37 24 6 31 21 25 45 17 19 56 26 36 38 58 5 27 34 12 11 40 62 61 51 10 46 18 8 65 7 -35 -68 -60 -30 -29 -39 -69 -33 -71 -20 -72 -54 -32 -44 -55 -67 -50 -57 -14 -48 -22 -53 -41 -28 -2 -23 -43 -66 -4 -15 -13 0
19 66 -6 -37 -31 0
39 48 32 11 17 6 -61 -37 -69 -41 -47 -72 -13 0
55 62 7 48 56 13 25 9 21 32 28 36 -20 -34 -19 -3 -29 -30 -6 -14 0
70 42 63 58 23 1 4 29 55 33 9 21 3 46 25 11 20 26 62 40 18 52 2 72 71 69 10 37 -57 -51 -48 -27 -67 -44 -54 -12 -36 -24 -65 -50 -7 -13 -59 -43 -31 -14 -61 -68 -38 -53 -39 -56 -41 -34 0
22 18 43 5 31 6 69 37 -27 -10 -16 -71 -66 -14 -9 0
62 51 19 68 67 37 45 34 39 56 -61 -25 -46 -41 -72 -42 -49 -60 -3 -57 -59 -14 -50 -9 -30 -22 -32 -44 0
7 55 48 58 39 31 54 45 12 61 17 25 36 19 38 52 72 35 3 -56 -9 -18 -41 -64 -30 -66 -53 -50 -24 -49 0
39 51 8 25 12 11 61 27 65 2 62 22 43 53 58 23 31 44 16 13 57 46 60 -45 -35 -15 -48 -59 -41 -37 -64 -3 -52 -34 -50 -24 -20 -9 -5 -7 -32 -17 -67 -21 -18 -56 -26 -36 0
48 10 14 24 13 67 44 18 64 31 15 63 65 5 4 45 34 54 -11 -62 -2 -43 -7 -38 -71 -35 -50 -1 -21 -23 -69 -41 -70 -60 -61 -22 -42 -68 0
3 44 40 36 68 4 66 -30 -39 -24 -16 -70 -58 -29 -14 -28 0
57 22 56 31 32 64 62 16 63 30 14 5 42 -53 -67 -8 -28 -46 -49 -1 -58 -6 0
33 -65 -40 0
15 65 68 -18 -25 -72 -8 0
55 33 8 53 54 31 44 56 40 35 11 42 16 49 3 29 19 5 67 32 57 37 47 63 36 27 12 66 -46 -10 -65 -70 -22 -30 -21 -69 -20 -64 -58 -38 -13 -6 -2 -34 -25 -60 -41 -45 -17 -71 -7 -52 -39 -18 0
11 26 6 66 25 47 37 55 9 5 44 28 45 68 69 34 62 65 19 23 57 32 31 24 54 63 52 1 8 58 56 53 4 29 12 -14 -30 -64 -3 -20 -18 -49 -41 -46 -43 -59 -70 -50 -27 -48 -60 -35 -67 -16 -40 -10 -42 -15 -13 -38 -36 -61 -22 -21 -2 -71 -51 0
52 49 34 72 1 14 56 5 12 4 58 3 33 11 17 43 48 38 26 -67 -45 -65 -32 -23 -18 -19 -28 -21 -35 -2 -53 -64 -47 -15 -55 -51 -62 0
24 16 49 68 48 66 63 60 1 41 55 34 37 46 65 47 25 19 36 70 17 -64 -14 -62 -59 -18 -22 -33 -21 -50 -6 -11 -27 -32 -39 -31 -3 -69 -20 0
66 64 2 4 11 10 6 67 3 36 50 5 28 42 9 17 55 62 60 33 21 41 38 37 56 53 29 25 59 43 22 32 8 16 63 71 65 19 -12 -27 -57 -44 -40 -34 -26 -24 -13 -1 -30 -58 -47 -46 -49 -31 -14 -69 -54 -35 -45 -51 -72 -15 -23 -20 -39 -18 -61 -52 -7 -48 -70 0
70 7 26 33 25 6 19 52 3 5 50 44 38 30 35 32 -40 -24 -65 -56 -36 -59 -72 -68 -43 -4 -62 -61 -55 -15 -23 -54 -21 -58 -69 -11 -31 -41 -16 -53 0
40 22 52 33 11 19 58 37 18 39 -65 -30 -35 -14 -1 -15 -12 -50 -57 0
7 44 11 -54 -67 -25 -70 -61 -53 -72 0
52 72 21 69 4 71 68 25 8 16 33 58 5 13 54 30 -3 -23 -1 -32 -7 -51 -34 -64 -66 -57 -37 -22 -49 -17 -44 -20 -26 -40 -70 -55 -29 -28 0
2 31 65 69 46 28 -68 -22 -13 -24 0
1 33 15 4 6 52 18 69 64 45 71 5 43 31 53 61 24 29 26 27 32 67 13 21 56 48 -25 -14 -36 -35 -46 -62 -51 -8 -9 -39 -7 -59 -3 -11 -19 -16 -58 -55 -72 -37 -17 -22 -47 -42 -44 0
33 3 36 5 42 29 -55 -20 -65 -9 -8 -50 -58 -1 -31 -18 -30 -57 -51 -2 -69 -10 -16 0
32 36 12 7 52 58 4 47 15 34 59 65 8 70 69 22 68 13 41 33 55 2 27 18 3 67 53 35 60 56 46 71 57 14 63 64 -23 -43 -17 -61 -38 -30 -9 -5 -66 -39 -16 -45 -42 -31 -11 -26 -37 -49 -24 -62 0
26 14 54 52 1 19 15 67 55 50 2 12 18 4 71 49 16 41 70 58 -56 -45 -66 -43 -44 -46 -53 -6 -27 -3 -37 -9 -7 -47 -42 -59 -29 -32 -21 -22 -68 -72 0
31 13 67 14 70 36 60 53 -33 -55 -38 -27 -44 -17 -69 -63 0
31 42 34 30 41 67 60 22 44 10 14 32 26 54 62 64 27 48 18 17 13 1 39 71 38 50 55 29 37 52 -43 -28 -51 -36 -47 -3 -68 -5 -65 -25 -11 -57 -15 -12 -20 -56 -45 -33 -7 -59 0
36 68 39 40 18 54 31 72 42 44 11 64 25 41 46 23 7 69 61 12 14 32 17 2 58 4 35 19 52 -16 -37 -34 -53 -13 -59 -65 -51 -55 -29 -24 -5 -38 -22 -3 -15 -30 -43 -21 -71 -6 -45 -28 0
9 20 28 15 24 63 71 10 53 50 59 67 -29 -18 -22 -31 -65 -11 -57 -36 0
8 15 12 53 -47 -51 0
39 66 50 3 44 33 25 64 68 53 57 12 37 5 58 38 51 -15 -22 -65 -60 -27 -43 -48 -10 -26 -67 -7 -1 0
17 33 43 -35 -2 -3 -55 0
68 24 56 10 60 59 39 41 2 22 26 29 12 8 23 67 61 40 14 13 17 -9 -1 -21 -7 -53 -54 -18 -16 -69 -58 -15 -32 -3 -25 -43 -34 -48 -6 -28 -57 -66 0
36 59 41 72 58 23 57 68 44 71 31 64 43 52 11 28 13 18 19 38 34 69 4 60 5 46 22 39 8 3 -54 -7 -61 -40 -10 -55 -25 -26 -35 -1 -51 -9 -56 -53 -27 -66 -67 -47 -45 -49 -48 -65 -50 -37 -14 -2 -70 -24 -20 -29 -17 -6 -63 -21 -12 -32 -16 -15 -30 0
15 23 41 69 50 18 39 24 45 7 44 61 63 52 1 14 37 60 70 4 12 27 -57 -8 -16 -6 -58 -35 -22 -11 -62 -31 -46 -26 -48 -54 -25 -55 -51 -13 -21 -42 -3 -47 -5 0
34 69 48 17 13 1 11 57 25 -4 -46 -53 -63 -67 -15 -18 -39 -29 0
43 67 47 10 13 27 42 59 64 72 41 60 40 44 50 66 24 54 53 37 17 19 36 58 69 8 -30 -1 -39 -5 -6 -70 -29 -49 -61 -51 -33 -31 -46 -32 -57 -15 -34 -21 -45 -35 -9 -11 -7 -14 -56 -20 -22 -68 -3 -25 -26 -38 -63 -16 -12 -2 -23 -28 -55 -62 -71 -52 -18 0
14 1 33 -40 -52 0
43 6 20 33 30 -53 -2 -35 -31 0
25 65 29 27 53 32 59 50 5 4 18 -17 -22 -20 -34 -40 -39 -68 -52 -38 -62 0
61 59 2 54 58 14 28 7 12 15 4 68 5 17 70 10 46 23 65 22 39 67 52 50 44 29 47 56 71 27 60 18 35 45 -66 -6 -51 -1 -32 -19 -40 -55 -62 -31 -33 -72 -43 -53 -48 -25 -11 -42 -36 -8 -69 -16 -26 -57 -24 -13 -49 0
8 48 4 49 41 34 24 21 50 29 46 62 22 25 72 13 35 6 38 27 12 67 53 9 18 32 -51 -68 -33 -17 -23 -1 -36 -40 -57 -54 -64 -47 -69 -7 -10 -61 -43 -58 -19 -28 -70 -2 -66 -11 -37 -45 -55 -26 -5 -63 -20 -59 -15 -56 -31 -3 -71 -39 -44 -60 -30 -65 -14 0
40 52 66 36 21 63 50 51 68 7 69 26 27 28 61 42 11 32 67 9 29 46 4 48 31 -25 -24 -70 -71 -23 -6 -14 -57 -10 -43 -64 -35 -38 -12 -41 -5 -53 -39 -45 -3 -20 -22 -44 -15 -33 -34 -59 -58 -1 -62 -49 -54 -37 -17 -56 -16 -2 -8 -65 -19 -55 -60 -47 -18 -13 0
54 17 -12 -55 -64 -15 -10 -65 -7 -38 -62 -66 0
53 67 17 28 33 71 57 35 23 61 2 32 12 52 19 24 45 62 51 58 13 68 9 -42 -6 -15 -25 -40 -49 -27 -39 -8 -44 -54 -41 -38 -11 -60 -65 -47 -31 -4 -36 -50 -14 -10 -29 -46 -63 -3 -59 -64 -70 0
18 38 59 29 52 39 40 7 49 56 54 25 62 23 70 41 8 58 30 32 57 9 27 64 47 26 21 17 22 12 43 48 3 44 14 45 -55 -60 -67 -35 -63 -10 -16 -37 -24 -1 -66 -53 -4 -19 -20 -51 -36 -5 -11 -42 -72 -69 -15 -2 -65 -68 -6 -33 -46 -34 -31 -61 -28 -71 -50 0
49 23 35 50 61 10 30 37 4 69 22 44 28 36 15 56 14 51 59 55 -46 -41 -67 -1 -72 -38 -7 -9 -40 -19 -65 -3 -31 -71 -58 -24 -64 -53 -52 -34 0
4 7 2 10 33 51 53 15 38 22 6 20 64 49 35 67 21 31 48 45 41 27 47 1 28 68 52 39 5 24 63 3 -50 -19 -12 -55 -62 -43 -57 -54 -70 -36 -34 -42 -25 -11 -17 -8 -40 -71 -66 -16 -18 0
24 23 12 1 8 -55 -9 -27 0
70 12 38 7 54 61 44 39 32 17 67 30 66 5 50 31 57 41 65 62 20 16 46 26 2 56 -29 -34 -27 -18 -59 -6 -10 -55 -49 -64 -28 -69 -60 -51 -43 -9 -48 -25 -52 -14 -53 -23 -42 -35 -36 -15 -3 -47 -72 -33 -45 -21 -40 -71 -11 0
16 59 58 42 22 67 18 24 -4 -1 -29 -27 -11 -68 -38 -39 -72 0
18 71 22 58 72 47 69 29 67 41 37 28 57 36 59 50 11 6 14 51 60 38 5 63 27 44 55 45 9 23 65 -52 -56 -10 -13 -19 -39 -21 -35 -32 -42 -26 -46 -16 -70 -7 -3 -20 -15 -2 -8 -25 -68 -61 -40 -33 -48 -43 -53 0
26 51 14 3 63 71 64 38 48 44 36 45 61 52 43 55 20 35 69 37 16 42 5 11 54 21 -56 -17 -1 -18 -15 -29 -58 -10 -7 -4 -60 -46 -34 -19 -23 -40 -27 -24 -2 -41 -53 -39 -31 -59 -70 -50 -25 -72 -9 0
32 71 3 67 11 27 -62 -42 -46 -44 -33 -55 -28 -53 0
11 43 27 15 59 48 5 2 65 10 69 41 67 58 37 31 39 34 26 71 30 36 16 63 -14 -9 -44 -51 -29 -18 -55 -53 -35 -60 -21 -61 -24 -72 -38 -22 -50 -25 -1 -70 -33 -4 -40 -20 0
12 41 14 49 61 43 26 13 53 62 23 29 52 63 51 67 15 4 72 33 -70 -32 -20 -10 -11 -34 -31 -2 -36 -64 -40 -56 -58 -37 -27 -47 -6 -28 -44 0
33 61 23 52 -36 0
59 27 1 72 65 19 3 47 5 32 11 40 36 66 6 68 64 9 41 29 63 44 2 54 61 62 69 -35 -14 -4 -46 -24 -52 -33 -22 -55 -43 -39 -51 -67 -38 -20 -31 -53 -30 -26 -7 -58 -25 -60 -16 -18 -28 -21 -45 -50 -15 0
15 24 64 8 7 23 11 57 49 62 39 43 13 22 21 72 28 9 56 30 68 53 65 -45 -46 -54 -14 -2 -17 -71 -29 -59 -33 -61 -58 -31 -20 -19 0
53 67 26 57 60 38 8 10 19 32 24 47 22 33 11 -25 -46 -2 -52 -65 -36 -37 -59 -51 -17 -7 -28 -44 -43 -1 0
-31 0
49 16 50 3 11 52 -62 -22 -13 0
35 65 44 28 72 56 61 26 25 29 17 64 30 62 47 2 34 22 8 53 -46 -31 -43 -33 -49 -55 -68 -32 -69 -36 -15 -6 -20 -66 -19 -48 -9 -23 -45 0
42 7 56 23 37 19 59 36 10 11 18 52 35 21 32 66 -69 -2 -44 -40 -16 -24 -15 -30 -72 -55 -47 0
37 62 24 23 46 53 12 54 -35 -15 -5 -56 -41 -71 -33 -32 -25 -13 -38 0
34 63 65 26 2 51 62 53 24 40 46 55 19 1 64 7 8 33 69 5 61 16 15 56 67 58 25 23 13 27 18 43 -28 -35 -54 -52 -4 -68 -70 -71 -22 -59 -31 -14 -11 -3 -29 -36 -66 -10 -30 -50 -57 -48 -72 -39 -37 -38 -21 0
2 33 3 34 43 36 28 26 8 27 49 54 52 46 63 44 61 18 11 62 14 32 9 48 50 58 1 64 5 66 40 68 31 7 -55 -42 -15 -38 -72 -70 -37 -30 -29 -39 -4 -19 -6 -67 -24 -69 -25 -51 -13 -60 -20 -65 -59 -57 -47 0
12 23 57 5 7 61 71 69 16 28 10 8 46 15 26 47 20 72 66 18 45 55 2 39 6 50 38 37 42 -19 -4 -36 -59 -29 -63 -49 -52 -40 -65 -33 -43 -31 -9 -22 -68 -13 -54 -53 -27 -25 -51 -34 -32 -58 0
47 8 57 18 53 59 37 24 46 65 21 51 31 14 66 34 61 35 15 7 56 23 1 32 48 72 9 64 41 44 60 38 40 22 13 6 -3 -11 -12 -19 -62 -50 -27 -16 -43 -49 -30 -70 -2 -52 -71 -20 -68 -29 -69 -63 -58 -10 -25 -4 -55 -36 -28 -39 -33 -26 -54 -5 -42 -17 -67 0
20 53 69 25 13 27 37 -17 -68 -42 -63 -66 0
32 34 15 10 27 21 54 2 29 56 48 1 30 -38 -72 -23 -68 -44 -33 0
30 6 54 59 57 17 44 62 15 38 35 7 14 39 27 60 58 28 31 11 16 45 48 20 65 53 37 18 69 40 -19 -66 -32 -36 -67 -5 -46 -26 -10 -71 -4 -21 -41 -13 -23 -47 -33 -43 -52 -55 -63 0
57 3 35 53 29 39 55 60 9 33 2 50 68 63 67 70 6 44 24 13 31 56 72 47 69 11 27 43 8 54 52 41 22 12 -21 -42 -17 -61 -71 -38 -48 -34 -25 -23 -26 -15 -18 -62 -36 -59 -51 -1 -5 -32 -16 -58 -14 -20 -37 -65 -49 -66 -10 -7 -28 -45 -30 -4 0
45 71 2 27 29 13 50 19 23 22 15 37 51 56 43 35 64 3 57 38 18 63 69 9 52 25 32 -6 -59 -39 -7 -11 -1 -66 -12 -5 -60 -70 -4 -48 -26 -21 -44 -65 -62 -47 -41 -53 0
30 40 35 31 25 26 5 63 36 15 42 34 22 67 33 23 48 6 49 -41 -32 -14 -28 -59 -2 -60 -50 -44 -20 -57 -51 -8 -7 -39 -21 -55 -9 0
14 33 41 45 36 48 2 54 52 15 57 21 71 44 7 61 34 30 72 27 65 -32 -9 -37 -28 -69 -60 -31 -53 -16 -11 -20 -8 -1 -59 -67 -24 0
55 63 54 38 43 49 36 27 37 1 -72 -47 -26 0
5 27 44 22 63 6 55 18 16 46 56 20 3 48 10 2 24 65 54 11 8 37 60 51 9 50 15 25 49 21 42 43 70 -7 -45 -58 -39 -23 -4 -62 -34 -13 -38 -69 -26 -35 -30 -71 -61 -57 -59 -40 -36 -29 -1 -33 -52 -67 -17 -47 -19 0
42 20 12 24 36 68 65 6 32 1 22 29 11 -54 -18 -35 -46 -7 -53 -33 -15 -9 -2 -71 -5 -70 -49 -34 -63 -25 -44 -43 -21 -72 -48 -51 0
70 39 25 12 61 62 40 48 36 10 -56 -67 -64 -44 -23 -45 -52 -34 -53 -37 -59 -20 -7 -14 -16 -13 -18 -60 -41 -5 -69 0
72 47 54 55 64 12 14 5 9 25 32 44 56 37 45 15 52 28 2 51 43 67 63 50 3 53 48 33 4 -58 -41 -70 -24 -21 -31 -46 -23 -29 -8 -61 -7 -30 -57 -16 -1 -36 -11 -65 -40 -66 -6 -62 -18 -60 -19 -26 -22 -71 -13 -20 -68 -38 -69 0
19 46 63 8 71 29 36 22 64 49 68 26 16 41 42 70 11 24 20 65 45 59 66 40 34 2 28 43 35 30 54 7 1 60 52 -58 -23 -39 -57 -38 -25 -32 -48 -21 -44 -31 -17 -10 -18 -13 -12 -61 -53 -9 -33 -67 -72 -27 -47 -56 -37 -4 -14 0
22 68 15 26 53 34 39 58 70 32 37 8 4 48 57 6 54 11 29 59 65 47 19 -43 -13 -36 -50 -25 -7 -56 -33 -55 -49 -67 -18 -52 -20 -51 -61 -38 -42 0
13 40 -41 -54 -72 -35 0
2 11 31 50 64 -72 -34 -61 -37 -19 -51 -60 0
41 53 67 62 42 44 25 56 57 15 47 70 58 22 59 21 72 20 13 30 65 10 54 64 32 55 7 66 39 36 4 -50 -19 -33 -37 -29 -69 -9 -31 -3 -12 -16 -6 -14 -27 -28 -17 -61 -46 -34 -11 -40 -24 -51 -38 -48 -26 -8 -49 -43 -71 -63 -5 -18 -45 -1 -52 -35 -60 -23 -68 0
38 54 33 60 28 43 20 5 18 44 37 72 27 56 71 69 58 42 66 47 45 39 31 4 17 9 67 68 61 8 16 6 52 -70 -62 -57 -25 -29 -41 -51 -10 -30 -64 -14 -40 -13 -11 -22 -24 -32 -48 -53 -49 -15 -19 -36 0
16 18 27 9 17 62 52 54 5 45 11 4 7 10 59 60 -53 -64 -1 -35 -43 -40 -6 -13 -12 -14 -65 -56 -46 -61 -51 -34 -72 -3 0
71 63 41 68 13 25 70 9 12 2 57 8 64 60 67 34 -36 -53 -39 -58 -37 -56 -20 -22 -52 -18 -3 -45 0
32 70 57 11 46 64 7 19 68 33 18 -71 -22 -39 -2 -17 -43 -67 -41 -1 -35 -12 -36 -8 0
65 64 70 60 12 26 9 30 51 38 32 19 45 21 47 31 54 56 42 57 6 -50 -25 -27 -55 -8 -1 -48 -28 -71 -61 -63 -7 -13 -37 -4 -22 0
33 54 -37 -46 -34 -18 -32 -53 0
7 57 17 29 60 28 16 37 71 64 72 4 -48 -13 -59 -15 -54 -47 -34 -24 -1 -50 -26 -53 -40 -9 -5 -49 -44 -46 -8 -25 0
71 0
43 -50 -26 0
67 4 9 18 70 17 44 51 65 37 11 3 41 23 69 -54 -34 -39 -71 -5 -29 -45 -59 -56 -36 -26 -58 -1 -14 -68 -50 -7 -35 -33 -8 -52 -32 -2 0
3 64 52 43 31 13 37 7 66 5 72 36 29 28 12 46 9 2 -11 -40 -14 -47 -44 -4 -10 -71 -60 0
58 40 15 48 51 39 18 61 44 63 35 54 53 59 60 36 23 -65 -9 -21 -6 -24 -10 -25 -37 -29 -2 -42 -45 -56 -55 -17 -16 -72 -32 -1 -62 -67 -49 0
43 64 55 29 48 27 53 58 16 50 38 8 51 10 35 17 28 14 44 47 2 39 15 68 36 66 65 -70 -12 -45 -7 -69 -32 -26 -1 -42 -52 -4 -40 -57 -25 -6 -33 -49 -18 -46 -54 -19 -34 -5 -37 -71 -30 0
45 29 42 17 44 12 53 -43 -5 -39 -57 -33 -40 -55 -25 -13 0
1 31 57 12 19 46 51 22 50 40 5 61 70 63 37 45 14 -2 -25 -72 -69 -3 -68 -10 -64 -43 -11 -7 -59 -16 -41 -58 -44 -8 -60 -34 -47 -27 -49 -20 -17 -15 0
29 22 37 18 46 64 44 -42 -24 -15 -21 -45 -49 -28 -70 0
56 55 18 67 68 31 30 25 61 46 3 1 41 6 15 34 12 7 50 65 42 47 51 21 66 -4 -71 -16 -36 -60 -57 -14 -23 -38 -10 -37 -27 -9 -11 -59 -54 -24 -40 -44 -58 -53 -29 0
32 27 60 33 23 25 57 14 31 17 63 54 55 13 59 8 18 24 40 9 20 7 1 12 51 50 42 49 65 -64 -26 -58 -46 -5 -41 -66 -2 -4 -3 -36 -70 -45 -69 -19 -43 -30 -38 -71 -15 -67 -62 -72 -53 -34 -16 -37 -10 -44 -28 -22 -6 -21 0
6 54 3 25 45 14 72 -71 -68 -10 -4 -61 -47 -48 -20 -67 -37 -58 -65 -51 -57 -19 -34 0
21 54 64 31 58 40 25 33 69 3 2 -18 -22 -59 -27 -35 -15 -45 -42 -44 -9 -55 -29 -60 -43 -4 0
58 48 65 27 50 3 70 6 -13 -54 0
16 68 8 31 26 44 59 54 50 52 29 65 19 27 46 66 69 35 5 49 43 32 7 56 18 36 -21 -61 -9 -58 -10 -24 -34 -55 -45 -25 -57 -30 -15 -41 -6 -37 -12 -3 -64 -22 -28 -51 -23 -47 -40 -20 -60 -53 -70 0
31 61 -51 -10 0
47 53 49 30 31 2 -16 -37 -14 -17 -39 -3 -59 -71 -52 0
22 34 30 8 32 10 43 4 57 58 41 7 40 67 24 23 48 21 28 62 39 72 -17 -26 -47 -42 -49 -60 -53 -16 -38 -45 -1 -2 -56 -59 -71 -69 -35 -51 -33 -64 -54 -20 -15 -14 -13 -11 -70 -18 -25 0
15 67 39 28 45 47 32 36 1 14 -72 -53 -58 -49 -71 -26 -52 -21 -70 0
58 2 46 60 31 42 -33 -18 -59 -22 -7 -26 -62 -56 0
13 17 69 46 4 39 9 32 63 37 71 27 6 11 1 49 66 26 48 19 70 51 52 38 15 67 5 72 -14 -30 -25 -36 -21 -68 -31 -56 -24 -47 -64 -16 -61 -55 -44 -43 -40 -53 -60 -12 0
47 29 39 18 35 56 41 2 23 37 16 -44 -20 -1 -5 -25 -66 -14 -50 -67 -57 -58 0
46 17 36 62 68 43 71 37 9 1 11 70 4 66 32 14 50 16 21 25 6 40 10 29 3 52 26 -8 -20 -57 -72 -59 -13 -58 -64 -48 -31 -49 -30 -45 -47 -5 -35 -63 -67 -39 -24 -41 -44 -28 -23 -54 -53 -15 0
14 46 64 17 20 49 -23 -70 -35 -30 -21 -5 -59 -13 0
69 31 53 35 17 18 51 4 2 26 46 38 50 10 7 34 -15 -8 -12 -61 -32 -44 -59 -21 -68 -16 -11 -62 -24 -60 -5 -71 -63 -72 0
71 12 54 8 21 35 14 59 55 7 42 39 67 56 17 18 27 34 70 28 62 19 24 -30 -65 -60 -16 -57 -23 -66 -3 -11 -37 -13 -31 -26 -2 -46 -41 -10 -49 -15 -38 -9 -44 -58 -1 -33 -6 0
44 14 65 15 29 36 28 42 35 8 68 -45 -22 -30 -70 -25 -38 -2 -5 -24 -46 -1 -54 -10 -72 -16 -13 -61 -11 -7 -18 -27 -19 -60 0
27 6 4 24 66 30 34 36 61 44 53 71 49 64 9 70 47 1 12 15 29 37 -57 -31 -11 -19 -8 -16 -23 -42 -45 -62 -72 -20 -18 -65 -41 -22 -60 -32 -17 -50 -59 -2 0
59 51 22 72 18 27 46 54 8 10 58 2 52 36 70 38 11 67 62 56 53 45 9 33 49 3 14 48 57 37 41 1 68 24 50 25 15 66 -60 -28 -4 -71 -17 -47 -23 -61 -43 -7 -13 -21 -19 -32 -39 -31 -34 -40 -5 -29 -16 -20 -6 -44 -30 -42 -35 -55 0
-25 -35 0
45 49 71 43 27 8 69 39 3 65 13 50 38 58 35 62 55 25 6 10 21 59 64 34 56 23 5 30 26 12 15 72 -53 -54 -31 -18 -44 -66 -42 -36 -16 -11 -28 -48 -9 -70 -33 -41 -67 -7 -47 -20 -17 -22 -1 -46 -60 -57 -61 -32 -40 -24 -29 -2 -4 0
11 24 17 61 49 55 48 60 53 28 13 59 30 34 3 21 72 64 66 26 18 65 7 -38 -14 -69 -57 -23 -58 -4 -27 -37 -2 -70 -29 -43 -5 -32 -45 -33 -63 -71 -1 -47 -16 -42 -50 0
30 4 70 48 54 22 57 33 25 62 43 31 -36 -37 -50 -52 -20 -69 -19 -38 -60 -8 -29 -55 -7 -21 -71 -46 -5 -61 -39 -17 -72 -66 -63 -51 -41 -68 -59 0
67 49 43 29 27 36 70 25 63 8 62 53 35 72 64 24 38 44 22 47 3 55 34 17 60 48 -56 -42 -50 -26 -68 -10 -54 -71 -41 -4 -37 -13 0
45 68 69 22 -13 -58 0
3 65 63 6 21 62 7 46 17 36 35 54 -24 -64 -11 -48 -42 0
26 36 68 17 44 18 69 -3 -60 0
40 11 12 10 16 1 46 19 22 64 50 8 -53 -63 -23 -70 -62 -24 -6 -35 -51 -38 -39 -21 -41 -61 -43 -3 -59 0
33 41 16 2 29 56 53 25 54 22 5 13 69 37 8 71 32 64 65 36 49 50 3 58 7 40 23 63 21 43 10 12 1 47 35 62 19 57 20 67 -14 -26 -51 -4 -70 -11 -66 -44 -18 -9 -34 -72 -48 -42 -27 -38 -46 -55 -39 -60 -15 -59 -6 -45 -52 -30 -17 -31 -61 -68 -28 0
72 7 18 61 69 47 64 6 27 2 38 40 14 45 19 67 50 4 -24 -35 -70 -21 -41 -8 -10 -3 -22 -15 -36 -9 -60 -62 -29 -13 -33 -32 0
69 25 10 46 70 39 65 36 62 35 16 58 68 45 67 47 40 3 17 26 33 -50 -7 -42 -5 -38 -22 -53 -14 -41 -55 -11 -21 -9 -1 -59 -54 -31 -32 -27 -51 -15 -48 -28 -37 0
38 68 41 15 18 10 11 71 30 21 67 16 61 60 36 43 42 13 65 -69 -26 -22 -58 -70 -40 -72 -50 -44 -56 -57 -3 -32 -64 -34 -51 -31 -48 -29 -9 -1 -54 -19 -62 -28 -4 -45 0
25 39 11 63 55 30 12 72 19 50 35 15 1 37 64 33 24 2 43 31 44 45 52 -67 -20 -18 -3 -36 -14 -13 -54 -59 -60 -17 -51 -23 -22 -58 -26 -5 -66 -38 -42 -56 -71 -28 -61 -46 -41 -68 -27 0
5 -54 0
57 30 10 8 2 15 19 13 58 67 12 23 46 48 66 20 18 -36 -6 -3 -68 -21 -72 -22 -11 -27 0
44 25 38 41 15 63 2 61 55 57 43 34 64 42 36 20 51 29 16 31 45 49 46 24 33 6 12 3 14 70 -72 -40 -28 -22 -17 -67 -26 -56 -32 -58 -65 -1 -50 -54 -47 -9 -52 -7 -53 -48 -27 -21 -23 -62 -71 -8 -37 -60 -4 -35 -18 0
1 5 63 72 62 38 68 44 6 9 39 34 49 65 18 -52 -3 -29 -11 -12 -4 -16 -37 -27 -71 -2 -19 -8 -13 -17 -64 -33 -20 -32 -70 -60 -35 -30 -42 -36 -25 -7 -21 0
67 7 30 70 25 16 3 1 38 37 49 29 41 59 66 51 65 50 34 23 39 44 15 8 12 18 21 43 62 -2 -42 -9 -57 -52 -53 -47 -64 -10 -33 -63 -6 -40 -55 -22 -4 -24 -54 -5 -68 -32 -48 -46 -58 0
23 32 71 13 22 69 65 38 19 72 66 33 48 27 29 31 39 16 67 7 8 62 -41 -52 -44 -20 -54 -2 -70 -57 -3 -15 -47 -58 -59 -4 -49 -12 -61 -1 0
71 28 46 34 20 72 66 33 60 4 50 70 14 51 43 9 10 65 56 39 6 41 29 31 68 58 24 52 42 13 69 7 55 54 64 8 44 18 16 48 -22 -3 -21 -2 -32 -12 -63 -61 -38 -23 -45 -35 -27 -26 -67 -47 -37 -15 -40 -59 -19 -25 -11 -36 -57 -49 -17 -62 -1 0
63 11 13 36 52 31 56 66 55 69 68 43 53 24 70 35 25 57 27 12 33 21 47 -8 -46 -71 -62 -29 -60 -1 -9 -65 -67 -28 -17 -30 -64 -42 0
8 36 69 4 41 64 31 25 53 32 29 13 28 24 55 40 12 66 48 47 3 16 43 42 11 59 44 38 18 54 72 60 -14 -2 -46 -50 -49 -52 -20 -7 -27 -19 -17 -23 -30 -67 -71 -65 -34 -58 -68 -35 -1 -5 -63 -21 -61 -22 -62 -51 0
60 50 56 1 35 22 3 31 51 12 4 69 27 30 20 61 32 33 6 21 48 39 70 42 8 7 15 52 45 68 63 53 2 -36 -43 -72 -57 -23 -59 -44 -54 -28 -65 -14 -11 -55 -47 -58 -25 -24 -5 -19 -37 -10 -18 -66 -62 -34 -64 -26 -38 -29 0
32 66 2 44 21 11 70 27 57 35 3 59 54 26 55 71 22 31 51 29 18 36 5 -45 -48 -67 -69 -56 -34 -43 -41 -10 -42 -19 -6 -12 -23 -16 -64 -49 -30 -8 -28 0
52 41 51 34 2 56 38 71 58 19 65 23 30 17 37 60 -67 -68 -6 -43 -13 -12 -36 -10 -54 -44 0
10 24 33 12 68 39 6 22 43 2 61 48 52 1 72 64 69 67 66 23 9 59 71 -51 -32 -38 -50 -5 -11 -7 -20 -49 -29 -35 -63 -41 -54 -19 -40 -18 -28 -56 -58 -31 -27 0
44 16 55 56 27 37 -39 -40 -36 -69 -52 -4 0
50 48 20 68 2 10 64 58 54 14 29 17 44 7 -11 -31 -70 -49 -30 -41 -36 -21 -37 -67 0
33 3 42 12 37 23 68 52 38 55 16 51 57 10 21 32 44 22 -71 -34 -61 -48 -24 -29 -39 -4 -15 -2 -63 -64 -50 -59 -56 -31 -69 -67 -62 -26 -27 -65 -49 -60 -70 -25 0
47 49 58 11 52 17 30 68 48 69 56 54 44 4 -5 -26 -31 -46 -42 -39 -13 -12 -70 -51 -8 -1 -9 0
59 64 60 27 2 72 22 51 48 43 3 23 53 15 25 28 57 54 41 36 42 55 40 -63 -38 -32 -9 -4 -62 -33 -68 -29 -12 -7 -20 -58 -71 -14 -67 -8 -31 -10 -44 -65 -21 -18 -47 -56 -45 -46 0
72 20 34 43 11 50 71 41 2 23 12 24 63 66 33 58 42 44 27 13 21 29 3 56 -68 -28 -25 -39 -10 -55 -14 -67 -17 -64 -46 -47 -38 -35 -36 -1 -49 -32 -57 -22 -4 -70 -19 -16 -18 -6 -51 -5 -62 -31 -45 -30 -26 0
72 19 2 18 41 53 49 12 59 24 57 70 51 29 35 3 34 22 1 -20 -28 -7 -4 -37 -50 -8 -23 -54 -62 -56 -21 -13 -71 -14 -69 -67 -55 -66 -15 -32 0
41 36 33 29 21 13 18 40 72 67 4 -71 -3 -20 -26 -10 -34 -2 -48 -16 -1 -14 -5 -6 -50 -46 -23 -63 -49 -55 -65 -70 -60 0
3 48 9 54 69 18 30 17 70 43 26 20 8 56 24 36 29 41 16 14 44 71 35 31 27 -22 -45 -19 -28 -46 -21 -5 -11 -52 -6 -72 -42 -40 -1 -49 -59 -53 -63 -57 0
14 7 22 26 4 29 71 3 60 16 21 66 70 17 56 20 55 62 6 2 69 13 19 48 63 15 -47 -30 -24 -58 -68 -31 -36 -54 -32 -57 -23 -38 -72 -37 -46 -12 -8 -39 -27 -44 -28 -25 0
47 9 45 50 21 22 51 62 -6 -59 -18 -43 -38 -37 0
36 63 30 62 61 42 57 3 26 12 9 39 20 58 55 54 43 5 34 14 51 13 22 40 16 1 17 41 25 -60 -59 -27 -52 -23 -66 -8 -45 -65 -18 -53 -4 -21 -15 -10 -2 -11 -50 -46 -68 -67 -69 -44 -38 -31 -24 -29 -48 0
35 59 9 4 17 47 63 34 45 28 11 20 69 53 14 29 36 8 37 2 40 32 7 15 26 -25 -65 -30 -3 -16 -52 -49 -71 -48 -68 -72 -38 -64 -61 -67 -27 -31 -46 -43 -24 0
51 35 32 27 17 59 68 -19 0
68 11 60 41 30 61 72 51 34 58 6 69 70 40 54 3 4 66 52 45 29 63 14 43 12 50 47 25 59 22 55 2 37 -7 -44 -46 -67 -26 -24 -10 -65 -5 -39 -28 -35 -27 -15 -71 -16 -13 -49 -20 -57 -36 -17 -19 -23 -56 -32 -9 0
39 15 11 55 68 49 38 45 14 20 26 50 18 71 35 43 64 1 29 34 63 -10 -44 -22 -69 -37 -9 -46 -23 -33 -5 -52 -19 -66 -67 -17 -25 -54 -62 -56 -61 -4 -47 -36 -60 -48 -41 -42 -53 -72 0
55 39 27 52 30 71 19 41 -47 -17 -23 -9 -5 -51 -13 -36 -72 -25 -57 -50 0
12 19 53 45 20 10 -28 0
68 20 5 60 32 2 15 62 35 6 69 45 25 34 54 9 7 13 31 1 33 67 19 55 3 11 59 28 63 41 40 72 56 -23 -49 -36 -50 -39 -66 -17 -48 -14 -24 -71 -12 -18 -44 -65 -43 -64 -47 -16 -42 -21 -46 -38 -53 -10 -61 -30 -27 -57 0
34 49 -60 -16 -64 -44 -9 0
61 9 23 7 13 52 24 67 64 32 53 66 27 43 33 15 41 19 65 51 57 71 10 -17 -26 -14 -55 -70 -45 -50 -39 -22 -25 -5 -37 -18 -49 -68 -2 -42 -4 -20 -8 -28 -46 -12 -3 -72 -31 -62 -30 -40 -38 -60 -34 -29 -69 -56 -59 -47 -58 0
33 52 45 35 40 16 47 42 6 1 25 39 11 29 44 22 49 -38 -2 -14 -24 -17 -15 -48 -69 -66 -61 -62 -4 -13 -65 0
49 64 44 28 30 60 26 19 53 3 2 38 70 62 1 29 48 68 33 52 7 32 15 51 21 14 57 31 67 37 43 69 11 -47 -41 -20 -42 -59 -5 -72 -61 -23 -13 -50 -24 -36 -63 -55 -18 -12 -40 -45 -6 -65 -46 -4 -71 -25 -58 -9 -22 -39 -66 -54 -17 0
32 69 10 5 53 47 39 -14 -28 -12 0
37 20 1 22 18 15 8 -14 -57 -61 -33 -54 -44 -45 0
52 72 48 42 34 35 7 11 1 58 38 64 71 36 59 30 16 63 6 21 66 67 50 28 20 -32 -13 -25 -29 -40 -45 -9 -5 -51 -69 -44 -39 -62 -55 -2 -15 -27 -19 -31 -41 -65 -22 -60 0
16 64 3 58 57 13 20 69 59 30 31 29 50 40 42 41 66 -14 -62 -7 -8 -15 -34 -56 -28 -27 -65 -35 -18 -5 -44 -48 -52 -19 0
21 60 35 49 47 29 11 28 65 59 4 24 32 -61 -71 -43 -55 -12 -14 -19 -30 -45 -8 -48 -38 -58 -6 -44 0
23 71 34 59 39 20 35 42 70 19 21 55 49 1 12 6 40 24 17 10 -32 -45 -37 -36 -9 -47 -14 -28 -13 -38 -54 -33 -4 -41 -15 -22 -56 0
48 2 36 31 20 44 7 54 43 35 58 14 45 42 53 19 60 55 32 65 52 17 47 56 50 40 68 67 9 1 21 27 41 63 22 51 -26 -62 -46 -6 -33 -3 -8 -4 -29 -57 -15 -72 -16 -34 -38 -66 -49 -61 -39 -37 -13 -69 -59 -10 -71 -24 0
57 8 52 3 10 49 60 31 13 14 65 17 28 50 21 32 71 64 66 19 1 5 62 16 20 18 6 4 69 42 46 23 -70 -44 -38 -36 -29 -26 -47 -54 -12 -68 -56 -25 -34 -30 -58 -9 -53 -22 -41 -63 -35 -61 -2 -45 -7 -59 -33 -67 -43 -15 -55 -37 -24 -27 -48 0
20 65 44 6 13 31 19 72 11 4 67 45 1 60 35 64 62 36 48 -24 -10 -22 -18 -53 -61 0
3 -27 -31 0
4 71 64 67 15 54 42 66 44 8 65 45 23 43 63 -1 -70 -41 -11 -24 -68 -9 -26 -56 -20 -47 -18 -29 0
48 35 26 15 14 45 52 24 66 41 69 -54 -59 -3 -56 -71 -16 -46 -63 -42 0
42 58 34 20 6 50 55 38 5 48 7 40 43 46 10 23 59 14 1 44 56 71 35 21 51 15 60 49 24 39 41 33 57 64 4 27 -61 -31 -29 -17 -26 -37 -68 -32 -47 -72 -11 -2 -65 -12 -30 -22 -62 -70 -52 -53 -69 -8 -18 -45 -3 -19 -9 -25 -36 0
4 18 23 16 70 41 51 20 29 15 60 39 47 11 -66 -17 -3 -26 -52 -40 -42 -34 -46 -72 -65 -37 -35 -57 -53 -14 -24 -19 -22 -27 -5 -63 -30 -38 0
46 11 69 41 24 61 56 1 14 47 26 18 22 21 37 67 64 -23 -55 -25 -15 -8 -17 -30 -63 -44 -66 -39 -72 -68 -5 -62 -34 -27 -43 -59 -54 -51 -65 -9 -58 -42 -31 -50 -28 -48 -13 -33 -19 0
12 6 70 63 25 21 48 23 41 14 56 8 32 20 11 50 44 16 69 59 49 67 4 52 28 33 7 61 22 53 45 13 65 10 57 54 62 47 1 18 9 72 68 -42 -29 -19 -31 -46 -58 -3 -30 -40 -55 -15 -71 -35 -36 -39 -2 -27 -34 -43 -64 -37 -51 -66 -5 -17 0
57 8 62 -66 -48 -19 -46 -13 -28 0
22 36 25 6 33 27 68 26 40 17 45 60 41 20 -44 -50 -13 -63 -48 -12 -47 -10 -14 -49 -70 -46 -67 -8 -21 -58 -59 -69 -72 -18 -55 -31 -29 -5 -35 -61 0
58 14 12 31 23 69 59 30 72 41 46 50 4 1 16 65 71 13 -2 -37 -7 -18 -33 -20 -57 -11 -24 -56 -51 -55 -22 -10 0
23 29 64 28 32 1 21 38 56 5 55 50 7 20 13 52 37 27 34 70 2 35 51 24 44 58 -48 -17 -19 -46 -39 -36 -10 -54 -26 -41 -18 -33 -30 -60 -69 -65 -53 -67 -42 -4 -62 -57 -3 -31 -61 -68 -66 -9 0
52 22 34 72 3 -37 -57 -62 -60 -71 -45 -33 -64 0
19 35 29 42 14 47 23 37 10 17 40 -59 -20 -25 -62 -66 -2 -43 -9 -26 -44 -31 -64 -15 -38 -11 0
32 22 66 7 52 55 16 61 20 50 11 33 19 43 24 68 34 5 10 9 47 25 -28 -45 -48 -72 -21 -57 -29 -23 -51 -59 -31 -41 -15 -30 -12 -38 -49 -17 -54 -67 -40 -27 -63 -6 -62 -2 -70 -3 -65 -14 -1 -42 -71 -58 -56 -39 -35 -37 -46 -60 -44 -8 -4 -36 0
56 24 42 60 -14 -35 0
12 2 64 37 5 21 45 47 67 20 58 72 26 6 15 69 4 25 22 44 57 24 1 17 65 48 14 39 30 51 33 7 52 29 46 -70 -23 -61 -31 -68 -50 -34 -35 -10 -3 -8 -16 -53 -18 -19 -55 -71 -60 -59 -27 -54 -66 -63 -43 -41 -13 -11 -40 -36 -28 -38 -62 -56 -9 -32 0
62 56 49 19 6 70 51 45 68 34 37 21 64 72 65 -35 -23 -26 -25 0
67 50 61 63 56 24 6 44 35 51 26 66 43 28 59 17 1 14 47 20 -39 -65 -21 -15 -18 -33 -54 -38 -69 -72 -58 -45 -49 -68 -55 -7 -57 -52 -23 -10 -4 -64 -70 -46 0
62 30 -54 -29 -13 -66 -19 -32 -2 0
11 30 4 27 10 45 61 57 15 53 50 8 3 38 7 60 41 28 23 43 54 26 58 52 25 35 -67 -14 -56 -2 -13 -55 -9 -68 -59 -34 -62 -46 -63 -20 -65 -66 -36 -44 -69 -64 -16 -47 -31 -24 -39 -12 -37 -6 -33 -42 -70 -5 -17 -19 -1 -32 0
58 63 28 33 47 10 62 45 25 13 4 22 43 16 69 7 64 27 38 71 70 -46 -66 -67 -68 -44 -3 -14 -30 -32 -50 -54 0
39 36 -65 -53 -48 0
40 68 55 13 26 28 22 33 20 61 10 45 18 41 48 14 9 35 69 52 2 57 64 34 38 1 42 23 46 56 5 60 8 -19 -36 -58 -11 -32 -72 -21 -51 -7 -71 -67 -54 0
47 7 27 13 67 61 5 42 38 34 4 6 24 48 52 -40 -10 -54 -30 -23 -29 -15 -70 -64 -63 -69 -26 -65 -50 -60 -55 -31 -58 -25 -21 -35 0
54 66 10 2 17 36 5 14 58 37 56 51 28 7 23 70 45 15 6 60 57 33 16 18 1 4 25 72 35 -47 -43 -21 -48 -52 -12 -41 -3 -61 -40 -68 -22 -30 -27 -62 -50 -42 -53 -8 -64 -38 -46 -59 -63 -67 -19 -55 0
47 58 26 59 57 8 63 21 15 28 1 68 51 27 10 19 70 11 72 -20 -9 -7 -38 -62 -42 -36 -3 -4 -39 -5 -40 -43 -55 -71 -41 0
51 18 58 -68 -62 -59 -6 -8 -53 -37 0
-42 -46 0
9 59 49 64 21 51 6 67 62 57 68 4 29 -31 -42 -58 -11 -24 -72 -18 -8 -50 -66 -65 -54 -13 -47 0
29 52 67 40 28 39 42 25 1 10 72 9 55 64 2 16 44 32 22 3 33 68 38 61 27 30 37 57 71 14 11 6 66 -20 -43 -41 -15 -46 -45 -35 -54 -48 -58 -23 -26 -47 -34 -18 -50 -12 -70 -7 -53 -4 -51 -65 -13 -36 -17 -63 -60 -31 -59 -49 -62 0
9 65 56 42 18 -55 -41 -49 -67 -25 -12 -28 0
56 48 70 35 -23 -32 0
18 2 39 60 8 30 6 43 48 40 3 70 69 7 22 50 36 5 38 68 67 28 27 35 46 -47 -49 -65 -31 -14 -9 -55 -62 -44 -32 -24 -13 -4 -41 -29 -1 -42 -59 -57 -58 -12 -15 -10 -71 -37 -51 -17 -20 -34 -64 -23 -21 -16 -11 -56 0
44 56 70 -42 0
24 64 35 55 41 37 68 -48 -54 -61 -16 -28 -39 0
44 33 32 52 53 6 10 27 45 15 67 57 28 5 46 20 34 30 65 55 31 60 63 50 24 40 11 26 39 56 1 12 -17 -48 -69 -68 -16 -47 -21 -42 -25 -58 -59 -51 -22 -35 -71 -23 -14 -72 -3 -38 -64 -36 -49 -4 -2 -9 -13 -54 -61 -66 -7 -62 -37 -70 -29 -18 -8 0
2 16 11 7 18 23 71 47 58 43 27 32 44 62 3 63 57 13 20 19 45 49 24 26 54 -8 -14 -40 -30 -29 -67 -66 -12 -59 -5 -35 -72 -48 -21 -56 -22 -46 -15 -10 -68 -60 -38 -9 -4 -64 -17 -25 -42 0
63 8 37 57 64 30 16 47 53 71 1 22 67 40 43 24 31 7 9 55 3 72 33 21 17 59 2 61 29 34 48 49 -27 -45 -25 -69 -58 -60 -54 -26 -19 -66 -38 -68 -12 -18 -52 -35 -20 -44 -50 -70 -4 -11 -14 -36 -15 -62 -28 -42 -5 -46 -56 -41 -65 0
60 64 3 -15 -32 -8 0
64 37 62 38 44 41 34 24 21 29 28 -55 -47 -56 -11 -26 -48 -9 -57 -58 -16 -53 -27 -13 0
33 29 57 69 7 65 71 55 21 25 52 51 20 59 27 1 54 -23 -14 -13 -41 -37 -22 -48 -47 -9 -53 -70 -46 -2 -67 -3 -38 -72 0
67 4 30 52 -63 -17 0
56 41 67 38 39 54 23 65 25 14 64 68 5 60 3 -31 -47 -22 -18 -16 -52 -53 -4 -2 -13 -24 -49 -9 -70 -45 -17 -34 -35 -61 -62 -69 -72 -46 -6 -28 -51 -57 0
13 65 19 15 64 39 37 10 20 48 66 1 72 36 50 68 42 18 3 61 47 40 53 33 70 22 30 54 55 23 51 69 4 35 7 -11 -9 -12 -57 -63 -5 -56 -58 -27 -8 -32 -26 -43 -28 -60 -44 -41 -49 -14 -62 0
21 37 63 9 22 19 -64 -40 -48 -32 -16 -13 0
7 4 48 33 37 21 10 5 19 66 35 54 2 29 12 3 41 57 59 15 26 50 45 13 49 39 67 6 27 28 11 51 63 17 65 64 -46 -18 -43 -16 -61 -9 -40 -30 -25 -31 -44 -36 -38 -1 -22 -69 -60 -55 -32 -62 -14 -70 -72 -34 -53 -68 -42 -52 -47 0
62 21 49 35 60 27 10 44 45 51 25 57 -14 -46 -68 -40 -2 -54 -32 -22 -59 -71 0
16 4 32 42 59 28 45 61 49 35 33 26 63 31 70 66 69 37 52 19 43 7 6 12 38 50 15 -72 -25 -1 -44 -24 -9 -18 -54 -71 -53 -56 -14 -48 -11 -21 -20 -39 -30 -58 -5 -67 -34 -41 -46 -17 -8 -13 -29 -47 0
21 56 40 24 10 32 38 11 50 26 68 72 -60 -2 -42 -36 -64 -16 -1 -41 -19 -45 -71 0
20 19 71 68 49 72 28 40 29 31 67 1 45 41 17 48 26 69 51 8 66 24 42 53 55 15 35 -63 -56 -61 -22 -44 -65 -62 -37 -13 -32 -52 -34 -39 -59 -38 -25 -70 -47 -58 -7 -9 -6 0
68 61 63 8 51 7 65 58 49 43 44 12 56 26 24 27 23 57 60 52 32 30 71 2 17 41 -34 -3 -69 -67 -1 -45 -40 -54 -48 -66 -10 -5 -20 -4 -35 -11 -55 -50 -29 -6 -62 0
36 45 55 11 18 26 10 41 46 8 72 67 21 68 35 47 23 63 5 32 7 64 13 51 34 57 14 62 48 1 -39 -60 -22 -16 -49 -9 -24 -6 -59 -28 -54 -27 -29 -37 -66 -42 -71 -30 -3 -12 -56 -15 -50 -19 -25 -17 -2 -40 -38 -52 -4 -33 -61 -20 0
29 55 58 -35 -30 -57 -7 0
58 11 31 52 15 3 44 45 72 10 65 42 33 38 66 -47 -68 -20 -4 -9 -39 -22 -18 -48 -29 -21 -55 -7 -37 -19 -36 -57 -32 0
13 21 34 66 54 47 44 -67 -17 -63 -43 -31 -1 -60 -25 -32 -64 -45 0
71 54 46 44 62 56 7 -47 -22 -67 -61 -6 -27 -14 -52 -41 0
45 60 55 37 16 29 63 17 57 -67 -10 -48 -39 -41 -31 -50 -70 0
38 3 -8 -37 -7 0
62 66 2 30 54 33 45 46 35 36 32 44 16 27 58 21 40 63 53 10 5 72 25 47 55 19 56 9 64 13 48 14 50 22 70 59 -37 -31 -3 -34 -39 -1 -69 -17 -28 -26 -61 -68 -23 -52 -12 -41 -42 -11 -71 -4 -60 -24 -8 -51 -20 -6 -29 -43 -65 -57 0
20 56 9 32 6 33 36 10 48 12 50 30 22 45 -69 -65 -37 -13 -57 -7 0
35 23 58 13 38 9 26 33 5 46 29 27 59 34 25 7 48 2 47 6 42 14 61 4 69 19 39 64 10 30 1 -50 -18 -57 -32 -55 -44 -37 -51 -28 -52 -11 -31 -3 -12 -24 -67 -36 -15 -56 -45 -17 -60 -20 -16 -8 -21 -63 -65 -53 -40 -68 -72 -43 -49 -41 0
34 61 48 25 72 57 24 67 38 17 51 21 53 49 45 43 5 14 70 47 11 41 18 68 33 65 37 56 3 -16 -31 -6 -13 -22 -52 -39 -71 -9 -20 -60 -63 -40 -42 -54 -55 -15 -1 -12 -69 -19 -59 -44 -30 -2 -23 0
41 51 59 49 27 21 44 40 18 -63 -61 -25 -36 -7 -38 -17 -6 -12 -60 -47 -39 -69 -72 -71 0
64 57 63 5 19 52 10 22 15 4 39 69 12 28 51 49 2 32 71 9 41 1 11 56 -47 -55 -29 -59 -23 -16 -42 -66 -7 -67 -60 -50 -14 -3 -37 -30 -70 -17 -44 -38 -35 -13 -40 -43 -53 -62 -58 -6 -18 -45 -26 -24 -20 -8 0
-10 0
57 24 6 58 31 23 61 59 18 22 47 -30 -7 -27 -42 -63 -11 -41 -39 -26 0
44 52 31 56 67 6 61 33 35 3 41 11 28 57 1 9 71 50 -12 -53 -24 -34 -36 -26 -51 -72 -2 -47 -60 -63 -43 -21 -65 -54 -69 -7 -48 -38 -5 -58 -10 -8 -20 -37 0
28 23 41 53 47 15 30 62 68 40 31 67 17 65 48 7 35 10 39 46 3 70 44 22 -60 -12 -11 -27 -14 -34 -24 -6 -54 -18 -57 -2 -19 -20 -72 -69 -4 -51 -59 -8 -43 -32 -9 -16 -66 -25 -50 -26 -64 -58 -38 -42 -56 -52 -36 -1 -55 0
24 43 13 1 27 4 70 44 21 15 49 3 7 26 22 -35 -59 -69 -33 -72 -37 -53 -16 -30 -23 -6 -62 -42 -57 -47 -28 0
17 1 26 20 23 18 49 35 -4 -12 -54 -6 -57 -24 -71 -25 -50 -70 -30 0
72 9 22 43 38 42 41 33 3 1 47 19 7 40 63 32 20 21 52 -11 -48 -54 -14 -37 -8 -65 -13 -56 -57 -5 -24 -35 -23 -44 -50 -2 -45 -26 -16 -34 -61 -28 -53 0
25 31 53 6 9 37 29 67 5 44 55 3 13 22 15 1 19 8 35 24 47 56 46 68 4 16 7 40 34 18 -51 -33 -14 -48 -45 -2 -32 -63 -66 -58 -57 -61 -41 -60 -49 -50 0
35 3 16 69 2 67 50 11 55 59 57 65 54 18 52 28 38 -24 -64 -25 -49 -60 -42 -8 -7 -61 -58 -9 -63 -21 -36 -39 -20 -70 -23 -46 -44 -4 -13 -32 0
31 58 15 60 61 19 37 56 30 52 32 11 27 44 39 49 10 16 65 69 -36 -43 -67 -8 -18 -26 -5 -22 -66 -71 -28 -64 -53 -48 -57 -50 -72 -45 -54 -63 -40 -24 -2 0
20 45 38 34 56 64 43 60 5 67 36 27 9 1 71 62 32 -29 -47 -8 -28 -6 -2 -55 -12 -22 -15 -19 -3 -57 -42 -70 -33 -17 -7 0
42 63 3 33 68 44 66 25 28 10 9 46 67 40 8 20 6 11 26 38 56 58 51 71 22 -72 -57 -39 -24 -15 -18 -50 -34 -13 -54 -49 -48 -47 -32 -7 -53 -37 -21 -52 -35 -5 -55 -36 -14 -19 -30 -70 -59 -31 -27 -2 -29 -65 -62 -69 -60 -4 -1 -23 -12 -41 0
23 5 52 56 70 18 63 -55 -27 -45 -30 -8 -26 -32 -20 -21 -42 -1 0
36 1 5 67 27 24 45 26 34 43 69 17 56 14 32 42 2 47 61 60 3 -71 -28 -7 -12 -13 -59 -39 -65 -8 -18 -70 -46 -53 -52 -21 -10 -16 -20 -6 -44 0
9 5 31 34 13 72 52 30 54 6 59 57 -11 -20 -28 -51 -27 -17 -67 -2 -18 -24 -45 -15 0
47 53 60 54 48 29 51 -52 -15 -57 -12 0
47 26 23 60 32 1 28 -21 -49 -68 -18 -2 -33 -53 -9 -11 -27 -14 0
56 1 27 48 52 60 64 67 4 31 39 47 13 38 68 55 70 36 35 32 23 44 46 42 51 3 61 66 25 30 -72 -18 -17 -37 -7 -9 -45 -54 -53 -33 -21 -49 -59 -22 -19 -20 -62 -69 -26 -43 -24 0
55 29 57 15 3 54 -35 -13 -39 -32 -14 -42 -66 -5 -16 -28 0
27 35 66 54 17 23 43 64 71 4 39 20 38 -32 -52 -24 -51 -6 0
39 52 10 56 55 -32 -29 -45 -31 -37 -51 -27 -13 -26 -66 0
51 33 19 40 4 9 12 53 28 47 61 14 45 70 56 8 22 71 3 32 29 13 65 37 2 20 34 11 44 64 66 25 24 18 35 23 6 67 16 -31 -48 -30 -26 -39 -7 -27 -41 -38 -17 -15 -60 -63 -57 -10 -36 -58 -68 -69 -43 -21 -72 -55 -62 -54 -59 -42 0
56 51 2 19 69 38 -9 -6 -13 -44 -61 -37 -54 -50 0
1 36 38 41 19 54 66 27 60 17 8 52 69 -15 -39 -67 -68 -70 -50 -61 -34 -71 -14 -21 -5 -55 -20 -65 -46 -58 -47 -13 -43 -18 -44 -3 -37 0
53 59 62 12 36 72 35 67 51 69 1 3 52 37 2 55 4 27 11 32 8 9 54 25 46 29 6 68 45 49 30 42 48 43 40 -70 -64 -39 -16 -15 -44 -57 -7 -10 -65 -66 -18 -41 -19 -60 -17 -5 -61 -23 -22 -20 -71 -58 -14 -28 -33 -34 -26 -31 -38 -24 -13 0
16 67 46 30 72 4 31 45 51 66 59 61 41 57 10 12 70 14 68 64 62 58 53 42 13 9 32 17 6 -24 -3 -20 -44 -38 -22 -5 -52 -11 -33 -34 -55 -25 -35 -49 -1 -18 -43 -39 -63 -71 -47 -23 -48 -2 -65 -60 0
25 -53 0
25 56 15 19 45 31 69 7 48 40 44 3 52 10 37 63 70 71 17 -66 -61 -53 -47 -2 -62 -57 -68 -60 -4 -12 -72 -24 -11 -32 -35 -28 -29 -36 -34 -50 -14 -43 0
9 68 46 44 61 66 57 39 52 5 38 47 53 22 28 71 33 -35 -64 -34 -17 -60 -14 -24 -45 -13 -19 -62 -4 -59 -65 -69 -42 -63 0
52 17 6 35 24 46 66 13 10 71 11 4 34 68 31 41 1 47 29 65 27 21 60 55 63 48 26 2 43 70 53 12 23 67 20 22 37 62 57 -45 -64 -5 -59 -49 -50 -14 -19 -38 -51 -56 -32 -40 -8 -54 -16 -44 -42 -15 -69 -39 -7 -25 -3 -28 -58 -72 -30 -18 -36 -61 -33 0
31 36 57 68 60 32 -35 -65 -14 -43 -7 -33 0
61 40 53 6 20 42 36 60 9 70 58 25 23 43 1 65 22 19 41 31 71 29 26 13 27 10 33 39 5 57 69 14 -62 -7 -59 -2 -72 -12 -67 -11 -3 -64 -37 -32 -56 -18 -38 -17 -48 -50 -15 -4 -68 -54 0
70 20 60 50 15 -24 -48 -32 -33 -69 -14 -7 -59 -39 -64 -72 -37 -71 0
50 55 14 27 58 29 66 44 32 53 1 10 62 48 65 8 61 11 57 72 42 24 36 38 60 9 2 16 70 13 35 15 -3 -45 -25 -20 -31 -22 -67 -68 -17 -43 -49 -52 -56 -26 -40 -46 -18 -21 -12 -41 -5 -63 -6 -30 -33 -7 -39 -37 -19 -69 -71 -51 -4 -64 -59 -34 0
64 29 10 3 70 61 11 48 32 5 50 14 62 51 66 28 6 19 56 30 69 44 65 35 45 41 38 16 36 54 63 55 4 25 13 23 -7 -2 -34 -40 -9 -42 -43 -21 -58 -39 -24 -26 -72 -52 -18 -17 -15 -60 -27 -67 -49 -31 -8 -71 -59 -47 -22 -1 -20 0
23 20 14 21 50 33 42 19 65 70 49 67 15 60 56 68 51 10 59 45 26 9 12 2 18 37 35 -5 -48 -66 -16 -43 -44 -46 -61 -69 -57 -58 -31 -27 -64 -3 -24 -71 -17 -7 -13 -25 -63 -29 -38 -22 -36 -4 -41 -11 -1 -55 -53 -39 -72 0
21 4 53 62 -65 -8 -7 -28 -43 0
65 63 61 34 1 59 51 17 6 20 31 60 72 53 43 13 57 10 70 35 -16 -24 -30 -12 -25 -52 -19 -44 -11 -7 -55 -66 -33 -15 -40 -50 -47 -3 -18 -42 -62 -4 -49 -26 -5 -23 -41 -9 -22 -56 -71 -39 -8 -14 -58 -68 -29 0
62 4 12 20 -37 -51 -1 -50 -24 -14 -39 -23 -43 -3 0
14 29 -3 -68 0
30 69 56 -26 -13 0
10 65 56 61 69 32 -47 -11 0
18 41 3 56 45 17 59 6 11 28 19 49 7 43 35 52 36 29 20 39 47 10 54 32 37 67 69 2 48 -1 -26 -50 -40 -42 -31 -25 -72 -55 -34 -58 -24 -14 -53 -62 -46 -13 -12 -61 -60 -38 -9 -8 -16 -33 -65 -68 -15 -23 -63 -5 -4 -71 0
24 55 42 52 45 56 32 43 27 58 71 11 64 16 49 18 17 34 65 12 54 -33 -70 -68 -22 -41 -13 -59 -29 -30 -15 -4 -67 -40 -9 -26 -31 -53 -36 -61 -63 -23 -57 -10 -48 -46 -25 -3 -44 -8 0
11 53 62 38 20 14 8 51 29 16 45 18 58 2 34 70 30 -52 -32 -71 -36 -63 -55 -66 -72 -4 -44 -19 -10 -46 -5 -6 -65 -15 -59 -57 -49 -67 -35 -3 -48 -27 -41 -26 0
33 47 5 20 66 58 15 62 45 31 7 22 69 50 30 10 51 16 65 64 41 3 23 55 67 72 53 39 43 -29 -12 -6 -57 -59 -34 -1 -52 -61 -63 -60 -68 -11 -9 -70 -35 -49 -44 -32 -48 -2 -24 -71 -8 -26 -54 -36 -4 -28 -27 -17 -42 -18 -38 -14 -19 0
72 59 43 29 1 50 21 49 11 12 19 62 42 30 70 63 65 52 47 37 39 38 26 8 -15 -66 -67 -71 -46 -64 -5 -54 -68 -48 -23 -57 -32 -60 -18 -3 -25 -45 -6 -24 -35 -27 -13 -51 0
24 40 6 58 60 53 62 52 72 66 59 57 45 46 49 61 21 50 9 31 33 65 23 41 8 1 5 20 10 -28 -16 -29 -42 -39 -71 -13 -54 -35 -44 -47 -17 -55 -38 -27 -3 -56 -48 -43 -22 -36 0
12 16 42 24 72 -8 -53 -54 -21 0
21 43 60 9 45 54 72 42 40 13 71 30 63 22 36 38 20 2 59 46 7 4 -39 -6 -49 -44 -5 -56 -41 -53 -62 -69 -52 -57 -61 -1 -15 -48 -70 -58 -47 -64 -23 -37 -17 -32 -66 -3 -28 0
32 13 35 68 41 57 30 1 60 50 16 -44 -53 -11 -51 -22 0
43 35 15 39 1 10 32 58 16 22 4 36 48 18 51 59 34 14 19 31 29 12 37 44 41 63 25 65 47 71 38 6 17 -68 -67 -8 -3 -26 -70 -55 -45 -21 -52 -33 -57 -11 -5 -50 -69 -42 -53 -56 -7 -27 -2 -66 -23 -9 -54 -49 -46 -13 -24 -61 -64 -40 -72 -20 -30 -28 0
26 2 20 57 21 52 59 65 44 23 31 45 63 40 69 49 6 30 18 11 17 46 58 32 9 48 14 51 -60 -72 -13 -22 -35 -3 -56 -1 -28 -33 -27 -66 -25 -36 -61 -53 -15 -71 -42 -62 -64 0
24 46 63 49 43 -52 -66 -57 -44 -41 -3 -50 -6 0
49 62 8 21 58 -63 -30 -42 -26 -40 -72 -28 -66 0
63 8 67 57 29 46 39 54 13 55 43 68 3 45 48 38 2 56 7 49 30 17 70 60 -31 -69 -64 -53 -35 -24 -18 -20 -44 -14 -21 -42 -61 -27 -37 -26 -51 -65 -50 -22 -36 -6 -34 -41 -4 -33 -72 -28 -5 -16 -15 -9 0
14 29 44 56 25 20 8 47 48 28 62 41 36 42 72 34 58 1 -4 -43 -60 -53 -9 -19 -66 -69 -23 -67 -46 -33 -5 -45 -15 -52 -13 -39 0
14 19 30 53 46 69 56 63 65 40 47 27 42 16 54 48 39 60 49 52 -5 -35 -58 -9 -34 -45 -17 -7 -55 -22 -44 -12 -68 -61 -33 -28 -62 -32 -51 -57 -4 -23 -10 -70 -38 -31 -43 -2 0
28 44 71 12 21 55 9 49 3 5 7 41 31 33 25 53 15 57 48 6 16 -59 -14 -17 -1 -68 -54 -23 -20 -13 -18 0
19 33 58 50 71 5 8 64 13 55 52 2 24 1 62 16 57 12 21 20 54 9 43 48 53 10 60 35 23 28 4 56 14 -59 -68 -70 -46 -11 -22 -61 -18 -39 -40 -72 -67 -29 -17 -44 -66 -34 0
4 44 12 18 61 37 17 58 14 23 47 36 11 26 33 32 71 46 41 20 -16 -2 -62 -10 -15 -7 -40 -8 -69 -28 -57 -22 -13 -31 -24 -68 -60 0
13 6 19 3 21 56 16 33 72 69 15 25 -46 -39 -58 -4 -54 -68 -70 -26 -8 -22 -32 -42 -47 -5 -30 0
71 27 25 22 4 15 5 2 59 44 50 32 8 3 66 16 45 19 26 56 52 34 31 1 51 42 43 60 48 61 -41 -35 -11 -58 -38 -57 -53 -64 -7 -20 -33 -46 -17 -62 -14 -30 -21 -55 -37 -28 -36 -72 -29 -12 -47 -39 -69 0
40 13 12 16 50 20 52 68 49 61 59 2 15 58 -30 -48 -57 -56 -7 -31 -71 -5 -29 -72 -24 -46 0
44 -13 -42 -43 -30 0
15 22 43 68 37 70 52 36 49 53 44 8 23 31 6 16 32 56 41 35 34 4 66 48 24 2 63 42 21 17 5 -72 -7 -61 -11 -29 -10 -14 -40 -58 -12 -69 -59 -71 -9 -54 -62 -64 -65 -28 -13 -55 -60 -26 -19 -3 -1 -20 -25 -38 -47 -45 -39 -18 -46 -57 -51 -27 -33 -50 -67 0
32 33 40 6 35 28 72 44 7 11 42 58 3 -17 -37 -56 -62 -47 -38 -61 -2 -45 -59 -41 -64 -12 -63 -13 -15 -25 0
15 46 55 48 16 34 56 41 61 28 47 53 39 71 1 57 69 14 13 40 29 -67 -62 -12 -8 -27 -20 -44 -2 -24 -11 -22 -4 -43 -66 -68 -52 0
28 60 18 56 20 39 24 35 21 48 3 11 63 12 8 50 32 -9 -46 -54 -52 -40 -47 -69 -10 -5 -41 -7 -34 -23 -25 -31 -36 -2 -43 -15 -72 -42 0
71 54 58 59 45 10 1 16 38 32 67 2 35 55 14 69 20 29 27 19 22 53 6 4 62 28 56 33 43 72 47 57 -30 -41 -61 -13 -23 -49 -12 -48 -65 -70 -68 -52 -36 -63 -64 -9 -25 -17 -5 -34 -26 -37 -8 -66 -11 -39 -42 -24 -44 -31 -21 -3 -40 -7 -18 0
9 69 15 71 65 48 8 35 57 60 21 32 14 1 51 7 41 66 47 56 72 53 43 67 6 64 16 -54 -42 -11 -52 -58 -38 -30 -61 -63 -24 -31 -55 -46 -25 -33 -36 -62 -59 -68 -28 -34 -13 -37 -40 -45 -18 -39 -2 0
15 66 47 62 43 19 32 55 28 46 25 36 33 48 68 27 26 1 29 51 21 54 31 56 9 64 59 65 20 17 13 38 -40 -41 -39 -5 -45 -4 -70 -24 -71 -7 -63 -8 -14 -12 -23 -52 -44 -6 -22 -11 -30 -16 -37 -49 -35 -10 -34 -60 -18 -50 -67 -3 -2 -53 -69 -57 -42 -61 0
28 68 20 24 -31 -2 -43 0
7 6 70 48 63 11 9 2 71 39 24 47 32 60 69 56 53 22 54 29 36 34 23 61 31 27 44 37 -12 -67 -28 -68 -41 -62 -21 -26 -35 -50 -43 -3 -52 -42 -57 -72 -10 -20 -55 -4 -40 -30 -59 -51 -33 -1 -45 -49 0
34 65 45 13 41 40 25 31 58 44 39 2 63 18 46 30 54 17 55 -27 -24 -1 -37 -3 -9 -11 -15 -29 -19 -62 -35 -23 -69 -28 -22 -26 -12 -4 -57 -67 -71 -64 -72 -53 -33 -21 -70 0
63 35 2 47 69 5 12 53 24 19 -56 -15 -1 -6 -38 -50 -60 -64 -54 -29 -30 -10 -22 -46 -72 -23 0
7 37 2 62 50 61 10 31 63 -58 -15 -12 -68 -32 -11 -38 -20 -21 -59 0
11 46 69 57 56 42 7 63 31 52 12 48 33 24 3 21 29 28 16 41 62 -39 -51 -50 -58 -47 -45 -44 -20 -55 -6 -26 -27 -38 -5 -22 -66 0
16 46 48 69 23 47 29 18 61 31 53 63 35 54 28 19 68 38 22 8 72 20 -59 -50 -41 -44 -21 -51 -11 -4 -67 -33 -30 -5 -49 -9 -70 -39 -55 -37 -7 -42 -36 -60 -17 -10 -43 -52 -64 0
28 1 34 9 22 26 11 15 20 8 41 2 62 4 14 44 42 48 51 37 25 56 29 54 -61 -70 -47 -24 -6 -60 -12 -17 -64 -69 -3 -57 -21 -46 -39 -58 -40 -27 -38 -67 -16 -5 -30 -45 -71 0
44 19 36 -42 -63 -6 -66 -61 -21 -25 -20 0
36 -16 -33 -39 -67 0
30 58 13 57 61 65 10 70 18 15 8 12 60 -7 -33 -19 -72 -36 -2 -51 -5 -17 0
58 21 49 8 51 31 33 36 52 41 13 44 45 60 12 42 19 1 66 50 2 32 57 29 62 70 65 6 37 10 20 17 7 26 46 30 64 -68 -56 -23 -71 -55 -53 -24 -28 -5 -14 -15 -16 -67 -47 -54 -9 -72 -40 -34 -3 -22 -35 -18 -69 -63 -4 -48 -38 0
4 26 34 3 20 62 16 35 56 1 22 10 7 32 36 24 33 52 49 37 70 38 67 23 27 11 44 72 53 48 30 -28 -25 -68 -59 -45 -15 -63 -9 -61 -29 -18 -71 -46 -31 -41 -47 -69 -19 -2 -14 -12 -50 -5 -57 -58 -54 -8 0
5 22 23 40 42 59 37 71 43 35 3 55 1 41 7 17 61 20 54 38 45 -32 -24 -16 -64 -31 -67 -26 -28 -63 -33 -48 -51 -53 -9 -57 -10 -58 -68 0
2 67 5 69 57 14 56 16 70 12 49 4 31 33 3 24 62 29 59 44 52 61 68 60 37 71 11 32 50 28 36 -47 -30 -1 -45 -46 -8 -6 -13 -7 -41 -39 -22 -27 -42 -9 -19 -35 -17 -40 -65 -43 -53 -51 -21 -25 -63 -72 -18 -64 -10 -55 0
29 37 15 50 31 28 9 27 21 18 38 59 2 42 61 43 20 60 34 10 64 35 -6 -52 -68 -53 -66 -44 -70 -46 -54 -14 -63 -67 -25 -57 -72 -32 -22 0
52 30 43 8 71 31 -18 -67 -3 -70 -35 -72 0
9 36 44 40 30 72 65 5 70 15 1 53 32 16 57 3 7 43 12 34 59 60 66 26 21 6 31 69 8 39 -55 -47 -22 -51 -13 -52 -61 -35 -19 -68 -24 -37 -64 -25 -56 -38 -14 -27 -48 -62 -4 -10 -63 -67 -42 -58 -46 -54 -17 -41 -50 -45 -33 -71 -18 0
34 31 44 6 51 10 71 -37 -29 -9 -62 -54 -38 -46 -64 0
34 2 28 69 54 18 41 -70 -43 -21 -47 -39 0
12 29 51 56 33 5 26 52 64 50 72 24 6 45 67 39 59 58 2 66 61 54 32 49 9 69 71 25 42 15 28 48 46 44 47 1 53 70 14 16 -19 -27 -20 -62 -38 -21 -40 -3 -36 -34 -22 -37 -18 -55 -43 -31 -11 -30 -13 -8 -41 -10 -65 -23 -4 -35 0
6 55 32 53 37 22 56 23 25 62 26 71 35 15 43 50 14 66 40 61 18 41 45 -10 -28 -17 -59 -3 -36 -72 -65 -52 -9 -38 -30 -11 -68 -29 -54 -16 -47 -49 -60 -34 -12 -7 -13 -63 -27 0
42 34 30 68 18 6 44 24 55 72 32 27 58 46 29 1 4 13 7 10 45 26 56 15 36 31 41 33 12 63 -28 -64 -69 -37 -22 -49 -9 -11 -52 -53 -3 -5 -39 -20 -2 -19 -23 -35 -65 -62 -70 -50 -14 -47 -59 -66 -40 -16 -38 -61 0
48 53 66 6 17 24 61 67 5 11 29 62 28 68 3 7 40 64 23 57 32 47 55 2 39 27 31 21 19 71 63 -25 -10 -1 -38 -49 -60 -52 -13 -59 -42 -12 -44 -58 -35 -22 -41 -50 -9 -70 -46 -4 -26 -37 -36 -8 -15 -16 -54 -14 -18 -34 -51 -65 -45 -30 -56 -69 -33 -20 0
