c NeuroCodeBench 2.0 CNF formula with verdict Sat
p cnf 33 282
30 29 33 7 2 28 32 23 17 4 9 6 -24 -25 -15 -11 -12 -16 -5 -27 -10 -8 -31 -21 -18 -14 -20 -19 -22 0
17 -6 0
32 14 17 22 31 29 1 8 3 9 6 25 30 12 18 16 10 20 -2 -15 -26 -4 -21 -11 -5 -19 -13 -28 -23 -24 -33 -27 0
4 6 23 22 5 7 3 17 20 25 31 14 1 12 2 18 30 -9 -11 -32 -27 -26 -33 -13 -29 -28 -15 -16 -24 -21 -8 0
33 30 32 4 28 29 16 21 7 15 9 -24 -19 -26 -2 -11 -10 -31 -5 -27 -25 -22 -3 -6 0
20 25 23 5 13 9 14 32 -29 -22 -2 -7 0
7 17 2 30 8 15 -24 -13 -19 0
14 33 20 30 9 1 3 5 6 10 31 -17 -4 -25 -22 -13 -15 -19 -24 -18 -7 0
31 22 10 3 9 2 27 18 32 0
19 2 -3 -8 0
19 18 22 30 2 -9 0
25 24 26 -32 -13 -3 -31 -19 -11 -9 0
4 32 -20 0
26 5 7 14 4 22 11 17 2 8 -19 -9 -16 -13 -21 -23 -3 -6 -29 -30 -12 -33 -28 -25 -27 -18 -24 -15 -32 0
5 33 18 28 26 11 21 12 7 25 15 1 24 27 -29 -9 -19 -4 -6 -17 -32 0
29 2 1 4 26 15 9 23 6 10 11 32 5 24 3 -25 -28 -8 -27 -20 -21 -31 -22 -13 -7 -19 0
5 4 12 19 6 25 27 20 17 10 9 28 8 16 26 -3 -33 -31 -22 -13 -1 -7 -2 -29 -23 0
26 15 5 11 10 9 23 22 12 28 -4 -33 -25 -29 -3 -32 -20 -21 -16 0
4 25 -14 -18 -5 0
22 24 23 -9 -1 -14 0
22 6 29 17 12 3 16 23 2 8 -14 -24 -15 -7 -10 -11 -30 -32 -9 0
25 20 14 24 27 9 -5 -4 -3 -17 -21 -32 -2 -1 0
15 27 16 4 33 26 11 21 3 12 20 1 -32 -19 -31 -7 -2 -8 -13 -18 -29 -24 -17 -9 -22 -25 -6 -30 -14 -23 -28 -10 0
23 3 17 25 13 10 2 -12 -16 -22 -30 -5 -14 0
22 7 33 32 13 6 10 11 18 24 2 1 -12 -16 -19 -14 -20 -30 -17 -9 -27 0
32 5 22 1 19 -33 -13 -4 -17 -25 0
13 15 5 33 12 16 22 20 6 30 25 21 9 -29 -28 -4 -24 0
13 0
33 23 -14 -12 -26 0
2 3 6 4 28 16 25 13 30 33 21 -20 -31 -26 -27 -5 -24 -18 -19 -29 -17 -10 -11 -22 -7 -12 -14 -15 0
20 10 24 16 2 26 -29 -1 -11 0
31 12 14 33 4 -3 -29 -18 -6 -28 -10 0
5 27 18 32 14 12 11 3 15 16 -21 -2 -10 -1 -22 -33 -31 -23 0
25 29 19 16 21 1 13 26 17 12 15 -18 -27 -8 -20 -31 -2 -3 -10 -33 -28 -6 -24 -32 -30 -11 0
32 -11 -1 -20 -16 -7 -9 0
8 12 18 5 -11 -13 0
1 13 33 27 25 31 10 29 4 11 22 -17 -24 -14 -5 -6 -28 -19 -2 -23 -30 -16 -8 -21 -3 -7 0
14 31 23 4 15 16 32 12 -29 -11 -8 -3 -26 -6 -21 -24 -28 -17 0
24 20 27 12 7 32 29 22 4 11 16 5 -6 -25 -8 -15 -17 -28 -26 -31 -18 -3 -33 -10 -14 -13 -21 -30 -23 -2 0
18 3 0
19 13 10 28 32 24 11 6 20 21 15 18 7 2 9 -8 -14 -4 -3 -33 -12 -29 -22 -26 -30 -27 -1 -16 -5 -17 -25 0
9 32 -20 -14 -27 -23 0
15 2 32 9 24 18 28 -22 -13 -21 -6 -19 -30 -1 -16 -17 0
27 30 7 28 1 3 -31 -32 -33 -16 -26 -22 0
24 9 14 1 11 29 2 30 13 8 23 6 15 26 17 27 -10 -25 -21 -33 -3 -7 -12 -28 -16 -22 -32 0
2 16 21 33 7 4 11 25 -27 -19 -1 -22 -13 -30 -28 -26 -31 -32 -20 -3 -8 0
22 3 0
26 10 23 18 16 -22 -4 -21 -1 0
22 -3 -2 -17 -21 -4 0
2 33 9 21 29 20 27 32 7 14 16 17 3 8 31 13 -26 -5 -15 -4 -24 -11 -28 -19 -30 -6 -25 -1 -12 0
27 31 21 24 9 30 23 -1 -32 -2 -11 -29 -5 0
11 20 22 3 17 29 27 -10 -26 -4 -19 -24 -31 -8 -18 -28 -30 -1 -16 -2 -13 0
18 29 17 14 22 12 23 -31 -4 -6 0
4 13 22 9 19 14 -11 -6 0
25 32 29 14 1 9 -7 -3 -24 -8 -18 0
6 7 -27 0
26 31 19 28 18 21 1 -20 -22 -15 -25 -8 0
16 12 14 33 32 28 8 5 17 11 6 10 3 2 30 20 -7 -18 -4 -25 -1 -31 -21 -13 -22 -23 -29 -19 -9 -26 -27 0
30 11 14 4 5 32 8 1 28 22 33 31 27 -16 -20 -21 -13 -17 -10 -12 -18 -26 -7 -6 -3 -9 -23 -15 -25 -29 -24 0
8 24 25 9 6 12 3 -18 -27 -31 -14 -32 -5 0
30 32 17 20 1 12 28 6 31 10 24 7 21 22 16 11 -27 -3 -26 -14 -19 -8 -33 -2 -18 -4 -25 -29 -9 -15 -23 -13 0
18 25 -28 -24 -19 -12 -16 -15 0
8 31 26 -20 -28 -33 -22 -16 -25 -3 -30 -1 -7 0
33 16 31 28 24 27 23 15 25 9 17 7 14 32 -29 -10 -4 -11 -19 -8 -12 -3 -30 0
30 9 13 1 27 24 32 -18 -29 -23 -3 -11 -26 -15 -6 0
29 9 32 27 10 28 4 33 18 30 6 -16 -20 -1 -19 -2 -17 -24 -23 -26 -12 -3 -15 -31 -22 -13 -5 -25 -14 -21 -8 -7 0
32 14 7 1 8 4 20 17 12 13 29 -11 -30 -5 -33 -10 -21 -22 -2 0
32 30 1 0
27 17 19 21 29 -5 -32 -14 0
8 21 12 15 16 3 4 24 -11 -13 -20 -1 -2 -25 -23 -26 -6 0
17 31 13 -16 0
12 21 25 22 33 28 16 14 30 6 5 9 29 4 -7 -3 -26 -8 -32 -31 -15 -18 -24 -2 -27 -20 0
19 30 2 20 15 4 7 22 -32 -29 -33 -16 -23 0
10 3 9 5 27 17 14 24 2 11 22 -13 -20 -19 -30 -29 -18 -6 -7 0
21 22 17 7 2 20 6 15 -19 -28 -25 -18 -23 -16 -1 0
21 16 7 26 2 24 30 17 15 4 20 -3 -12 -13 -14 -29 -5 -22 -18 -19 -25 -9 -11 -28 0
9 26 21 32 30 31 25 10 6 17 27 -28 -3 -33 -22 -18 0
27 18 24 28 25 33 23 2 17 3 13 32 31 21 9 8 -26 -16 -4 -12 -19 -6 -5 -22 -10 -7 -11 -30 -1 -14 -20 -29 0
8 24 18 10 21 25 23 14 11 -17 -1 -19 -7 -32 0
8 0
31 16 -15 -13 -12 -2 0
17 0
25 9 19 30 12 -6 -33 -21 -5 -11 0
3 22 9 16 21 2 32 -20 -6 -14 -12 -30 -25 -19 -28 -24 -33 0
4 2 5 3 12 31 -20 -14 -16 -24 0
18 32 20 4 -26 -28 -11 -2 -27 -21 -12 -3 -17 0
20 14 32 4 19 28 1 12 8 6 29 33 27 21 7 10 22 11 -31 -23 -3 -5 -30 -24 -2 -16 -17 -18 -13 0
10 6 5 24 29 21 9 -18 -30 -15 -25 0
25 24 32 4 31 3 19 -21 -9 -30 0
27 -29 -11 0
8 26 6 21 16 30 18 25 33 23 -20 -3 -29 -14 -24 -15 -17 0
4 22 -15 0
11 16 5 8 -13 -25 -18 -32 -26 0
31 26 2 -9 -1 -30 -13 0
10 -32 -30 0
19 29 13 17 24 28 32 23 -21 -12 -18 -16 -33 -10 -1 0
10 14 23 26 19 25 11 9 22 1 8 -7 -4 -30 -13 -27 -20 -24 -18 -2 -15 -17 -29 -16 0
10 30 27 -26 -7 -22 -21 -11 -18 -3 -16 0
1 0
18 16 2 -29 -13 -19 -33 -26 -15 -5 -3 -27 0
10 9 -11 0
4 7 15 14 19 31 23 9 21 5 16 10 25 2 30 24 -20 -12 -13 -26 -29 -6 -11 -33 -3 -27 -18 0
23 3 -32 -4 -26 0
4 21 10 12 31 28 3 26 16 13 -20 -17 -33 -18 -15 -19 -5 -7 -27 0
20 21 12 7 27 26 25 -1 -22 -3 -6 -8 -23 -9 -4 -17 -24 -31 -19 -18 -14 -11 -2 -13 -33 0
30 5 -25 -32 -20 -31 0
1 15 24 22 4 31 12 3 5 13 19 -11 -7 -17 -10 -20 -6 -2 -32 -16 -30 -18 -26 -27 0
30 -7 -11 -10 0
11 24 21 22 30 31 23 8 20 10 9 32 16 13 29 19 -33 -5 -18 -25 -14 -4 -17 -1 -27 -3 -7 -26 -15 -12 -2 0
17 12 33 -25 -31 -14 0
1 16 2 5 19 -8 -29 -18 -10 -15 0
19 17 11 14 12 32 18 10 8 28 -33 -22 -6 -3 -4 0
25 16 6 13 21 30 26 5 28 7 27 17 14 19 11 12 29 10 -33 -9 -32 -22 -1 -31 -4 -20 -18 -23 -3 -2 0
1 19 9 8 22 3 13 15 27 2 11 -12 -30 -6 -16 -7 -10 -18 -29 -17 -23 -14 -28 -26 -20 -24 -25 -21 -31 0
28 27 17 12 29 26 16 30 3 1 2 -22 -19 -21 -20 -15 -4 -11 -6 -5 -32 -7 -25 -9 -14 0
29 2 31 24 11 26 7 20 28 3 15 -5 -1 0
7 8 10 21 6 14 17 11 29 15 32 -20 -9 -25 -5 -12 -4 0
22 1 13 16 33 4 21 6 10 17 -18 -31 -7 -2 -24 -5 -14 -30 -11 -15 -26 -9 0
6 8 -33 -30 0
21 -20 -27 0
1 16 32 14 31 24 12 3 21 5 18 4 -19 -11 -13 -23 -22 -20 -8 -9 -27 0
32 19 29 4 -10 -11 -22 -21 -23 -14 0
22 1 6 26 25 23 7 8 33 16 2 -24 -20 -18 -32 -4 0
22 6 2 25 26 -24 -15 0
17 10 24 2 19 6 4 30 18 -22 -9 -5 -14 -8 -26 -33 -28 -12 -29 -3 -16 -23 0
13 3 12 32 5 19 16 14 4 28 21 -24 -9 -7 -31 -33 -1 -17 -23 -20 0
22 21 25 23 13 12 10 -26 -4 -2 -20 -3 -18 0
11 33 13 25 8 3 16 32 17 20 -2 -21 -22 -31 -30 -6 -12 -29 -14 -23 -27 0
21 18 14 13 24 2 23 6 25 -29 -10 -16 -22 -30 -7 -3 -31 -17 -33 -4 -11 -20 -27 -5 0
3 23 18 16 25 22 30 17 10 28 -24 -8 -5 -19 -4 -7 0
22 2 8 14 30 1 10 18 13 19 27 16 -25 -21 -15 -3 -5 -32 -20 -11 -23 -24 -33 -26 -9 -12 -17 0
26 14 -1 -22 -20 -4 0
11 10 23 -19 -22 0
33 29 8 12 16 21 6 -11 -32 -18 -3 -25 -15 -28 -13 0
18 15 32 -27 -12 -2 -6 -23 -4 -16 0
25 5 26 4 28 29 14 2 7 23 -22 -20 -9 -3 -19 -12 -15 -16 -30 -1 -33 -24 -17 0
19 14 25 29 17 1 20 30 6 15 26 -18 -2 -22 -33 -7 -4 0
4 12 21 8 31 14 29 25 13 17 2 30 22 28 -16 -27 -19 -11 -20 -6 -32 -15 -33 -1 -18 -26 -9 -3 0
29 13 2 15 22 27 9 -8 -12 -5 -32 -28 -26 -16 0
19 21 33 1 18 4 7 32 5 23 16 -3 -10 -2 -28 -9 -13 -6 -27 -17 -24 -30 -20 -15 0
17 -3 0
13 8 22 14 25 10 28 31 4 17 15 19 11 26 -24 -30 -1 -12 -33 -18 -21 -23 -32 -27 -2 -7 -5 -20 -9 0
13 26 1 30 7 4 27 3 31 9 -5 -32 -10 -6 -20 -21 -12 -2 -24 -33 -15 0
10 -7 -12 0
13 14 18 30 26 5 -31 -24 -1 -32 0
31 2 1 9 30 10 16 7 23 33 5 24 18 -12 -4 -17 -32 -13 -14 -6 -28 -8 -27 -11 -3 -15 -26 -22 0
29 4 27 22 1 31 9 5 15 26 3 12 -8 -11 -20 -10 -2 0
16 8 7 9 30 13 19 20 14 23 32 -15 -3 -6 -12 -25 -11 -27 -5 -28 -29 -31 -10 -33 -2 -4 -1 -24 0
22 3 33 25 11 5 28 7 4 13 27 -26 -16 -19 -1 -17 -21 -6 -9 -8 -30 -18 -24 -10 -20 -12 -29 -32 -15 -31 -23 -14 0
30 28 4 31 12 1 13 14 19 24 3 26 25 -17 -15 -23 -5 -18 -22 -29 -27 -11 -8 0
16 32 -4 0
29 31 1 14 22 25 23 24 6 32 21 33 -2 -26 -18 -19 -16 -10 -27 -13 -3 -28 -17 -8 -5 -15 0
16 20 -10 -8 -30 0
10 12 23 17 6 5 15 19 21 11 3 -13 -7 -22 -33 -24 -16 -31 -32 -4 -2 0
17 19 25 10 24 23 30 29 14 12 9 -5 -32 -31 -11 -8 -27 -16 -26 0
8 33 -13 -29 0
-22 -25 -12 -29 0
19 20 28 30 29 -21 -10 -1 -12 -2 -24 -8 -6 -22 -31 -25 -5 -4 0
27 29 26 22 23 31 9 18 28 5 -6 -16 -20 -7 -11 -13 -19 -3 -24 -32 -1 0
8 16 2 31 32 3 -11 -5 -15 0
23 15 13 27 31 16 6 26 19 2 1 5 24 20 28 -22 -8 -14 -32 -29 -18 -10 -9 -21 -4 -7 -3 -12 0
4 31 28 7 12 2 13 -15 -26 -8 -3 -16 -24 -6 -10 -22 0
19 7 30 2 28 21 31 20 33 15 25 -13 -18 -10 -22 -24 -6 -1 -11 -17 -23 -9 -8 -26 -3 -27 0
15 10 5 29 13 27 24 3 17 2 18 6 33 8 23 -16 -25 -31 -32 -9 -14 -20 -4 -21 -19 -1 -7 -12 -28 -30 -11 0
21 13 25 1 23 19 15 3 -8 -30 -18 -10 -32 -27 -9 -22 0
26 13 21 5 27 24 6 8 -2 -25 -3 -23 -33 -17 -18 -31 -30 0
10 26 -30 -24 -33 0
14 12 20 18 19 28 31 27 -7 -3 -29 -10 -15 -11 0
24 10 14 6 22 16 9 -13 -19 -25 -2 -30 -3 -26 -20 -1 -33 0
2 13 10 18 -15 -20 -8 -25 -12 -23 -32 -31 -4 -16 -27 0
16 26 22 7 17 12 1 20 33 15 19 30 29 5 -2 -21 -25 -28 -8 -4 -18 -6 -24 -11 -14 -10 0
9 26 31 17 1 23 16 15 27 2 22 3 12 -21 -32 -7 -8 -28 -30 -33 -25 -24 -10 -4 -14 -5 0
27 11 29 22 19 10 15 5 31 12 14 4 2 13 28 18 23 6 -24 -32 -17 -9 -25 0
23 29 3 8 26 22 15 20 14 12 9 27 -1 -6 -11 -28 -30 -25 -4 -17 -18 -24 -31 -7 -19 -13 -10 -2 0
17 25 2 8 7 26 3 4 6 23 30 14 18 -1 -5 -20 -10 0
5 21 24 23 12 27 17 13 7 25 29 14 18 1 3 32 19 -31 -8 -26 -9 -4 -22 -15 -2 -30 -10 -28 -33 -16 -11 0
28 33 11 5 13 12 20 23 8 25 6 16 27 14 -18 -30 -29 -32 -2 -10 -7 -9 -3 -4 -22 -1 -17 -21 -24 -31 -15 0
14 30 17 18 23 12 10 29 22 28 13 7 -16 -2 -27 -25 -33 -21 -4 -31 -1 -5 -24 0
10 33 9 8 -5 -14 -12 -29 -30 -1 -4 -17 -7 -32 -6 0
17 28 31 18 15 7 33 -1 -30 -27 -32 -11 -22 -8 -9 -6 -21 -16 -4 0
23 -4 -32 -11 -3 -30 0
7 20 32 3 27 30 23 1 14 28 5 24 10 -15 -11 -33 -17 -8 -21 -31 -16 -13 -2 -19 -6 0
9 19 29 22 32 33 -15 -28 0
12 7 25 33 22 10 -6 -17 -20 -18 -8 -27 -4 -15 -5 -29 -1 0
21 14 3 30 17 5 11 23 25 26 4 24 18 31 -10 -33 -15 -12 -20 -22 -16 -2 -6 -27 -19 -9 -28 -1 -32 0
32 29 10 20 27 6 5 -3 -17 -12 -14 -18 -13 0
31 9 24 12 22 4 26 -1 -16 -8 -25 -32 -33 -13 -20 0
32 25 21 13 -31 -17 -11 -22 -26 -33 -3 -1 0
21 25 32 33 7 8 31 24 30 -18 -29 -16 -19 -3 -1 -27 -15 0
32 10 2 1 14 9 12 19 21 15 29 33 22 30 -23 -4 -27 -16 -24 -26 -18 -31 -11 -13 -17 0
27 33 23 31 9 -19 -18 -22 -14 -32 -11 0
19 -13 -17 0
6 23 12 18 20 29 16 25 31 7 26 30 2 5 27 24 15 4 -9 -22 -8 -21 -3 -14 -28 -1 -10 -32 -17 -19 -33 -11 0
6 12 17 -16 -2 -8 -9 -21 0
4 19 1 21 18 9 28 15 3 20 12 22 23 33 25 -10 -27 -29 -8 -6 -14 -2 -5 -11 -26 -30 -13 -32 -24 -7 0
30 3 8 17 6 18 31 27 22 23 -16 -9 -29 -1 -4 -21 -26 -13 -7 -5 -14 -28 -20 -33 -12 0
2 6 -12 -22 -8 -26 -13 -3 -11 -15 0
24 20 4 27 14 -26 -19 -22 -12 -11 -15 -29 -25 0
23 30 20 29 12 -17 -26 -1 -9 -21 -25 -2 -11 -22 -31 -18 -16 0
28 31 11 0
9 0
3 10 14 16 -33 -5 -15 -23 -12 -1 -8 -31 -6 -29 -20 -4 -26 0
15 26 27 -24 -14 0
6 16 5 20 17 23 28 31 14 -3 -1 -10 -25 -9 -32 -33 -22 0
20 26 18 15 19 22 9 7 31 -23 -30 -3 -14 -16 -10 -21 -28 -32 -24 -12 -8 -1 -29 -2 -25 -11 -6 -27 0
32 22 3 8 27 26 19 2 12 21 29 4 6 33 28 -13 -18 -5 -20 -24 -30 -7 -10 -31 -11 -9 -14 -15 -25 0
28 11 23 25 14 10 17 -31 -29 -7 0
19 26 3 4 -13 -9 -20 -22 -31 -11 -24 0
11 26 32 12 29 14 17 25 18 1 20 -33 -24 -22 -10 -9 -21 0
16 21 -33 -8 -29 -28 -11 0
23 28 20 1 30 21 13 26 3 7 24 -17 -18 -16 -29 -6 -2 -9 -12 -4 -11 -5 -33 0
18 13 25 7 31 24 4 14 20 9 30 -1 -15 -26 -6 -33 -27 -12 -32 -23 -2 -17 -19 -16 -11 -5 0
9 23 16 7 29 33 18 19 22 -31 -14 -11 -32 -20 -2 -17 -26 -28 -25 0
33 9 7 2 14 20 8 24 11 22 32 23 25 12 -18 -17 -16 -26 -29 -28 -13 -19 -6 0
19 6 3 25 20 13 22 4 16 5 11 17 -33 -8 -32 -18 -23 -26 -29 -10 -7 -14 -9 -2 -21 -24 -1 -28 -15 0
9 33 31 13 23 19 -15 -4 -17 -18 -29 -24 -25 -30 -14 -21 -5 -22 -32 -27 -1 -6 -3 0
5 16 32 21 7 22 -30 -27 -25 -17 -20 -11 -28 -19 -1 0
8 10 33 16 9 21 2 24 27 4 6 15 14 -1 -32 -20 -29 -30 -5 -17 -12 -23 -22 0
24 30 12 21 13 16 23 -22 -7 -28 -3 -18 -32 -20 -9 -4 -8 0
12 15 11 27 9 5 16 22 31 18 33 26 8 -24 -25 -21 -1 -6 -29 -20 -13 -7 -10 0
26 32 11 5 -10 -20 0
3 4 0
31 27 2 15 23 19 6 4 8 14 16 -5 -22 -30 -20 -25 -10 -26 -28 -32 -13 -29 -21 -9 -17 0
31 15 13 0
13 26 30 -22 0
18 26 28 12 25 9 -32 -3 -6 -15 -5 -24 -13 0
28 14 30 16 5 17 8 22 31 27 33 -13 -6 -3 -29 -15 -26 -2 -10 -18 -1 0
18 32 17 22 10 -7 -26 -27 -4 -31 -23 -14 -2 0
9 6 19 26 32 3 24 11 8 16 21 28 -23 -10 -7 -15 -12 -17 -30 -2 0
28 10 -7 0
1 13 12 15 14 19 5 26 3 7 17 20 9 22 29 32 11 -25 -30 -8 -10 -24 -27 -6 -4 -31 -2 -18 -16 -33 0
5 24 3 -4 -19 -9 -27 -6 -20 -31 -30 0
1 29 22 30 20 12 24 19 3 -15 -14 -6 -16 -26 -18 -2 -32 -27 -4 -21 -17 -31 -33 -25 0
4 24 8 27 17 23 1 -16 -12 -21 -10 -30 -20 -26 0
3 20 21 24 6 -27 -13 -9 -31 0
10 8 6 17 15 2 -12 -29 -4 -5 -23 -21 -11 -22 0
17 13 3 23 10 22 33 4 25 29 -32 -7 -27 -11 0
32 31 10 -24 -18 0
21 1 9 27 33 13 -22 -31 0
24 15 11 30 21 25 2 10 17 20 4 5 16 26 -9 -28 -32 -27 -12 -14 -33 -22 -8 -7 -6 -31 -1 -3 -18 -23 -29 0
33 4 6 32 10 20 18 11 -17 -23 -12 -22 -25 -1 -13 -30 -31 -24 -19 -16 -2 -9 0
7 15 28 29 1 16 10 5 22 -20 -12 -4 -11 -3 -21 -31 -19 -25 -32 -33 -2 -13 -9 -30 -18 -6 -17 0
26 13 2 27 25 20 3 18 5 -30 -21 -28 -12 -6 -19 -8 -23 -31 -14 0
33 15 5 20 30 21 6 2 13 11 8 25 26 -23 -10 -32 -18 -9 -28 -31 -19 -12 -14 -22 -29 -24 -1 -4 -27 -16 -17 0
12 1 25 15 28 21 22 32 11 -3 -33 -18 -26 -6 -23 -16 -13 -24 0
3 32 16 14 6 15 24 -2 -21 -17 -22 -31 -23 -1 0
5 20 14 7 32 -21 -4 -23 -25 -18 -30 0
29 33 26 32 9 -1 -23 -6 -15 -4 -18 -11 -16 -12 0
22 18 9 2 16 24 31 17 -30 -6 -4 -29 -3 -28 -5 -21 -11 -19 -13 -1 -20 -23 -26 0
3 18 22 8 24 6 19 29 26 12 1 10 14 -25 -5 -11 -7 -32 -30 -23 -16 -17 -27 -9 -4 -2 -31 0
17 33 4 -7 -16 0
18 22 30 16 15 33 27 25 19 4 -28 -7 -3 -21 -12 -8 -17 -2 -31 -29 -6 -9 -5 -32 -13 0
19 27 -9 -3 -26 -14 0
22 28 15 27 10 6 -25 -26 -13 -20 -17 -31 -7 -29 0
24 19 -18 -6 -30 0
30 2 11 24 10 16 22 17 7 25 -21 -27 -8 -14 -15 -6 -32 -4 -33 -31 -5 0
9 25 27 12 1 -16 -5 0
17 6 30 21 33 4 3 18 15 19 10 9 12 14 -31 -24 -16 -2 -20 -5 -25 -13 -28 -32 -29 -1 -22 -27 -26 -23 -7 -8 0
10 26 19 7 33 23 14 8 3 11 6 22 15 28 -16 -5 -17 -32 -18 -2 -12 -27 -13 -31 -24 -1 -30 -29 -25 -21 -4 0
9 28 32 15 19 31 11 7 10 21 6 -17 -5 -12 -14 -25 -30 -22 -1 -33 -2 -16 0
20 28 -26 0
12 8 28 23 11 24 27 33 26 29 18 6 -31 -20 -25 -15 -17 -19 -21 -13 -3 -2 -30 0
18 3 32 27 24 33 20 13 8 23 14 11 6 30 15 19 28 26 -29 -1 -31 -5 -12 -17 -16 -25 -21 -22 -4 0
3 33 27 20 4 25 17 31 26 24 29 9 11 -7 -14 -23 -19 -13 -30 -1 -15 0
26 19 31 25 17 23 8 29 32 12 1 5 -2 -3 -10 -28 -33 -30 -13 -18 -27 0
28 14 6 21 31 30 -3 -22 -8 -20 -24 -27 -1 -11 -2 -4 -10 -17 -29 -12 -23 -26 0
26 22 8 2 24 6 20 14 27 15 23 13 19 4 28 -18 -11 -1 -7 -31 -16 -3 -33 -12 -17 0
29 13 28 18 8 15 24 21 23 16 -6 -33 -25 -5 -1 -14 -3 -2 0
28 21 11 27 33 12 -30 -25 0
8 4 31 14 33 28 7 12 11 -2 -29 -23 -5 -15 -17 -19 -22 -3 -20 -9 -27 -30 -16 -32 -1 -6 -24 0
17 4 10 9 -19 -32 -23 0
15 14 29 18 2 21 8 -20 -4 -24 -7 -31 -30 -23 -3 0
25 14 19 -9 0
14 19 23 28 13 18 9 30 5 -33 -10 -6 -1 -21 -12 -31 -27 -26 -32 -2 -3 -17 -15 -8 0
28 18 12 33 29 7 14 32 21 25 10 13 9 8 -22 -11 -1 -3 -15 -5 -26 -31 -17 -6 -4 0
1 20 10 18 4 21 31 27 3 7 32 -13 -28 -6 -17 -15 -14 0
33 2 19 16 4 14 9 20 -5 -7 -29 -1 -26 -22 -13 -17 -21 -30 -25 -32 -10 -28 -31 -27 -3 0
4 31 11 6 15 33 5 8 10 20 3 -23 -19 -27 -24 -18 -28 -1 -16 -30 -9 -21 -12 0
23 22 28 -14 -33 -7 0
31 10 5 20 23 9 17 6 25 26 13 33 -32 -14 -8 -22 -12 -19 -7 -11 -1 -27 -4 -18 -2 -3 -29 -16 -21 0
9 33 11 19 10 28 1 30 7 13 12 31 29 5 23 21 25 14 -4 -2 -8 -26 -22 -17 -20 -3 -15 -27 -6 -18 -32 0
4 26 29 7 23 6 31 14 13 25 10 5 -19 -18 -15 -33 -28 -32 -9 -8 -22 -3 -27 -21 -2 -1 -11 -12 -30 -16 -20 -24 0
