c NeuroCodeBench 2.0 CNF formula with verdict Sat
p cnf 81 685
10 29 61 48 69 24 34 25 12 67 3 15 59 52 27 57 56 51 44 71 54 8 77 68 66 11 -62 -26 -6 -19 -81 -45 -17 -7 -31 -73 -1 -58 -33 -22 -14 -9 -39 -2 -13 -23 -20 -35 -36 -38 -37 -65 -32 -5 -80 -30 -18 -55 -74 -76 -47 0
25 34 51 70 46 43 68 41 81 60 4 69 67 39 71 65 -66 -49 -50 -3 -15 -17 -80 -27 -29 -28 -7 -45 -32 -72 -14 -26 -30 -6 -1 -73 -79 -36 -63 -52 -57 0
2 49 70 75 81 33 22 50 35 80 6 27 32 69 63 62 39 65 28 59 73 1 47 30 43 45 12 56 19 21 44 34 53 36 25 5 11 66 14 57 -67 -3 -16 -52 -64 -60 -79 -20 -54 -17 -9 -37 -78 -77 -48 -72 -76 -42 -7 -10 -58 -51 -55 -68 -24 -29 -61 -31 -23 -40 0
73 11 80 75 76 39 81 67 36 52 45 55 62 7 23 13 78 15 17 -6 -24 -5 -59 -32 -21 -44 -61 -28 -47 -12 -70 -72 -60 -71 -1 -65 -41 -50 0
69 9 41 61 53 79 10 -23 -29 0
7 49 66 57 -18 -53 -26 -42 -76 -63 -74 -75 -72 0
1 61 19 36 71 26 12 31 42 39 54 47 46 55 48 37 23 62 68 8 33 50 74 58 -75 -13 -53 -14 -7 -16 -35 -63 -10 -78 -18 -72 -4 -66 -34 -20 -45 -28 -43 -51 -59 -67 -80 -64 -22 -69 -56 -32 -70 -40 -30 -6 -44 -76 -60 -41 -65 -73 -25 -57 -27 -81 0
68 57 34 77 71 73 78 11 2 81 62 46 59 47 23 -53 -70 -25 -19 -74 -64 -75 -44 -49 -52 0
60 80 11 14 17 66 27 29 37 10 31 33 55 56 67 5 30 12 22 38 23 43 6 36 76 52 42 24 13 63 7 62 45 72 74 77 53 34 -78 -35 -41 -21 -50 -49 -1 -2 -46 -69 -28 -70 -73 -75 -65 -4 -44 -26 -59 -57 -54 -61 -20 -3 -18 0
64 47 81 46 57 8 67 80 16 54 42 70 53 38 31 52 11 37 71 60 45 50 75 -14 -35 -20 -7 -3 -66 -27 -41 -6 -25 -30 -63 -36 -15 -2 -29 -74 -18 0
71 79 28 33 59 61 38 19 14 65 49 66 42 23 48 72 -56 -73 -8 -31 -57 -54 0
46 73 2 44 68 60 9 35 55 53 15 5 24 13 29 40 69 49 39 31 64 34 30 54 27 65 25 -48 -51 -4 -36 -62 -10 -61 -41 -20 -59 -11 -71 -74 -75 -79 -66 -12 -3 -45 -43 -78 -67 -16 -14 -21 -17 -80 -47 -63 -1 -19 -7 -32 0
35 69 17 22 77 54 13 60 -55 -19 -40 -67 0
35 80 75 13 19 -64 -46 -69 -40 -74 -55 -36 -38 -20 0
80 40 69 38 75 57 54 33 66 23 20 30 55 2 24 39 9 6 -42 -12 -16 -21 -28 -27 -53 -65 -49 -62 -8 -74 -14 -10 -36 -46 -3 -29 -72 -61 -4 -31 -22 -1 -51 0
22 38 64 55 43 41 9 45 25 46 14 57 80 15 32 5 4 31 50 74 71 6 7 58 3 18 11 -10 -61 -69 -35 -24 -48 -17 -20 -28 -21 -51 -16 -63 -13 -75 -19 -76 -37 -39 -52 -78 -54 -33 -2 -8 -73 -34 -47 -36 -49 -56 -29 -53 -44 -77 -30 -66 0
19 10 33 1 62 30 71 74 26 61 42 70 22 66 60 80 4 8 3 -37 -69 -6 -39 -52 -32 -20 -72 -76 -36 -58 -57 -46 -11 -41 -63 -54 -59 0
22 25 66 57 70 68 63 79 50 55 8 74 38 19 62 13 4 80 65 30 14 35 18 12 9 48 36 71 42 -78 -17 -23 -64 -37 -44 -29 -21 -24 -81 -61 -26 -2 -11 -58 -53 -5 -75 -76 -39 -28 -77 -16 -60 -1 -32 -31 0
9 28 65 29 50 22 15 70 52 -57 -53 -54 -47 -32 -35 -71 -25 -30 -77 -76 -81 -67 -8 -38 0
18 69 47 68 56 3 8 76 44 40 65 4 36 39 28 73 6 51 57 32 -48 -63 -27 -54 -12 -49 -78 -22 -42 -34 -17 -77 -71 -46 -59 -15 -9 0
11 77 10 -43 -30 -68 0
4 57 46 55 29 37 23 71 22 35 3 81 73 -25 -69 -79 -60 -16 -54 -59 -64 -50 -27 -63 -75 -53 -72 -15 -67 -32 -66 0
25 60 35 59 45 56 12 77 78 44 52 11 49 1 30 62 58 16 42 7 80 -76 -5 -23 -33 -63 -41 -68 -3 -22 -51 -61 -6 0
23 75 54 63 31 78 60 10 33 -7 -34 -80 -46 -50 -14 -62 -73 -17 -71 -43 0
35 55 11 25 68 79 22 28 52 38 53 51 72 21 6 -30 -39 -19 -40 -29 -41 -73 -77 -46 -70 -34 -10 -18 -32 -60 -33 -27 0
33 38 12 52 70 54 81 16 14 48 69 36 18 56 66 27 67 78 74 20 15 25 9 -75 -64 -41 -73 -7 -13 -53 -28 -22 -39 -72 -58 -40 -60 -49 -46 -62 -19 -4 -55 -51 -44 -21 -47 -37 -2 -11 -6 -65 -1 -23 -42 -80 -63 0
68 28 6 20 56 2 59 8 81 63 27 47 69 41 62 34 51 29 19 80 31 35 48 77 22 11 43 37 -60 -26 -74 -79 -39 -17 -13 -25 -71 -45 -5 -78 -55 -36 -24 -32 -76 -42 -65 -73 -44 -50 -9 -54 -12 -72 -18 -10 -75 -4 -53 -30 -33 0
67 40 52 11 21 66 14 71 72 1 24 23 19 15 17 16 80 59 31 60 20 69 43 75 50 25 38 51 5 -8 -10 -57 -13 -18 -70 -47 -7 -6 -74 -2 -32 -12 -33 -22 -63 -41 -56 -35 -48 -55 -81 -58 -64 -62 -28 -79 -73 -27 -29 0
6 54 50 17 72 5 18 38 46 57 39 25 59 64 66 76 21 35 67 44 40 7 43 79 -37 -58 -55 -31 -3 -68 -9 -1 -4 -26 -34 -24 -14 -60 -70 -74 -12 -61 -80 -77 -19 -22 -8 -65 -81 -45 -2 -71 -53 -30 -47 0
59 26 23 75 80 33 64 18 47 78 11 56 46 41 25 79 68 36 9 8 17 14 49 35 76 45 50 72 48 13 54 66 21 61 60 15 -52 -44 -29 -71 -12 -53 -67 -34 -22 -58 -1 -51 -32 -2 -55 -62 -20 -57 -6 -31 -16 -37 -7 -63 -73 -65 -40 -24 -19 -43 -4 0
26 25 51 19 -32 -80 -44 -50 -15 -70 -7 -68 -28 -40 0
67 45 17 55 -40 -58 -3 -38 0
81 10 34 46 78 35 55 79 7 15 21 61 42 68 27 11 50 65 37 75 8 71 33 28 64 73 16 47 12 -66 -49 -70 -57 -38 -23 -52 -26 -39 -17 -59 -40 -69 -54 -31 -67 -30 -1 -2 -56 -22 -24 -48 -5 -60 0
62 81 36 73 61 35 43 24 44 72 49 27 55 32 53 15 31 58 38 19 4 -26 -33 -11 -22 -48 -47 -68 -51 -2 -42 -1 -23 -57 -12 -39 -69 -14 -64 -67 -6 -8 -7 -17 -46 -28 -18 -41 -78 -34 -79 -52 -45 -40 -21 0
27 79 74 42 31 44 59 22 40 3 39 21 71 47 62 76 28 29 45 66 51 -77 -68 -67 -9 -57 -69 -72 -52 -32 -75 0
7 16 62 39 58 -33 -74 0
3 52 15 5 54 1 6 30 13 41 53 70 63 76 45 10 14 49 67 65 -55 -33 -20 -71 -56 -59 -61 -19 -44 -62 -16 -51 -28 -60 -23 -39 -25 -36 -29 0
33 61 10 22 37 42 36 71 47 17 63 7 64 43 55 66 57 12 45 35 14 52 25 70 81 23 -16 -68 -18 -51 -11 -8 -60 -5 -56 -53 -72 -29 -65 -40 -9 -15 -44 -20 -62 -79 0
22 19 14 39 20 23 71 62 9 42 50 75 52 67 72 48 -61 -13 -3 -80 -76 -51 -40 -53 -1 -60 -69 -17 -59 -27 -45 -54 -43 -32 -64 -65 -4 -77 0
48 6 33 26 61 47 42 40 55 23 30 45 58 59 1 28 35 72 50 38 4 71 12 20 70 46 63 34 32 17 13 67 56 64 37 16 -51 -44 -10 -69 -41 -24 -68 -62 -77 -36 -52 -60 -3 -66 -65 -76 -11 -49 -81 -14 -25 -9 -15 -80 -54 -27 -78 -73 -31 -53 -21 -79 -18 -7 -43 -57 -29 -19 -22 -39 -8 0
3 33 16 71 4 51 69 73 55 79 7 13 39 -19 -48 -49 -50 -36 -12 0
17 77 69 55 32 40 8 43 3 48 28 75 62 14 16 58 34 19 56 44 13 31 6 80 65 21 30 -81 -50 -9 -35 -47 -72 -74 -39 -66 -60 -11 -53 -25 -51 -52 -5 -37 -71 0
80 42 37 -26 0
75 59 58 -45 -39 -35 -46 -21 -18 -74 0
10 72 68 58 22 33 76 24 30 40 39 49 62 12 8 41 19 16 67 69 14 54 59 37 29 80 52 60 35 75 51 43 61 73 -50 -48 -44 -25 -21 -53 -27 -77 -23 -26 -81 -47 -71 -6 -11 -15 -70 -18 -9 -55 -1 -42 -13 -32 -56 -3 -63 -34 -7 -66 -38 -57 -74 0
34 56 76 71 79 47 80 20 3 59 4 -48 -72 -9 -43 0
13 34 24 22 75 18 43 60 37 16 54 64 8 28 62 59 63 65 3 23 70 51 35 5 33 58 44 -79 -20 -52 -25 -76 -14 -71 -4 -38 -29 -31 -68 -77 -66 -17 -40 -50 -81 -15 -56 -30 -49 -19 -6 -26 -48 -74 -11 -41 -36 0
61 43 -59 -24 -8 0
28 55 24 71 40 56 29 42 1 62 60 52 72 58 30 75 21 6 37 -70 -67 -54 -5 -78 -19 -23 -64 -50 -3 -46 -45 -49 -11 -47 0
13 16 76 18 4 81 6 49 41 33 43 25 66 27 34 79 69 65 11 29 1 3 21 -36 -52 -7 -22 -58 -40 -70 -54 -23 -77 -42 -73 -10 -47 -68 -38 -62 -56 -19 -32 -5 -55 -59 -8 -63 -72 -50 0
18 6 56 69 60 17 64 9 21 7 15 49 68 4 36 10 42 29 30 23 12 59 81 33 -47 -34 -43 -41 -27 -31 -73 -14 -58 -61 -74 -66 -71 -5 -48 -72 -32 -1 -19 -25 -65 0
73 42 70 54 29 35 11 71 24 6 26 46 47 51 77 -81 -45 -14 -41 -78 -62 -39 -44 -53 -28 -34 -76 -69 -8 0
61 34 70 45 33 19 81 50 80 74 -39 -62 -10 -63 -58 -37 -77 -60 -44 0
28 29 27 42 31 19 68 18 52 14 57 -46 -76 -60 -16 -79 -59 -23 -81 -24 -15 0
8 37 54 48 61 43 31 38 59 53 72 -19 -52 -17 -66 -71 -34 -10 -74 -42 -57 -28 -62 -2 -46 -7 -47 -25 -73 0
16 80 36 3 40 32 33 2 17 31 22 51 34 19 15 14 69 72 58 55 76 10 18 20 21 42 60 8 81 45 -29 -30 -25 -13 -1 -50 -35 -9 -44 -28 -27 -48 -57 -24 -49 -68 -71 -53 -66 -47 -38 -65 -6 -67 -4 -43 -61 0
46 52 49 9 45 -55 -80 0
12 7 4 38 14 77 55 26 3 30 80 24 34 78 27 43 45 50 11 40 69 68 37 -46 -15 -44 -20 -28 -33 -32 -8 -41 -2 -51 -57 -10 -61 -21 -54 -62 -76 -19 -52 -25 -64 0
54 10 62 2 56 72 4 15 76 46 68 61 65 33 48 32 6 79 38 63 26 43 52 11 27 64 58 14 75 7 19 9 1 17 77 78 71 -44 -3 -74 -49 -66 -55 -45 -70 -47 -41 -37 -31 -29 -20 -24 -60 -73 -18 -42 -36 -25 -16 -34 -23 -81 -53 -67 -50 -80 -40 -59 -22 -69 -12 -5 -30 -57 -51 -35 -28 -21 -13 0
51 61 32 48 78 44 25 71 1 79 9 15 21 63 76 22 27 14 -68 -37 -62 -73 -69 -2 -28 -8 -77 -7 -74 -70 -59 -81 -72 -57 -41 -53 -20 -36 -43 -23 -26 -67 -52 -45 -5 -29 -16 -54 -49 -46 -65 -50 -56 0
16 27 37 25 11 -50 -71 -63 -61 -33 -53 -54 -41 -76 -17 -35 0
10 62 19 56 25 40 26 53 73 66 38 71 39 81 37 78 8 80 18 2 24 67 32 43 7 76 42 9 30 29 5 46 23 34 70 -75 -63 -45 -74 -61 -52 -58 -60 -44 -64 -69 -36 -15 -22 -59 -31 -4 -16 -47 -48 -11 -68 -65 -28 -72 -17 -49 -55 -79 -1 -51 -3 -57 -12 -41 -20 -35 -13 -54 -21 -77 -50 -6 -14 -33 0
16 -72 -39 -68 -40 -56 -54 -55 -32 0
53 30 66 37 59 57 27 14 60 12 33 65 58 48 76 31 61 71 6 25 2 73 21 9 29 34 32 10 52 -44 -68 -38 -54 -36 -72 -22 -63 -13 -74 -47 -4 -26 -69 -62 -81 -75 -64 -80 -45 -19 -42 -49 0
63 1 67 55 54 57 13 8 62 7 26 16 72 36 2 20 -58 -47 -41 -64 -33 -3 -32 -60 -53 -14 -9 -35 -79 -10 -70 -65 -51 -73 -69 -48 -80 -43 -81 -71 -42 -4 -50 -77 -30 -59 0
6 39 48 70 75 14 49 1 79 53 73 34 35 52 21 50 31 69 13 15 71 29 72 26 60 62 63 81 16 44 61 54 59 47 2 25 45 66 19 41 -12 -46 -56 -80 -33 -78 -43 -76 -42 -23 -5 -55 -20 -37 -7 -17 -9 -68 -30 -40 -4 -11 -36 -8 -32 -65 -58 -38 -51 -74 -77 -67 -57 -3 -10 -28 -18 0
40 65 35 15 28 7 8 30 46 17 4 39 34 50 63 59 12 48 72 9 1 41 22 -76 -27 -75 -69 -19 -77 -71 -14 -33 -68 -78 -43 -18 -44 -21 -6 -74 -37 -61 -62 -29 -73 -11 -67 -38 -31 -45 -16 -79 -47 0
6 15 45 25 52 28 23 -67 -35 -75 -56 -44 -12 -8 -79 0
18 11 62 48 -69 -65 -14 -77 -21 -12 -71 -54 0
76 13 44 3 30 80 10 54 28 60 43 25 1 39 78 14 27 -47 -22 -72 -6 -58 -68 -66 -24 -26 -33 -40 -11 -62 -74 -5 -18 -46 -70 -45 -38 -48 -52 0
20 38 25 19 22 70 43 42 6 75 65 73 18 76 57 12 2 14 1 3 17 11 66 56 7 -29 -36 -61 -68 -8 -5 -58 -71 -49 -46 -47 -53 -52 -23 -15 -48 -62 -72 -34 -69 -37 -26 -24 -30 -44 -78 0
61 20 13 66 64 56 48 27 57 32 60 44 81 26 11 41 29 19 22 51 73 8 9 1 24 -59 -75 -77 -55 -54 -2 -17 -40 -3 -79 -38 -28 -37 -46 -62 -63 -47 -65 -25 -71 -80 -6 -31 -5 -30 -18 -36 0
79 22 48 7 29 55 74 81 31 1 27 23 28 36 20 18 54 34 10 68 40 73 15 33 42 38 41 60 66 24 51 3 32 61 17 -75 -77 -43 -11 -37 -49 -16 -19 -5 -71 -59 -39 -53 -56 -80 -45 -76 -12 -44 -69 -35 -21 -4 -65 -72 -8 -67 -2 -52 -63 -46 -78 -62 -57 -58 -6 -64 -70 -47 -25 -26 -9 -13 -30 0
42 79 23 7 15 80 -53 -27 -24 -71 -41 -31 -77 -63 -62 -16 -12 -59 -49 -74 0
54 38 80 26 77 78 42 44 58 55 22 46 65 56 21 75 25 52 17 69 72 47 -71 -60 -67 -16 -30 -18 -53 -73 -5 -23 -49 -6 -14 -81 -64 -66 -34 -29 -8 -57 0
22 66 75 81 2 7 80 30 27 48 63 56 20 77 46 51 4 39 74 71 73 76 69 64 21 40 52 10 31 55 12 43 65 18 61 -28 -59 -19 -6 -72 -35 -78 -9 -38 -53 -17 -29 -58 -36 -50 -60 -79 -25 -5 -37 -11 -3 -41 -68 -8 -16 -26 -49 -45 -67 -47 -13 -33 -23 -14 -70 -32 -42 -44 -24 -1 -15 -54 -34 -62 0
45 23 63 58 15 -57 -72 -73 -9 -39 -24 -46 -64 -44 -6 0
43 51 27 4 76 30 16 69 35 40 25 78 80 23 44 29 52 24 49 36 56 66 37 17 9 77 26 14 42 20 62 13 57 70 63 60 -68 -65 -12 -55 -10 -72 -67 -75 -53 -47 -38 -79 -5 -73 -18 -8 -31 -41 -15 -34 -32 -74 -45 -59 -3 -71 -19 -28 0
16 59 44 69 76 78 8 62 53 36 71 45 46 66 12 81 17 48 23 24 -64 -5 -33 -68 -40 -38 -37 -58 -25 -43 -11 0
34 52 43 7 8 23 73 54 20 35 71 24 25 12 48 5 50 53 74 33 36 2 59 78 41 -51 -27 -28 -64 -19 -63 -32 -66 -3 -4 -31 -76 -60 -57 -29 -45 -13 -26 -21 -9 -38 -77 -14 -15 -47 0
66 55 1 78 24 6 50 80 74 72 61 49 19 41 16 39 48 31 42 18 43 68 22 3 53 58 10 35 38 60 62 30 -67 -79 -21 -56 -59 -77 -57 -13 -46 -20 -47 -26 -36 -37 0
20 42 48 72 35 30 68 24 43 58 70 14 29 38 44 13 4 7 25 67 12 51 73 -37 -11 -81 -77 -55 -71 -34 -63 -31 -40 -59 -41 -69 -60 -79 -8 -49 0
34 5 51 4 77 7 18 39 21 27 68 50 81 56 45 26 75 -1 -46 -59 -41 -32 -13 -67 -47 -53 -73 -22 -37 -76 -79 -9 -64 -36 -15 -2 0
28 73 33 77 24 18 61 70 64 20 19 55 27 29 69 1 7 47 48 34 68 78 2 21 32 12 44 62 3 58 15 80 67 5 38 72 81 46 43 -57 -51 -63 -56 -26 -45 -54 -65 -11 -39 -71 -35 -59 -60 -6 -13 -31 -22 -42 -37 -25 -74 -8 -76 -41 -50 -79 -14 -36 -30 -75 -4 0
71 40 49 55 2 13 70 6 80 39 63 21 4 8 48 41 29 26 67 32 24 60 56 74 66 45 17 16 -54 -1 -64 -19 -57 -81 -53 -3 -78 -28 -61 -11 -65 -75 -68 -38 -27 -31 -59 -14 -18 -50 -25 -62 -20 -35 -79 -23 -12 -9 -30 -33 -77 -5 -22 -58 -47 -51 -72 0
38 70 2 52 80 6 4 81 42 51 61 55 20 62 59 45 32 25 71 19 72 57 75 66 36 63 11 74 50 65 77 39 10 67 31 3 18 9 -26 -79 -28 -78 -23 -27 -53 -1 -41 -17 -16 -14 -56 -64 -40 -48 -5 -68 -49 -54 -21 -58 -24 -33 -76 0
37 18 64 67 81 12 56 44 69 13 45 41 32 77 66 62 47 68 7 33 79 55 74 46 17 59 1 35 53 20 2 70 76 51 54 28 8 65 36 29 61 -27 -60 -26 -30 -72 -71 -23 -50 -39 -5 -57 -4 -9 -15 -78 -19 -48 -34 -14 -73 -6 -40 -22 -58 -10 -31 -25 -21 -63 -3 -43 -24 -11 0
60 12 77 5 30 26 51 6 71 78 28 14 32 43 74 68 50 41 34 18 49 76 16 56 69 57 73 61 67 45 80 1 44 20 25 -47 -39 -40 -3 -38 -19 -13 -27 -53 -54 -79 -22 -29 -59 -81 -62 -37 -9 -36 -4 -31 -2 -33 -52 -7 -48 -66 -65 -10 -63 -11 -75 -70 -64 -23 -58 -15 -24 -21 -72 -42 -46 -35 -17 -8 0
-75 -49 0
23 46 11 13 35 47 -14 -39 -52 -72 -66 -77 0
30 29 31 26 67 37 5 66 19 23 81 34 43 21 10 25 40 80 -9 -72 -32 -55 -60 -42 -61 -52 -47 -63 -7 -11 -76 -36 -71 -4 -44 -46 -22 -2 -41 -14 0
31 17 4 35 59 66 57 8 53 55 37 69 41 27 34 16 12 47 3 61 73 64 36 46 38 29 32 19 51 75 40 76 54 20 74 81 18 80 -71 -58 -11 -48 -60 -13 -49 -2 -62 -63 -43 -5 -9 -25 -26 -1 -42 -78 -39 -7 -67 -52 -6 -23 -44 -22 -70 -21 -33 -79 -10 -72 -14 -24 -68 0
36 5 65 17 15 2 76 20 51 21 -4 -52 -50 -24 -11 -10 -58 -67 -59 -39 -6 -29 -32 -35 -1 -62 0
31 9 68 64 40 75 13 44 57 33 20 22 41 3 14 26 54 25 71 32 80 67 5 43 37 8 72 28 -53 -18 -63 -24 -74 -38 -47 -4 -51 -45 -65 -36 -81 -66 -17 -70 -61 -52 -12 -48 -76 -21 -49 -60 -1 -6 -42 0
32 75 65 23 72 61 43 -6 -31 -22 -60 -20 0
63 59 26 22 -72 -24 -4 0
45 29 48 57 4 19 80 7 65 -67 -69 -5 -23 -58 -64 -35 -77 -24 -40 -44 -79 -75 -6 -47 0
60 36 59 81 38 48 55 19 45 66 46 -23 -57 -17 -7 -77 -29 -18 -25 -62 -1 -27 -5 -72 -43 0
78 50 51 31 49 47 75 46 19 32 -36 -12 -27 -28 -56 0
29 48 77 69 31 26 -71 0
77 46 71 73 48 3 28 9 26 22 23 35 27 65 63 33 11 24 40 32 57 7 25 80 2 75 -78 -44 -39 -4 -13 -53 -36 -37 -15 -14 -68 -52 -59 -64 -70 -50 -61 -42 -45 -76 -58 -81 -12 -49 -60 -30 -29 -62 -54 -67 -21 -18 -10 -43 -8 -55 0
54 24 56 65 48 77 18 63 33 41 30 46 59 9 31 68 40 29 5 74 22 27 55 23 38 49 47 21 32 75 16 71 50 60 67 62 69 25 44 4 -34 -81 -19 -11 -72 -52 -61 -70 -20 -36 -8 -76 -66 -51 -2 -7 -80 -35 -13 -6 -14 -10 -43 -64 -42 -17 -45 -39 -15 -12 0
44 8 14 25 7 41 13 35 73 66 76 38 81 61 9 4 31 28 24 -16 -75 -47 -45 -39 -6 -68 -34 -10 -46 -2 -59 -55 -12 -17 -57 -37 -32 -56 -77 -42 -54 -52 -15 -27 0
63 21 79 24 22 74 1 -26 -10 -41 -73 -16 -18 -15 0
57 11 6 -67 -80 0
59 10 24 61 45 38 41 70 79 44 35 31 30 77 67 37 58 64 69 25 36 3 22 39 73 49 54 71 52 65 28 34 16 53 56 47 4 40 1 12 -76 -63 -78 -20 -21 -29 -43 -13 -14 -42 -62 -75 -26 -80 -19 -68 -17 -50 -9 -60 -5 -27 -7 -74 -18 -32 -23 -6 -72 -51 -8 -55 -46 -33 -2 -66 -11 -81 -57 -15 0
28 81 70 4 22 64 15 67 53 79 5 56 46 -40 -17 -47 -12 -39 -48 -76 -54 -78 -9 -55 -72 -2 -11 -61 -18 0
30 71 24 27 66 75 42 12 72 25 4 7 22 43 36 61 23 2 63 37 41 21 55 45 77 54 69 14 16 74 33 -34 -67 -20 -58 -64 -15 -35 -1 -62 -49 -3 -9 -10 -17 -32 -46 -6 -73 -19 -40 -80 -65 0
16 28 33 31 68 43 13 77 59 14 29 32 56 23 12 -46 -60 -61 -8 -79 -36 -3 -44 -9 -52 -27 -37 -2 0
52 3 10 28 20 32 17 47 73 71 34 31 70 77 55 64 60 57 8 44 33 48 46 9 74 56 22 24 45 36 5 43 63 -27 -62 -75 -80 -13 -68 -61 -65 -51 -29 -49 -23 -66 -15 -81 -50 -30 -37 -79 -42 -25 -40 -76 -67 -35 0
39 71 41 16 38 47 68 64 30 52 48 56 3 54 73 6 53 24 12 25 15 21 18 80 -46 -35 -49 -74 -23 -50 -20 -69 -32 -62 -5 -77 -81 -29 -58 -19 -4 -7 -13 -33 -65 -27 -34 -1 -78 -31 -11 -40 -70 0
28 31 49 16 42 40 43 15 29 74 32 56 10 24 81 19 5 25 54 35 41 18 -22 -1 -27 -6 -67 -64 -44 -7 -63 -77 -14 -45 -69 -11 -61 -26 -20 -46 -59 -79 -13 -51 -50 -34 -58 -71 -80 -33 -60 -36 0
44 61 64 32 66 -41 -53 -17 0
1 53 61 18 41 71 47 36 -63 -17 -67 -27 -59 -5 -80 0
37 57 25 73 62 19 36 42 43 39 3 64 -70 -40 -65 -33 -77 -48 -46 -59 -7 -78 -23 -63 -21 -27 0
10 54 19 21 -22 -69 -1 -59 -44 -34 -66 -36 -7 -40 -49 -58 -15 -62 0
39 78 9 16 79 61 20 5 75 80 58 41 24 12 33 51 36 54 19 40 7 65 77 60 59 6 49 44 26 68 2 3 81 22 11 25 53 72 -4 -66 -48 -55 -37 -14 -50 -74 -64 -42 -28 -73 -52 -31 -76 -18 0
43 63 79 39 28 73 40 70 19 72 21 17 31 75 53 11 1 59 64 5 26 27 61 -49 -47 -48 -4 -71 -46 -80 -13 -16 -54 -67 -68 -15 -60 0
68 4 19 3 9 67 13 41 29 57 15 28 80 64 24 54 50 47 77 40 53 55 31 7 79 42 -71 -60 -10 -38 -73 -34 -59 -51 -46 -45 -58 -75 -6 -61 -37 -33 -78 -18 -32 -39 -23 -66 -16 -65 -70 -30 -14 -76 -21 0
55 74 6 32 71 77 46 3 36 39 22 25 62 42 65 52 47 50 -28 -68 -67 -13 -33 -21 -1 -20 -29 -38 -41 -73 -45 -54 -51 -15 -4 -23 -11 -40 -17 -72 -26 -7 -48 -35 0
58 28 74 61 18 57 26 55 63 24 52 51 29 22 65 72 66 -49 -9 -56 -53 -35 -23 -2 -4 -75 -15 -17 -13 -64 -11 -59 -14 -20 0
73 9 36 52 57 25 60 54 19 32 46 71 38 26 42 67 49 44 43 74 21 7 55 78 64 61 48 10 8 75 30 56 29 50 41 -1 -37 -33 -13 -47 -34 -58 -70 -18 -63 -77 -69 -35 -76 -27 -20 -59 -17 -31 -65 -3 -15 -72 -45 -6 -79 -40 -5 -66 -12 -4 -81 -53 -80 -22 -28 -2 -39 -11 -23 -51 0
3 34 50 54 39 6 55 32 26 61 53 14 57 66 69 41 73 7 17 43 49 5 21 -25 -74 -35 -58 -72 -70 -19 -1 -42 -52 -36 -79 -9 -63 -40 -12 -18 0
45 80 13 54 32 66 76 60 4 34 12 9 43 78 20 53 67 3 6 75 2 37 65 56 47 8 40 27 1 57 51 63 -73 -17 -29 -10 -16 -62 -59 -49 -7 -21 -64 -24 -61 -52 -77 -50 -69 -70 -11 -46 -39 -19 -72 -42 -74 -48 -36 -5 -31 -58 -79 0
13 22 51 74 9 27 12 71 41 18 36 7 66 81 -31 -4 -65 -40 -57 -60 -68 -35 -62 -72 -19 -21 -24 -79 -43 -50 -44 -42 -32 0
41 75 3 51 79 38 7 14 80 24 39 36 9 11 49 70 56 12 1 72 78 66 2 73 8 19 21 59 4 10 45 15 77 -65 -28 -61 -6 -69 -13 -76 -48 -68 -74 -35 -50 -52 -33 -30 -16 -67 -64 -43 -32 -27 -31 -26 -17 -53 -40 -71 -46 -34 -62 -18 -57 -29 -54 -55 -58 -47 -37 -23 -81 0
39 37 8 26 24 34 4 46 47 25 44 80 6 20 7 41 66 40 -61 -62 -32 -27 -9 -69 -75 -64 -33 -79 -11 -35 -31 -30 -12 -17 -71 -56 -45 -18 -74 0
28 43 74 62 3 78 76 80 71 54 37 81 11 57 51 33 64 46 56 39 16 47 4 -59 -68 -69 -18 -29 -40 -35 -8 -77 -1 -12 -42 -41 -24 -31 -66 -38 -5 -48 -32 -52 0
32 39 37 25 41 48 68 42 46 69 30 78 64 73 74 27 4 35 14 8 33 71 61 75 63 40 13 -44 -3 -50 -45 -9 -53 -58 -22 -43 -47 -23 -24 -65 -18 -67 -17 -62 -21 -28 -38 -66 -16 -5 -57 -31 -56 -1 -29 -20 -10 -80 -49 -52 -51 -72 -26 -2 0
19 68 2 78 24 15 53 37 81 25 35 5 34 44 27 46 3 31 71 48 76 -11 -45 -32 -12 -47 -40 -38 -77 -18 -28 -73 -59 -22 -65 -41 -1 -14 -42 -23 -56 -72 -6 -29 -62 -70 -13 -67 0
6 79 78 34 58 -25 -67 -18 0
34 19 29 81 2 12 3 44 33 71 15 20 70 60 -32 -75 -52 -37 -77 -36 -69 -1 -27 -51 -17 -13 -41 -22 -10 -65 -11 0
70 45 73 22 33 12 18 25 72 23 14 41 55 -44 -6 -11 -34 -47 -37 -8 -69 -35 -56 -75 -36 -48 -53 -24 -13 -21 -59 -65 0
77 59 52 38 7 24 12 2 6 75 42 60 78 35 40 33 27 51 67 58 45 31 69 14 34 3 48 66 73 49 37 -17 -70 -44 -30 -46 -26 -11 -1 -21 -9 -28 -79 -53 -29 -5 -18 -22 -16 -13 -20 -74 -68 -76 -19 0
47 60 59 78 57 -40 -24 -80 0
49 43 52 14 24 39 13 11 46 12 70 37 58 8 64 4 69 71 34 74 29 45 1 55 40 26 60 17 15 25 7 75 35 33 -36 -27 -62 -9 -79 -16 -48 -47 -51 -2 -76 -31 -28 -63 -66 -59 -18 -6 -44 -73 -78 -22 -42 -77 -5 -57 -3 -32 -23 -50 -61 -20 -19 0
24 70 57 51 28 46 14 19 45 21 18 7 77 40 -4 -27 -25 -22 -61 -43 -63 -49 -55 -54 0
73 18 11 61 42 71 4 53 56 77 43 8 79 44 33 29 38 24 27 17 26 20 3 74 80 54 -67 -58 -15 -62 -5 -59 -63 -78 -52 -19 -48 -68 -16 -12 -22 -23 -28 -70 -32 -57 -50 -45 -34 -47 0
53 40 18 17 6 48 31 16 1 52 65 5 27 38 35 34 59 69 66 24 64 -61 -58 -9 -60 -36 -3 -76 -51 -28 -13 0
50 52 65 39 17 -26 -69 -15 0
69 60 51 29 19 32 30 62 59 26 70 28 56 63 73 53 2 75 35 13 37 41 55 65 39 5 22 76 47 -8 -21 -23 -68 -50 -77 -64 -80 -7 -9 -67 -27 -52 -31 -61 -16 -4 -36 -15 -81 -46 -79 -40 -3 -38 -48 -34 -71 -14 -74 -11 -33 -24 -43 0
31 45 66 16 74 3 30 43 14 12 50 48 53 15 7 58 56 68 78 46 61 9 55 75 51 80 73 69 64 81 72 -47 -63 -42 -24 -36 -59 -65 -11 -4 -38 -67 -57 -21 -10 -60 -32 -41 -54 -40 -44 -13 -6 -33 0
3 17 2 9 66 6 76 62 79 49 5 80 46 19 13 77 25 72 51 68 67 78 21 26 30 37 50 41 -73 -52 -63 -14 -20 -10 -69 -24 -16 -45 -12 -15 -11 -39 -22 -42 -28 -54 -56 -61 -58 -31 -81 -4 -27 -70 -65 -75 -43 -33 -44 -1 -59 -48 -36 -29 -32 0
49 39 27 38 56 43 42 71 61 -6 -37 -51 -24 -5 -50 -79 0
71 51 73 60 4 14 79 81 28 24 58 62 69 38 -57 -2 -48 -39 -78 -44 -36 -47 -70 -15 -25 -10 -37 -20 -75 -6 -23 -31 -76 -29 -17 -22 -19 0
70 68 47 65 14 17 7 33 30 42 36 22 10 51 79 41 78 66 9 54 40 11 71 55 37 76 19 38 60 -44 -3 -21 -52 -5 -18 -34 -16 -43 -64 -8 -80 -39 -45 -48 -12 -25 -28 -75 -26 -49 -63 0
69 13 77 5 35 51 67 19 47 9 24 76 38 17 49 27 40 6 1 80 60 41 7 16 72 73 10 55 31 36 68 81 23 2 43 75 70 58 3 15 78 -42 -4 -65 -18 -25 -32 -22 -79 -57 -29 -28 -14 -8 -54 -62 -63 -39 -71 -52 -34 -74 -45 -37 -50 -26 -59 -30 -11 -64 -20 -33 -46 -53 -56 -66 0
69 10 28 74 73 14 49 72 78 17 77 42 20 79 9 5 -18 -3 -31 -43 -39 -13 -35 -8 0
41 31 49 38 34 32 58 63 -36 -44 -39 -26 -50 -15 -19 -81 -5 -1 -72 -21 -79 -69 -37 0
64 68 54 3 49 11 31 22 50 36 57 14 38 73 45 35 69 62 10 60 20 72 75 5 9 -52 -33 -65 -1 -19 -15 -81 -26 -18 -59 -61 -25 -40 -58 -56 -46 -51 -21 -80 -67 -79 -47 -4 0
37 1 31 46 75 57 13 59 12 22 16 14 7 19 30 2 33 48 78 68 65 70 4 66 42 41 63 80 52 26 74 72 56 28 15 69 8 -34 -36 -53 -54 -5 -45 -73 -6 -81 -79 -18 -62 -50 -25 -64 -43 -27 -3 -20 -29 -40 -77 -60 -71 -55 -67 -47 -49 -21 -24 -9 -35 -58 -61 -17 -39 -44 0
36 80 57 62 22 39 19 40 48 78 60 14 35 70 1 23 28 17 26 69 24 77 66 30 73 52 79 29 15 55 46 16 58 -47 -25 -12 -45 -8 -56 -18 -5 -31 -74 -32 -21 -53 -43 -34 -3 -13 -61 -27 -75 -9 -63 -42 -59 -6 -41 -71 -72 -64 -33 -10 -49 -76 -2 -38 -54 -7 -65 0
69 22 37 72 14 54 4 29 11 3 74 76 10 -15 -71 -52 -78 -12 -51 -57 -67 -25 -36 0
21 77 28 56 -34 -40 -14 -9 -23 -39 -64 -32 0
6 4 71 47 9 43 63 39 62 23 31 69 45 50 75 41 79 55 77 49 20 25 22 42 70 16 -76 -74 -3 -36 -1 -67 -59 -28 -24 -19 -18 -33 -7 -30 -13 -81 -73 -65 -26 -17 -44 0
44 7 25 16 18 71 4 56 62 60 36 75 77 72 48 22 78 20 42 29 41 24 51 17 79 70 37 12 14 54 67 59 45 9 26 61 -21 -53 -5 -47 -8 -31 -46 -23 -2 -74 -13 -30 -6 -64 -3 -32 -76 -28 -52 -63 -57 -19 -49 -38 -33 -50 -35 -1 -43 -68 -40 -58 -39 -81 -15 -55 -73 -69 -80 0
69 13 2 68 19 60 58 31 17 10 54 12 39 16 15 46 61 24 74 57 49 23 78 73 -48 -70 -63 -72 -28 -62 -67 -52 -66 -9 -30 -35 -75 -32 -51 -14 -6 -55 -3 -21 -42 -41 -38 -29 -25 -80 -71 -37 -8 -18 -59 -56 0
2 74 43 66 16 23 31 64 20 46 15 25 41 45 13 19 77 44 -78 -14 -47 -5 -79 -29 -22 -35 -71 0
40 1 18 25 62 53 13 60 64 68 71 12 3 69 65 81 57 -17 -49 -10 -54 -27 -42 -61 -19 -8 -55 -59 -37 -22 -66 -72 -76 -5 -36 -24 -16 -30 -9 -33 -39 -50 -35 -52 0
69 4 43 49 6 27 61 37 52 47 50 35 31 -26 -2 -45 -10 -22 -51 -68 -3 -81 -80 -58 0
73 18 56 13 44 62 35 74 28 -31 -4 -80 -5 -64 -15 -63 -27 0
24 48 62 19 53 28 32 2 27 38 66 70 81 60 13 7 68 26 55 78 10 -56 -36 -45 -6 -12 -73 -16 -58 -46 -67 -79 -4 -44 -17 -57 -37 -31 -49 -8 -22 -59 -63 -69 -50 -72 0
61 18 38 54 2 72 56 31 12 5 6 68 30 48 58 23 1 55 35 13 42 70 74 71 50 66 33 26 65 51 41 34 9 73 62 3 57 44 14 -32 -7 -20 -8 -52 -22 -27 -67 -29 -37 -21 -79 -17 -47 -60 -36 -25 -15 -19 -59 -78 -81 -53 -46 -80 -24 -63 -11 -45 -76 -43 -4 -69 -16 -75 -40 -10 0
77 15 3 55 30 2 74 27 59 35 44 50 -80 -28 -7 -1 -26 -57 -71 -46 -65 -67 -48 -76 -62 -75 -79 -53 -6 -36 -31 0
45 10 36 22 29 31 80 66 26 42 30 1 14 64 48 27 16 35 9 69 51 53 79 -61 -15 -39 -46 -40 -4 -63 -62 -19 -18 -44 -71 -41 -77 -11 -49 -24 -58 -38 -43 -67 -76 -21 -60 -34 -74 0
24 59 31 33 77 6 44 38 66 12 50 1 67 71 7 56 75 79 72 10 57 60 45 11 63 35 27 51 70 73 -74 -58 -49 -80 -19 -17 -2 -39 -4 -32 -46 -23 -64 -65 -28 -5 -20 -16 -22 -21 0
28 46 16 62 12 35 50 7 45 22 9 24 40 42 1 59 79 47 25 67 64 8 14 10 72 71 54 53 26 6 75 73 76 30 69 38 81 -70 -13 -61 -29 -37 -34 -52 -74 -2 -49 -80 -48 -4 -36 -3 -23 -17 -63 -78 -58 -41 -43 -51 -5 -65 -60 -55 -66 -33 -56 -18 -19 -39 -15 -27 -11 -32 -57 -44 0
30 70 33 29 14 61 20 38 21 66 57 16 23 37 50 49 12 25 55 32 8 46 9 43 47 45 13 42 24 75 7 22 59 72 71 35 67 58 5 3 81 -78 -28 -2 -63 -76 -52 -54 -41 -79 -69 -62 -19 -31 -56 -18 -73 -26 -11 -10 -77 -53 -74 -39 -15 -68 -4 -44 -27 -17 -34 -48 -51 -40 -64 -6 -1 -60 -65 -80 0
41 14 32 2 58 44 36 55 25 73 63 54 37 50 78 56 46 31 34 68 81 64 70 27 76 12 40 -16 -29 -72 -38 -75 -42 -8 -7 -10 -30 -3 -48 -6 -15 -69 -67 -11 -62 -22 -28 -4 -35 -80 -49 -77 -59 -43 -65 0
60 81 41 30 74 15 10 47 76 19 27 50 -56 -70 -79 -21 -14 -9 -58 -39 -52 -69 -25 -44 -80 -38 -66 -32 -2 -61 -75 -5 -53 -23 -34 -35 -71 -8 -65 -78 0
78 28 57 47 51 34 59 81 55 1 43 33 71 60 8 17 53 75 31 40 37 5 41 80 66 27 42 23 26 13 73 68 9 48 45 25 7 44 20 49 39 35 3 22 -79 -76 -32 -64 -15 -77 -10 -18 -21 -14 -11 -67 -6 -65 -24 -50 -4 -46 -52 -38 -56 -62 -70 -63 -54 -69 -19 -12 0
55 27 16 53 -7 -30 -57 -64 -36 -23 -37 0
81 48 32 80 41 2 23 66 37 11 16 7 3 31 64 60 57 73 69 62 -25 -65 -78 -24 -54 -13 -9 -43 -75 -67 -26 -71 -42 -30 -40 -52 -63 -50 -1 -5 -44 -49 0
59 18 39 56 63 32 10 80 69 30 73 1 47 81 6 3 37 52 12 17 36 29 43 11 28 31 62 -26 -7 -22 -66 -49 -9 -55 -27 -35 -46 -76 -60 -45 -25 -65 -5 -34 -20 -40 -23 -75 -14 -61 0
32 58 12 43 47 69 -7 -20 -30 -24 -56 -48 -59 -18 -44 0
35 1 22 75 12 60 36 41 33 66 67 19 25 28 54 70 24 51 7 15 64 42 2 68 48 3 26 10 11 63 62 39 9 72 53 80 -14 -29 -45 -21 -61 -56 -49 -52 -32 -47 -74 -73 -34 -46 -38 -71 -76 -65 -69 -18 -81 -50 -37 -77 -79 -40 -30 -59 -8 -13 -6 -4 -31 -55 -43 -20 -5 -23 0
57 77 69 73 -43 -38 -65 -28 0
34 22 78 9 56 49 17 66 57 50 51 40 47 31 45 7 13 -80 -28 -11 -43 -25 -60 -79 -76 -33 -1 -74 -23 -39 -72 -63 -8 -18 0
6 52 71 4 12 20 59 37 42 81 72 22 -32 -26 -43 -66 -75 0
54 76 48 -8 -12 -69 -21 0
9 72 32 7 4 57 81 61 6 30 37 34 78 2 33 21 12 45 17 76 56 18 39 73 49 48 80 67 52 38 68 47 28 8 41 10 -14 -50 -42 -46 -13 -53 -44 -51 -31 -69 -35 -29 -58 -75 -55 -79 -20 -63 -23 -5 -27 -71 -54 -77 -40 -3 -25 0
58 4 67 71 51 31 25 63 17 75 -9 -15 -2 -72 -74 -64 -27 0
81 69 36 80 62 10 64 50 28 56 79 23 -42 -14 -21 -51 -4 -25 -15 -11 -70 -65 -29 -39 -60 -33 0
39 2 29 43 62 78 22 45 44 68 71 63 24 -79 -14 -69 -11 -19 -30 -21 -32 0
14 39 36 9 67 53 71 10 31 27 56 3 19 25 46 7 62 81 17 73 5 48 47 49 51 45 37 -38 -32 -44 -60 -6 -16 -23 -34 -54 -63 -79 -57 -80 -65 -22 -13 -15 -66 -76 -70 -1 -18 -75 -78 -2 -41 -43 0
33 78 8 27 18 6 79 35 15 81 38 76 9 7 31 17 50 47 5 25 -70 -36 -71 -19 -48 -51 -60 0
21 7 61 3 56 64 12 80 75 31 46 40 57 39 26 33 51 54 29 24 38 8 41 63 16 69 34 81 5 65 25 37 23 42 20 48 52 14 27 49 43 -66 -62 -58 -59 -22 -35 -10 -36 -74 -78 -71 -2 -13 -17 -60 -79 -72 -67 -53 -50 -30 -47 -73 -70 -44 -9 -76 -18 -77 -19 -55 -28 -4 -32 -15 -1 0
-8 0
23 -72 -26 0
9 22 71 53 69 36 47 31 23 12 1 45 21 40 30 72 54 56 28 73 5 3 10 7 37 14 77 34 29 44 11 68 -39 -6 -13 -25 -61 -59 -70 -49 -32 -8 -38 -43 -66 -15 -48 -46 -18 -26 -62 -80 -74 -20 -35 -55 -24 -4 -41 -57 -17 -51 -50 -76 -65 -81 -78 -67 -58 0
26 79 81 56 45 64 18 47 66 71 38 24 63 37 74 19 76 54 -59 -52 -3 -35 -57 -73 -69 -15 -80 -61 -44 -65 -42 -9 -50 -78 -8 -67 -1 -58 -30 -41 -17 -21 -29 -10 -33 0
28 20 8 13 61 54 16 81 11 14 57 70 34 22 5 56 12 39 36 63 40 71 18 27 33 50 10 24 42 30 32 55 35 -44 -41 -77 -53 -46 -49 -15 -68 -6 -9 -64 -78 -2 -73 -48 -47 -17 -51 -74 -67 -43 -79 -7 -37 -59 -58 -62 -65 -25 -52 -80 -45 -19 -29 -75 -21 -66 -72 -4 -38 -3 -26 -1 0
55 72 -24 -29 -43 0
46 54 57 44 63 77 50 11 3 65 16 38 12 35 52 60 31 21 55 2 41 10 39 27 42 49 48 70 67 36 19 69 51 23 9 66 26 53 72 -22 -59 -43 -81 -1 -58 -7 -20 -47 -64 -79 -74 -28 -45 -8 -15 -61 -14 -56 -5 -75 -32 -33 -30 -29 -40 -13 -68 -80 -4 -78 -62 -71 -76 -73 -24 -25 -34 -17 0
31 17 26 74 3 51 50 30 70 52 35 45 68 28 12 14 42 63 77 75 49 59 54 57 1 72 56 64 6 81 79 29 -4 -16 -9 -55 -67 -73 -38 -20 -76 -23 -58 -37 -27 -8 -60 -78 -5 -61 -2 -10 -11 -15 -39 -25 -47 -22 -48 -24 -65 -36 -43 -44 -41 0
19 4 9 48 -26 -18 -61 -6 0
16 41 66 34 46 63 47 48 25 27 81 37 23 30 42 28 -18 -32 -14 -77 -19 -40 -61 -50 -73 -6 -55 -54 -80 -21 -36 -3 -75 -49 -68 -7 -71 -24 0
52 -47 0
3 14 61 60 8 22 7 50 72 63 55 47 10 62 28 25 17 66 42 13 23 26 69 74 81 19 41 11 70 58 30 54 37 67 -4 -32 -35 -80 -33 -29 -52 -64 -15 -46 -20 -49 -56 -77 -59 -68 -18 -51 -38 -44 -45 -9 0
19 74 60 35 72 50 54 32 65 75 73 62 59 20 -21 -4 -55 -16 -40 -80 -66 -47 -5 -71 -33 -36 -13 -15 -42 -81 -46 -69 -48 -34 -26 -22 -57 -1 0
51 36 43 7 76 75 18 57 30 52 79 15 9 53 -55 -68 -19 -41 -24 -63 -21 -64 -32 -46 -22 -62 -50 -72 -38 -80 -77 -81 -60 -65 -31 0
71 47 74 70 10 5 13 29 31 11 8 18 30 38 6 53 52 67 55 76 23 61 66 19 64 -3 -14 -50 -54 -68 -73 -81 -79 -26 -63 -4 -32 -58 -77 -48 -15 -25 -49 -33 -62 -59 -17 -78 -34 -57 -42 -65 -46 -12 0
80 44 64 48 73 68 18 61 76 62 58 38 46 79 34 2 37 69 72 52 78 8 24 63 6 1 40 31 41 54 39 30 25 14 11 23 10 32 81 43 47 66 36 45 19 15 -59 -20 -71 -16 -13 -4 -57 -22 -49 -51 -74 -17 -33 -65 -70 -12 -56 -29 -75 -50 -42 -21 -5 -60 -9 -77 -35 -67 -26 -7 -27 0
22 70 17 47 25 45 71 73 26 40 6 24 34 60 4 14 29 63 78 2 75 8 21 53 49 81 64 12 62 80 -31 -32 -50 -36 -5 -43 -37 -10 -76 -51 -72 -58 -48 -61 -57 -30 -9 -66 -18 -19 -59 -54 0
61 41 12 13 42 29 38 10 81 75 67 74 62 6 50 58 80 40 54 30 21 68 8 45 43 2 70 69 52 57 -25 -79 -59 -77 -72 -64 -56 -49 -26 -34 -3 -48 -32 -24 -63 -1 -11 -44 -18 -65 -14 -31 -66 -73 -76 -36 -9 -51 -28 -23 -20 -16 -35 -37 -27 -33 -4 -46 -7 -71 -60 -15 -19 -17 -53 -47 0
68 52 12 39 24 7 56 64 54 41 65 66 34 40 16 32 51 62 61 26 57 31 49 70 53 6 45 19 -50 -3 -48 -59 -73 -21 -5 -33 -11 -25 -38 -79 -23 -20 -29 -27 -44 -18 -76 -37 -78 -42 -71 -74 -17 -47 -36 -9 -30 0
61 25 24 43 8 40 20 75 39 19 48 45 49 52 22 73 23 64 42 14 7 38 31 59 2 4 21 28 29 69 11 54 9 36 77 66 34 13 63 18 16 57 41 56 33 74 58 -67 -51 -17 -62 -76 -47 -46 -70 -6 -15 -79 -55 -3 -53 -71 -32 -5 -10 -78 -60 -44 -68 -50 -30 -12 -26 -81 -72 -1 -37 -27 -35 -80 0
3 31 34 63 5 22 47 51 36 21 61 46 29 8 80 72 43 13 38 1 68 39 66 11 33 62 55 59 17 69 20 -45 -15 -50 -64 -73 -60 -6 -7 -76 -27 -37 -12 -79 -65 -32 -25 -75 -28 -77 -35 -2 -23 -53 -54 -4 -19 -24 -26 -41 -48 0
16 3 48 6 15 35 4 78 -73 -27 -74 -54 -75 -39 -61 -8 -26 0
72 29 53 45 75 59 57 31 19 78 74 24 60 11 61 68 32 12 66 3 47 6 23 18 36 26 38 42 40 17 62 1 34 20 77 33 51 5 13 58 10 56 39 -7 -35 -2 -55 -4 -76 -9 -73 -27 -80 -28 -71 -30 -46 -16 -49 -67 -69 -25 -54 -79 -15 -43 -50 -14 -41 -64 -8 -44 -63 -21 -81 -65 0
8 24 44 22 19 12 16 11 73 61 68 26 13 74 31 58 47 33 30 32 34 57 9 77 43 41 59 70 10 1 46 35 4 27 50 39 7 15 3 80 71 66 5 25 -2 -81 -75 -23 -18 -67 -79 -53 -63 -36 -78 -48 -69 -42 -38 -62 -64 -20 -14 -65 -72 -55 -51 -52 -60 -56 0
46 20 2 56 8 64 80 -16 -44 -76 -71 -72 -65 -30 -67 -40 -13 -31 0
63 44 13 -42 -78 -76 -5 -6 0
46 71 26 81 55 10 1 -73 -69 -54 -66 -4 0
55 67 56 71 70 58 54 3 74 25 26 41 30 64 76 28 6 -77 -5 -81 -51 -2 -38 -13 -69 -75 -44 -66 -20 -4 -68 -65 -63 -36 -52 -37 -7 -27 0
68 18 64 17 48 21 31 74 55 51 13 78 79 1 53 49 43 75 80 81 27 45 5 32 70 61 -12 -23 -77 -3 -50 -44 -20 -10 -38 -59 -33 -28 -24 -29 -41 -58 -25 -22 -67 0
80 36 19 41 15 75 4 1 59 -51 -20 -68 -54 -56 -76 -12 -18 0
47 69 51 79 9 65 42 52 26 33 59 30 6 37 38 4 25 2 23 74 45 39 40 44 7 67 72 77 1 24 61 73 10 27 -34 -68 -16 -13 -43 -5 -3 -29 -66 -78 -12 -58 -53 -60 -75 -14 -76 -62 -55 -18 -35 -49 -48 -54 -57 -70 -63 -46 0
5 1 35 2 28 21 14 13 75 66 4 30 -54 -40 -51 -53 -59 -24 -29 -56 -64 -18 -8 -41 -20 -58 -55 -74 -72 0
63 26 14 11 76 58 9 54 43 67 13 80 42 22 1 60 23 75 20 74 64 66 77 41 -79 -27 -4 -24 -21 -69 -53 -55 -19 -68 -81 -2 -46 -40 -3 -65 -29 -30 -6 -59 -5 -62 -39 -49 0
52 71 62 66 42 74 56 64 61 59 33 29 8 5 81 9 39 41 34 7 43 1 48 38 12 44 6 63 67 19 69 21 20 79 22 76 54 50 -40 -75 -31 -53 -57 -2 -49 -28 -30 -15 -27 -3 -26 -13 -58 -11 -37 -18 -16 -36 -55 -78 -47 -25 -24 -14 -70 -77 -46 -35 -4 -65 -45 -68 -17 -80 -73 -72 -51 -60 0
72 0
30 -44 -8 0
66 33 17 7 20 31 12 10 32 73 30 21 40 79 24 57 65 1 55 3 22 11 75 13 29 76 28 44 38 64 45 14 -47 -5 -80 -43 -68 -42 -58 -52 -19 -35 -26 -39 -53 -67 -59 -72 -27 -23 -56 -4 -50 -36 -9 -51 -37 -6 -71 -69 -8 -34 0
64 3 37 58 17 65 45 63 18 68 55 32 34 5 7 22 15 73 20 27 51 70 72 47 74 44 25 33 60 -77 -50 -14 -24 -67 -80 -31 -69 -35 -29 -39 -38 -13 -54 -11 -9 -81 -36 -61 -48 -46 -40 -43 -71 0
44 60 14 38 69 3 27 62 6 11 57 68 26 37 79 36 50 18 15 52 71 40 64 24 51 30 73 47 75 22 13 76 59 78 19 5 66 23 17 -39 -49 -34 -25 -74 -63 -43 -53 -21 -7 -70 -42 -81 -9 -10 -1 -4 -54 -16 -45 -72 -67 -77 -48 -8 -61 -58 -29 0
29 65 59 67 13 1 -37 -22 -16 -33 -36 -54 -48 -66 0
13 19 75 74 7 44 41 32 2 52 53 11 50 60 18 72 47 73 26 35 68 29 80 58 10 -37 -81 -16 -40 -57 -21 -1 -67 -5 -46 -14 -30 -9 -33 0
78 23 2 44 52 12 49 74 47 35 65 55 26 58 13 24 6 45 20 21 -54 -25 -50 -33 -48 -63 -41 -71 -31 -10 -4 -36 -5 -16 -66 -64 -61 -79 -27 -53 -11 -9 -43 -73 -37 0
41 79 -6 0
28 68 66 73 24 81 59 58 67 45 36 7 18 20 1 52 34 41 75 55 56 40 74 53 29 32 71 10 44 15 26 61 3 57 80 33 79 -9 -70 -42 -27 -49 -21 -2 -39 -16 -14 -76 -38 -11 -6 -19 -43 -37 -48 -5 -78 -31 -23 -8 -50 -25 -77 -47 -12 -51 -4 -60 -62 -65 -22 -63 -17 -72 -13 -35 -54 -64 0
81 15 44 65 79 58 51 46 24 43 29 69 22 75 40 37 78 45 52 9 23 36 74 60 80 27 7 48 66 77 2 8 -50 -35 -39 -14 -31 -62 -76 -6 -56 -54 -1 -30 -21 -19 -73 -71 -32 -67 -3 -4 -18 -70 -57 -28 -20 -38 -42 -64 -49 -17 -10 0
1 35 78 12 60 5 50 80 17 25 32 13 62 45 59 38 28 65 40 76 58 11 73 75 15 57 79 81 53 29 42 71 -72 -46 -22 -55 -37 -54 -74 -9 -14 -51 -26 -44 -8 -20 -36 -69 -27 -47 -77 -66 -63 0
69 46 71 4 53 -38 -57 -44 -24 0
2 12 18 7 70 31 20 47 73 46 33 32 15 62 23 76 27 55 3 60 61 65 72 63 39 66 -22 -34 -19 -75 -48 -51 -16 -71 -4 -80 -58 -30 -50 -17 -11 -44 -78 -43 -57 -41 -14 -45 -40 0
74 42 51 38 57 18 63 79 37 30 60 49 40 11 4 16 54 31 73 75 50 72 19 27 81 10 12 25 68 22 26 34 36 13 52 -23 -29 -39 -55 -67 -59 -8 -58 -80 -61 -21 -3 -41 -47 -77 -65 -53 -2 -7 -24 -44 -35 -45 -66 -14 -28 -56 -76 -71 -6 -17 -32 0
63 5 26 36 38 81 53 57 40 74 46 32 37 8 76 29 11 -80 -14 -56 -54 -68 -64 -75 -3 -55 -59 -44 -73 -10 -45 -27 -67 -70 -61 0
22 64 27 81 14 56 11 29 55 10 26 36 5 45 38 60 -37 -49 -41 -44 -54 -79 -33 -59 -66 -74 -50 -73 -6 -40 -77 -21 -3 -19 -53 -30 0
69 70 73 29 27 16 39 66 38 40 71 34 26 53 14 36 62 51 48 43 56 72 79 54 4 25 49 23 18 17 59 13 42 30 52 24 65 33 76 80 35 64 5 19 78 -28 -55 -57 -68 -81 -75 -22 -61 -32 -45 -15 -10 -9 -21 -60 -20 -58 -46 -37 -63 -12 -2 -74 -50 -8 -3 -31 -77 -1 -11 -7 -47 -41 0
40 -54 -67 -3 -76 -38 0
76 63 23 46 52 31 81 80 39 15 68 56 49 30 9 65 8 78 71 12 45 4 7 67 26 14 32 -6 -53 -59 -27 -35 -24 -21 -28 -75 -10 -79 -70 -29 -60 -13 -19 -72 -2 -43 -44 -77 -20 -74 -17 -58 -57 -50 -3 -51 -34 -47 -64 -11 -33 -54 -66 -62 -73 0
69 11 36 23 -26 -25 -68 0
54 13 66 59 46 65 47 31 48 52 24 -53 -71 -69 -20 -64 -62 -4 -10 -60 0
16 43 74 56 27 61 55 45 42 23 79 17 34 52 9 73 29 31 36 19 -1 -78 -47 -48 -3 -7 -77 -18 -40 -58 -46 -81 -44 -35 -10 -11 0
41 35 72 51 22 57 54 20 49 5 67 79 77 50 16 63 -45 -38 -48 -73 -9 -56 -6 -59 -43 -14 -4 -37 -21 -15 -8 -32 -7 -34 -81 -28 -39 -18 -74 0
5 38 11 78 68 21 -56 -77 -45 -59 -28 0
42 19 20 67 57 2 17 45 62 78 60 25 74 15 72 24 10 80 12 65 76 77 1 49 54 79 30 55 18 23 31 6 53 43 48 8 56 40 41 7 -34 -16 -46 -38 -68 -44 -71 -69 -27 -63 -26 -70 -14 -61 -4 -64 -75 -50 -51 -81 -3 -11 -39 -73 -32 -37 -5 -66 -47 -59 -21 -58 -9 0
60 33 61 10 20 31 17 32 25 81 48 50 1 34 39 21 43 54 73 7 9 -26 -78 -79 -71 -58 -77 -13 -41 -53 -15 -46 -28 -29 0
51 60 45 72 50 36 31 66 48 52 74 -56 -46 -79 -20 -25 -73 -40 -19 -23 -75 -64 -24 -65 0
40 6 -35 -23 -61 -3 0
59 50 57 21 70 12 52 47 45 35 25 46 58 20 48 51 73 63 33 68 66 4 71 43 5 9 69 24 40 76 54 22 3 29 -32 -17 -56 -60 -15 -2 -81 -16 -7 -11 -77 -55 -38 -1 -67 -23 -80 -41 -30 -37 -28 -10 -78 -65 -13 -6 -31 -74 -26 -64 -18 0
70 4 1 39 14 64 65 51 50 53 63 46 29 44 52 27 77 55 26 79 -67 -56 -60 -78 -72 -54 -58 -68 -2 -38 -49 -24 -42 -28 -19 -17 0
17 36 6 -50 -23 -20 0
48 16 44 15 28 8 41 71 77 45 68 39 1 54 30 25 60 78 23 47 70 79 53 51 2 18 74 35 14 9 31 81 -66 -22 -57 -50 -36 -3 -76 -52 -40 -12 -11 -59 -63 -32 -29 -26 -42 -10 -75 -34 -4 -19 -62 -27 -80 -37 -21 -58 -73 -6 0
37 56 52 62 50 65 7 40 67 31 13 77 72 30 32 15 45 14 79 5 4 61 49 2 16 70 34 57 41 10 -43 -58 -11 -36 -33 -76 -26 -48 -60 -12 -66 -17 -18 -39 -3 -81 -20 -71 -28 -46 -80 -47 -19 -69 -27 -51 -1 -42 -38 0
61 38 53 39 2 25 69 41 64 74 6 24 1 37 45 13 70 42 8 75 4 46 43 63 47 72 49 48 -62 -22 -52 -40 -12 -58 -31 -66 -36 -65 -7 -21 -34 -23 -68 -28 -9 -76 -19 -51 -80 -60 -30 -10 -16 -57 -33 -78 -55 -26 -14 -17 -5 0
45 24 57 47 54 22 69 72 52 9 11 19 39 48 58 78 17 77 66 31 42 18 7 13 20 34 -79 -75 -10 -81 -73 -38 -50 -43 -51 -37 -60 -27 -2 -74 -56 -68 -32 -80 0
21 17 -29 -80 0
29 4 17 76 72 81 20 31 48 39 41 47 30 70 7 35 10 45 51 15 -37 -40 -46 -71 -27 -22 -38 -53 -21 -49 -80 -64 -52 -57 -69 -43 -23 -63 -67 -62 -66 -55 -12 -60 -32 -26 0
16 58 9 70 -45 -17 -79 -60 -35 -25 0
64 44 69 81 66 14 40 15 16 77 5 7 3 79 45 39 52 29 62 70 73 57 12 55 22 34 58 72 -21 -43 -2 -27 -80 -17 -60 -23 -56 -24 -8 -50 -38 -36 -26 -13 -51 -18 -61 -37 -48 -25 -65 -35 -10 -68 -11 -59 -32 -47 -6 -53 -20 -4 -49 -30 -46 0
19 51 11 29 20 15 38 63 53 79 32 80 56 7 -39 -76 -75 -48 -24 -3 -64 -45 -30 -9 -5 -25 -4 -74 -52 -27 -17 -68 -47 -2 -36 -70 -54 -78 -22 -77 -1 0
59 41 11 40 35 20 48 71 -8 -44 -13 -27 -34 -54 -62 0
55 34 22 62 70 -14 -41 -24 -4 -1 0
1 39 58 73 51 66 79 27 37 80 50 68 -41 -47 -23 -48 -81 -18 -3 -76 -53 -54 -57 0
30 45 56 5 63 41 78 35 22 39 75 76 38 31 20 9 54 50 62 51 6 27 12 64 14 37 77 7 19 28 81 48 -36 -42 -29 -55 -44 -17 -18 -13 -2 -4 -74 -57 -66 -33 -11 -65 -15 -68 -25 -53 -32 -34 -69 -1 -3 -61 -70 -79 -16 -67 0
69 26 40 60 5 18 76 72 46 77 63 65 19 57 55 81 7 1 44 28 71 14 56 67 34 24 48 -27 -52 -62 -9 -25 -13 -35 -30 -10 -38 -51 -42 -54 -20 -33 -61 -21 -68 -78 -6 -73 0
46 77 4 40 67 32 15 80 21 27 44 29 45 22 39 38 74 36 -64 -23 -41 -16 -12 -11 -75 -72 -1 -73 -34 -7 -56 -10 -37 -59 -62 -17 -5 -52 -26 -6 -47 0
41 63 20 3 40 44 11 13 31 4 45 70 10 43 61 58 -78 -48 -46 -35 -69 -54 -80 -14 -72 -17 -67 -15 -74 0
30 38 48 28 5 12 8 58 26 3 27 52 25 41 13 61 36 56 4 18 76 -37 -24 -73 -32 -62 -74 -75 -44 -14 -69 -10 -19 -39 -80 -71 0
16 74 7 61 32 77 81 13 79 29 43 33 23 24 20 22 52 3 37 46 44 80 4 31 5 11 54 51 12 19 36 64 18 14 75 73 55 -30 -71 -15 -2 -76 -62 -53 -8 -9 -42 -68 -1 -59 -17 -67 -56 -69 -72 -27 -78 -45 -49 -39 -60 -40 -63 -6 -25 -35 -10 0
5 39 45 49 78 11 10 57 42 9 48 80 14 67 69 55 27 65 38 12 22 43 40 23 4 24 13 26 54 60 15 8 2 25 79 -6 -7 -17 -81 -1 -18 -37 -66 -74 -63 -72 -56 -28 -76 -35 -29 -46 -31 -50 -58 -36 -34 -70 -71 -61 -30 -3 -20 0
46 7 75 37 19 60 14 76 72 41 24 3 54 1 34 31 48 58 52 40 20 4 73 21 53 64 -66 -10 -18 -5 -50 -51 -9 -33 -12 -67 -42 -2 -61 -49 -22 -15 -59 -68 -63 -32 -77 -55 -36 -30 -43 -79 -70 -78 -45 -17 -69 -27 -35 -62 -25 -29 -39 -57 -6 -8 -13 -44 0
77 19 15 26 -74 0
9 10 18 73 72 43 36 1 52 35 66 70 59 64 54 38 -49 -5 -78 -8 -2 -25 -3 -37 -16 -12 -65 0
19 69 37 73 62 50 38 1 27 48 5 29 11 52 35 32 15 23 51 43 75 63 74 25 16 2 57 36 44 47 21 13 66 61 79 30 26 68 24 59 17 67 -7 -60 -56 -40 -49 -53 -22 -18 -42 -39 -81 -34 -10 -65 -55 -70 -54 -14 -46 -76 -31 -58 -6 -33 -41 -12 -9 -71 -3 -77 -28 -8 -45 0
72 57 29 77 13 59 54 81 52 42 73 38 12 31 25 56 47 64 8 71 55 36 49 14 11 80 18 78 70 37 63 41 -9 -58 -53 -28 -30 -62 -4 -7 -1 -79 -46 -48 -19 -39 -24 -40 -10 -3 -23 -69 -65 -44 -66 -32 -34 -20 -21 -6 -60 -51 -45 -5 -22 -33 -16 0
30 22 6 51 64 14 79 37 58 1 41 12 65 43 11 21 23 47 27 34 59 56 8 40 18 38 32 5 60 25 66 9 31 68 -19 -55 -39 -48 -36 -4 -63 -52 -44 -15 -33 -24 -77 -53 -72 -69 -67 -42 -29 -76 -81 -50 -10 -71 -13 0
25 78 17 13 35 32 60 5 61 50 -11 -54 -41 -77 -1 -68 -53 -81 -79 0
81 32 47 31 40 27 35 11 66 42 54 39 64 8 2 50 25 59 75 72 12 60 46 30 15 -7 -44 -38 -77 -49 -4 -41 -16 -67 -57 -71 -68 -34 -51 -61 -18 0
64 7 55 -23 -12 -50 -15 -74 -53 0
14 33 70 61 46 37 20 30 23 -38 -22 -35 -2 -75 -56 -55 -40 -28 -48 0
41 61 70 23 40 8 22 1 44 27 14 53 59 12 60 7 81 16 15 36 26 55 52 10 66 49 68 -79 -65 -4 -2 -38 -25 -51 -33 -20 -78 -74 -42 -34 -57 -17 -37 -19 -77 -39 -73 -24 -9 -6 0
68 74 54 33 77 56 25 7 73 28 71 42 11 35 9 50 17 52 -44 -45 -14 -30 -55 -19 -69 -12 -51 -75 -40 -41 -62 -38 -8 -60 -66 -79 -31 -46 0
40 12 42 64 67 61 4 37 14 68 76 55 77 36 71 7 72 34 5 28 35 73 23 41 21 20 17 2 79 30 11 44 32 74 52 57 26 -65 -63 -49 -78 -10 -15 -81 -59 -60 -3 -6 -58 -19 -75 -25 -47 -66 -9 -1 -70 -50 -29 -43 -45 -69 -22 -53 -46 -24 -18 -62 -8 -80 -48 -33 -38 -39 -16 -56 -51 -54 0
71 3 45 65 46 53 42 38 47 54 19 63 73 23 32 28 69 15 35 62 66 43 13 27 52 10 2 20 -34 -79 -60 -24 -48 -4 -22 -50 -67 -39 -33 -29 -57 -72 -14 -7 -51 -8 -30 -21 -80 -56 -74 -75 -16 -31 -58 -81 -1 -61 0
67 26 35 14 81 30 77 17 -49 -32 -76 -7 -66 -70 -38 -41 -37 -33 -21 -13 -63 -45 -11 -51 0
19 5 71 55 16 40 74 69 64 12 45 7 52 6 13 35 47 46 67 65 70 1 54 72 66 81 76 49 56 31 11 42 8 44 -41 -30 -9 -4 -28 -17 -29 -33 -14 -43 -48 -24 -2 -15 -68 -79 -78 -61 -37 -62 -23 -57 -75 -34 -27 -59 0
75 63 39 71 19 24 36 53 50 17 10 -60 -34 -68 -9 -12 -18 -30 -80 -14 -42 -78 -29 -76 -61 -55 -31 -27 -67 0
5 32 56 14 6 76 52 42 69 12 37 10 54 68 49 66 39 80 27 -45 -63 -77 -1 -26 -61 -55 -64 -28 -35 -70 0
55 4 58 81 36 60 31 13 44 28 22 64 75 33 24 66 52 21 53 14 61 63 80 70 41 38 73 1 3 67 65 19 25 12 45 34 76 -39 -78 -69 -29 -35 -68 -50 -9 -51 -8 -20 -15 -40 -48 -16 -47 -2 -57 -54 -23 -18 -72 -43 -49 -42 -56 -79 -77 -10 -37 -32 -27 -7 -30 -6 -62 -46 0
45 12 71 7 68 16 36 77 23 10 -21 -4 -34 -62 -31 -2 -50 -52 -5 -15 -74 -13 -39 -42 -44 -8 -51 -56 -32 -30 -67 -55 -80 0
46 41 24 74 65 21 80 6 8 42 27 15 29 47 26 3 58 28 64 37 61 23 35 18 31 33 -51 -66 -50 -7 -57 -49 -20 -34 -81 -12 -44 -52 -78 -14 -25 -70 -39 -43 -54 0
35 40 49 54 46 73 60 14 33 71 47 36 44 11 76 50 26 79 21 19 63 72 38 41 43 22 48 70 69 81 -55 -34 -39 -57 -17 -18 -52 -66 -20 -65 -58 -16 -7 -3 -59 -64 -31 -6 -29 -61 -23 -15 -77 -8 -2 -37 -68 -13 -27 -9 -62 -10 -80 -32 -5 -74 -53 -56 -24 -78 -42 0
13 22 23 76 37 62 48 51 38 4 28 25 -71 -55 -6 -10 -27 0
26 34 69 75 73 25 77 43 13 64 52 50 4 54 51 2 44 72 10 35 59 29 67 80 78 7 56 16 21 11 9 57 66 70 63 61 24 -17 -68 -71 -6 -37 -15 -39 -40 -27 -49 -45 -76 -58 -47 -42 -20 -23 -5 -1 -14 -36 -81 -30 -22 -41 -74 -18 -19 -60 -62 -53 -28 -38 0
2 30 53 68 67 8 63 62 56 7 72 34 57 15 59 32 17 20 26 40 4 24 76 35 18 61 39 14 5 44 22 66 -49 -55 -58 -29 -78 -11 -9 -79 -75 -10 -41 -77 -65 -47 -45 -69 -23 -6 -33 -50 -48 -74 0
36 -28 -66 0
39 80 11 35 20 -16 -5 -65 -47 0
57 78 33 46 71 81 27 26 56 39 45 38 59 40 68 65 51 36 64 16 10 12 32 74 80 43 30 8 41 7 15 29 54 21 53 50 1 69 24 6 3 -18 -70 -55 -62 -44 -60 -73 -9 -31 -72 -13 -25 -76 -79 -11 -22 -37 -67 -14 -47 -4 -66 -48 -58 -23 -17 -20 -42 -77 -2 -52 -34 -75 0
26 75 55 39 9 74 79 62 32 -31 -53 -10 -69 -12 -65 -47 -6 -7 -4 -66 -43 -18 -54 -19 -67 -42 -20 -41 -36 -72 -22 -71 0
52 31 27 59 63 46 64 28 25 41 62 3 10 38 37 -65 -44 -23 -22 -79 -11 -35 -78 -4 -47 -60 -74 -58 -5 -36 0
69 8 31 62 47 81 5 46 24 14 3 77 50 35 74 22 34 58 60 65 4 41 51 40 18 19 33 48 63 39 68 55 59 71 52 -26 -80 -15 -56 -67 -43 -23 -54 -13 -7 -2 -9 -76 -57 -75 -16 -28 -37 -12 -61 -64 -66 -72 -25 -30 -17 -73 -44 -49 -11 -42 -53 -70 -32 -36 0
50 39 24 75 11 7 22 74 -38 -3 -60 -15 -67 -21 -46 -34 -10 -6 -40 -57 -26 -64 -65 -48 0
2 10 -51 -48 0
65 9 43 64 17 15 73 30 21 32 45 61 44 2 5 67 25 13 57 46 19 60 51 37 48 77 39 66 72 38 56 76 20 69 1 58 78 24 12 42 14 -33 -36 -35 -79 -18 -70 -28 -54 -7 -80 -29 -11 -16 -47 -3 -50 -62 -75 -22 -71 -74 0
2 35 42 18 74 78 73 28 10 39 61 8 29 7 32 34 4 5 69 12 3 56 59 80 53 81 24 45 48 72 -38 -75 -26 -55 -60 -22 -58 -33 -57 -62 -54 -67 -21 -76 -52 -71 -30 -49 -77 -17 -19 -47 -65 -36 -25 -63 -6 -27 -11 -41 -50 -66 -79 -1 0
23 55 58 47 28 44 7 78 48 21 16 63 33 30 11 2 74 57 56 3 72 25 6 46 69 53 66 81 41 34 38 54 10 13 18 62 64 51 50 80 15 77 31 -70 -24 -49 -76 -17 -40 -65 -22 -71 -52 -19 -42 -5 -29 -61 -36 -32 -60 -14 -68 -8 -1 -75 -20 -59 -67 -43 -12 -4 -39 -73 -45 -35 -37 -79 0
61 50 12 7 27 17 9 6 31 14 74 38 72 70 23 57 51 29 67 18 49 71 22 76 -25 -34 -55 -66 -42 -64 -43 -2 -3 -19 -1 -59 -8 -60 -45 -4 -30 -65 -56 -37 -78 -77 -33 -41 -39 -68 -26 -35 -69 -36 -15 -80 -32 -10 -44 -28 -47 -24 -62 -5 -20 -11 0
71 24 62 21 22 54 78 69 32 33 80 81 18 36 23 6 77 43 25 41 13 59 63 66 34 37 72 -45 -48 -11 -35 -58 -10 -67 -55 -57 -68 -46 -29 -9 -12 -65 -70 -4 -26 -75 -53 -47 -61 -50 -38 -1 -74 -2 -76 -30 -42 0
17 19 22 18 67 74 14 38 54 56 33 65 51 -30 -26 -8 -62 -36 -60 -2 -32 -70 -64 -13 -69 -15 0
58 39 72 6 32 19 46 16 81 28 2 73 11 76 49 23 1 41 55 48 37 10 54 53 7 5 34 52 56 21 -26 -40 -31 -15 -51 -36 -43 -14 -20 -50 -3 -24 -13 -57 -17 -38 -70 -75 -65 -22 -80 -35 -77 -62 -45 -18 0
40 10 11 61 19 80 52 33 37 76 12 2 69 73 23 77 30 59 74 60 44 7 38 55 9 43 35 56 66 16 26 -17 -32 -1 -31 -50 -20 -79 -70 -36 -68 -81 -78 -39 -51 -63 -53 -22 -13 -47 -45 -75 -6 0
22 53 25 40 17 -20 -50 -8 -42 0
24 -41 -77 -35 -56 -33 0
7 77 57 25 38 36 9 74 -63 -81 -21 -18 -65 -2 -68 -8 -78 -37 -72 -45 0
64 38 47 37 46 45 24 -35 -63 -62 -2 0
72 23 0
46 41 15 8 44 65 5 55 13 60 54 14 38 7 4 69 17 34 39 48 29 42 24 21 11 31 76 26 16 74 71 33 20 75 62 18 -27 -40 -22 -58 -45 -19 -73 -72 -49 -47 -52 -57 -63 -81 -59 -12 -78 -70 -80 -32 -67 -66 -51 -56 -50 -6 0
6 29 63 37 21 72 66 15 17 4 18 1 40 45 33 27 53 10 14 49 20 2 52 56 34 8 28 55 43 12 13 25 31 7 3 16 36 -70 -9 -64 -69 -38 -60 -35 -81 -22 -44 -48 -73 -51 -68 -74 -54 -57 -23 -76 -75 -42 -65 -26 -39 -32 -67 -79 -50 -62 -47 -41 -61 -71 -30 -24 -19 0
72 25 26 74 61 -50 -23 -11 -17 -58 -30 -69 0
57 78 49 26 79 15 80 19 3 81 -25 -18 -60 -73 -20 -23 -11 -8 0
72 81 32 2 74 28 46 11 -5 -35 -56 -71 -62 -58 -30 -60 -13 -57 -44 -76 -23 -9 -15 -39 -34 -3 -8 -65 -67 -66 0
79 18 54 75 11 24 2 28 32 50 72 77 8 65 6 5 71 -27 -43 -80 -59 -17 -68 -44 -56 -48 -66 -49 0
24 -25 -20 0
41 70 16 42 33 47 48 11 77 36 44 80 64 2 61 49 18 15 -3 -1 -45 -52 -46 -58 -63 -39 -26 -24 -28 -5 -53 -32 -29 -59 -51 -21 0
8 57 29 39 26 51 25 3 79 54 36 -30 -55 -28 -15 -12 -76 -40 -70 0
28 81 16 11 24 25 58 35 41 26 48 68 43 56 52 15 74 17 65 34 61 66 4 8 70 21 3 38 63 64 79 10 36 23 77 19 13 60 30 37 -55 -75 -47 -6 -54 -62 -45 -44 -12 -50 -22 -78 -46 -42 -5 -49 -59 -18 -80 -31 -67 -29 -39 -72 -53 -7 0
28 72 13 38 41 14 74 69 47 64 11 26 35 61 21 49 48 44 4 7 55 -68 -50 -51 -31 -60 -37 -66 -73 -54 -2 -79 -3 -42 -76 -46 -59 -78 -65 0
64 47 14 35 51 31 34 44 32 15 58 76 10 68 -46 -36 -16 -28 -3 -56 -60 -52 -62 -50 -81 -53 -57 -72 -11 -40 -65 0
58 48 33 42 60 43 39 22 3 37 65 18 8 80 28 50 6 5 44 59 79 26 1 73 52 23 16 45 35 19 69 66 55 51 76 -14 -67 -68 -34 -20 -21 -53 -9 -27 -2 -17 -24 -40 -29 -15 -12 -63 -31 -7 -77 -70 -78 -47 -64 -74 -62 -75 -61 -11 -81 -49 -32 -46 -30 -56 -36 -38 -71 -57 -72 -25 -4 -41 0
17 65 77 24 4 73 38 41 44 36 7 26 -46 -19 -34 -67 -35 -54 -32 -21 -61 -81 -40 0
77 70 34 26 59 76 20 52 16 60 72 65 32 13 2 64 29 53 37 12 41 50 42 68 66 18 75 78 69 71 67 9 -17 -45 -35 -48 -30 -63 -58 -23 -61 -80 -27 -49 -39 -3 -38 -57 -8 -56 -7 -25 -54 -21 -36 -79 -14 -43 -5 -28 -44 -11 -10 -46 -15 -73 -24 -19 -4 0
60 6 19 79 23 -72 0
78 22 75 65 36 17 50 57 53 56 1 64 77 -23 -9 -47 -13 -60 -39 -35 -41 -24 -31 -66 -76 -21 -81 -43 0
10 38 70 42 32 7 27 33 9 29 57 62 8 66 -13 -30 -72 -65 -36 -17 -41 -49 -43 -25 -3 0
26 39 50 72 4 71 30 14 36 58 46 16 38 53 68 56 63 7 55 81 20 69 19 32 40 66 67 59 43 41 78 44 17 -12 -48 -11 -18 -75 -24 -22 -6 -23 -1 -27 -76 -9 -47 -28 -61 -70 -51 -77 -49 -35 -64 -52 -21 -54 -37 -3 -34 -25 -60 -13 -2 -10 -80 0
75 66 48 52 62 31 54 59 18 57 81 14 11 73 70 17 80 1 22 74 63 19 12 9 28 35 4 51 27 -21 -53 -13 -68 -34 -77 -40 -3 -33 -36 -5 -64 -24 -58 -65 -39 -60 -26 -32 -61 0
49 19 57 80 33 78 25 12 37 58 30 15 74 6 21 34 59 44 43 32 13 17 28 75 47 23 10 53 2 7 -72 -77 -3 -65 -36 -29 -70 -79 -67 -61 -20 -62 -35 -54 -60 -73 -31 -18 -52 -81 -27 -5 -64 -1 -76 -68 -55 -40 -42 -50 -8 -69 -63 -45 -51 -14 -46 -38 -24 0
72 61 71 25 49 41 32 22 50 14 16 44 51 15 46 66 1 73 39 -79 -6 -8 -9 -23 -48 -53 -78 -27 -75 -57 -36 -42 -10 -31 -64 -35 -20 0
13 12 6 46 70 74 71 76 50 8 -75 -24 -21 -35 -80 -59 -11 -27 0
2 28 16 24 47 43 64 45 23 42 35 17 79 6 36 31 78 19 51 62 80 60 13 52 58 -25 -30 -11 -61 -55 -48 -73 -77 -10 -69 -75 -74 -41 -37 -44 -33 -3 -15 -22 -18 -40 -71 -5 -38 -53 -65 -1 0
55 33 8 45 72 36 15 42 58 57 20 4 1 22 79 41 66 48 74 44 68 2 21 40 26 9 43 7 16 38 6 64 24 -29 -54 -70 -71 -69 -23 -19 -27 -30 -25 -78 -32 -14 -63 -76 -81 -51 -17 -31 -77 -73 -61 -37 -60 0
57 72 3 7 45 28 24 67 69 10 68 47 8 35 30 15 80 66 52 43 53 46 25 9 26 70 33 55 16 27 73 20 39 76 42 38 6 58 65 41 -61 -11 -32 -1 -4 -60 -31 -63 -5 -71 -54 -77 -48 -49 -18 -19 -12 -78 -75 -21 -22 -62 -74 -50 -23 -56 -81 -40 -59 -14 -44 -13 -36 0
69 62 77 34 52 58 43 26 10 38 16 22 6 65 33 25 60 49 47 57 39 2 28 7 63 80 56 75 73 70 15 36 71 -14 -64 -17 -24 -68 -1 -3 -5 -4 -31 -74 -53 -48 -46 -13 -55 -35 -8 -78 -37 -21 -66 -61 -29 -30 -81 -76 -79 -9 -20 -23 -42 -59 -18 -45 -44 -40 -50 -11 -12 -67 -41 0
34 47 73 33 35 67 28 54 74 48 79 60 22 31 1 78 62 81 11 5 72 23 59 32 43 29 52 49 4 77 51 71 18 30 44 -13 -46 -7 -17 -68 -40 -39 -26 -53 -8 -55 -58 -12 -80 -37 -63 -66 -57 -24 -19 -10 0
33 4 14 64 11 -37 -13 0
31 64 38 69 14 61 42 5 60 44 30 41 63 49 13 80 81 73 78 12 53 22 29 9 21 52 4 54 10 8 -27 -34 -15 -16 -43 -33 -47 -65 -48 -59 -20 -39 -24 -55 -26 -67 -74 -75 -56 -57 -37 -23 -50 -3 -46 -68 -1 -66 0
4 56 19 50 18 6 66 59 42 45 54 13 71 65 77 43 5 76 8 73 64 29 79 41 55 16 38 -75 -23 -28 -31 -40 -26 -34 -35 -63 -14 -12 -78 -30 -74 -3 -49 -48 -24 -70 -47 -20 -10 -57 0
14 24 31 25 63 18 17 28 37 46 77 62 78 68 38 33 4 -6 -75 -39 -12 -34 -13 -58 -3 -71 -69 -55 -26 -59 -50 -73 -15 -9 0
62 49 36 61 27 56 42 5 75 81 30 21 -32 -14 -74 -40 -7 -80 -51 0
44 4 11 72 -31 -17 -67 -57 -59 -77 -9 0
9 3 40 50 4 20 81 24 6 18 49 80 47 67 8 45 77 10 -64 -73 -27 -59 -23 -62 -72 -41 -46 -51 -56 -37 0
77 54 43 79 56 61 9 34 26 15 6 5 12 78 23 13 -76 -68 -21 -72 -70 -1 -51 -17 -48 -44 -4 -60 0
32 52 26 41 44 5 40 37 76 61 80 -2 -69 -78 -62 -70 -56 -16 -77 -33 -30 -65 -73 -9 -24 -79 0
51 63 48 40 68 56 58 -80 -29 -36 -59 -44 0
64 72 43 75 12 49 19 17 53 58 35 44 33 -7 -38 -20 -4 -74 -45 -78 0
39 13 15 30 57 64 3 49 80 42 17 4 51 79 56 77 44 25 11 53 68 31 74 -10 -28 -32 -21 -37 -76 -48 -69 -72 -26 -27 -8 -22 -36 -71 -33 -66 -19 -35 -61 -43 -46 -75 -1 -38 -62 -9 -7 -41 -24 -54 -55 0
81 5 31 34 13 2 29 33 7 20 62 41 56 32 77 1 17 67 3 78 -55 -25 -23 -43 -38 -66 -47 -36 -69 -30 -73 -61 -49 -19 -9 -24 -52 -39 -37 -14 -18 -35 -80 -27 -58 -65 -53 -68 0
62 39 7 32 37 60 20 79 68 22 77 9 41 38 5 70 10 57 33 51 31 50 72 35 27 52 65 19 49 21 45 69 -17 -64 -59 -46 -29 -18 -47 -80 -16 -81 -53 -26 -4 -15 -34 -61 -30 -66 -63 -73 0
54 31 52 81 36 17 -59 -55 -69 -27 -60 -20 -18 -15 -79 -16 -25 0
36 43 24 26 45 30 1 13 8 42 6 58 51 59 25 69 61 54 77 15 55 68 28 27 47 44 3 -62 -64 -60 -53 -20 -7 -67 -39 -73 -29 -17 -22 -2 -4 -19 -80 -34 -78 -63 -75 -57 -70 -21 -5 0
21 76 60 4 8 57 31 68 74 13 10 16 47 65 7 5 59 29 -17 -46 -63 -39 -22 -27 -30 -49 -70 -73 -42 -45 -37 -55 0
38 69 25 49 70 61 1 4 7 46 27 45 55 5 50 -47 -33 -44 -52 -3 -77 -51 -16 -11 -56 -22 -8 -30 -34 -10 0
56 73 61 40 68 21 67 58 2 11 53 44 10 48 79 31 76 24 -25 -32 -64 -23 -12 -7 -47 -27 -42 -59 0
29 71 36 56 78 41 21 24 3 40 26 52 -80 -60 -30 -76 -23 -81 -10 -63 -7 0
62 32 8 28 30 34 39 5 74 45 79 3 54 75 -31 -63 -35 -22 -33 -50 -25 -80 -36 -69 -13 -1 0
68 77 28 62 35 29 16 23 7 49 43 70 11 72 34 41 32 76 10 15 69 55 25 64 57 59 40 44 -54 -63 -13 -60 -6 -19 -48 -36 -50 -9 -53 -12 -18 -2 -73 -61 -17 -31 -74 -58 -24 -5 -81 -47 -75 0
72 60 6 67 57 71 9 41 58 16 35 11 77 66 37 47 50 31 26 22 44 1 -24 -46 -74 -61 -30 -75 -36 -69 -23 -76 -64 -3 -13 -63 -28 -20 -53 -81 -70 -25 -52 -42 -12 0
30 58 74 3 79 71 81 17 64 9 27 72 42 53 80 33 14 46 67 -23 -50 -73 -66 -10 -31 -78 -18 -20 -26 -41 -57 -68 -60 -39 -16 -35 -21 -44 -49 0
48 38 29 6 73 -76 -66 -41 0
38 27 80 28 70 46 71 65 32 54 -69 -45 -2 -78 -7 -31 -61 -72 -53 -75 -35 -30 -5 -60 0
50 2 53 69 14 33 47 63 6 59 13 31 12 39 40 58 61 73 67 32 30 75 23 16 42 22 29 48 76 7 62 80 11 28 74 17 20 41 79 -1 -81 -68 -71 -78 -8 -66 -55 -36 -56 -54 -60 -44 -34 -65 -64 -3 -43 -27 -4 -35 -19 0
50 9 10 72 43 59 21 22 64 16 27 24 63 11 33 47 29 31 54 37 28 25 42 44 77 79 55 19 75 57 41 62 20 39 26 56 1 53 6 12 -81 -68 -58 -35 -17 -45 -34 -70 -67 -66 -5 -52 -2 -76 -8 -23 -30 -60 -13 -32 -38 -49 -40 -51 -78 -65 -73 -4 -74 -71 -80 -14 -61 0
50 58 8 36 65 31 20 6 16 47 73 25 46 56 26 17 22 79 14 40 15 71 12 33 67 62 76 19 48 75 24 23 3 64 -34 -59 -21 -39 -49 -68 -27 -11 -28 -70 -2 -29 -51 -57 -9 -74 -44 -41 -45 -13 -5 -55 -37 -42 -18 -69 -61 -63 -30 -7 -53 -38 -77 -35 -60 -10 -43 -52 -81 -32 -1 -72 -78 -66 0
67 12 65 17 33 27 -68 -55 -31 -76 -44 -50 -58 -37 -54 -39 -35 -59 0
76 14 12 10 2 69 8 21 78 3 63 19 33 -65 -7 -39 -77 -6 -70 -79 -32 -66 -57 -45 -20 -72 -31 -71 -58 -64 -50 0
24 37 71 38 51 12 58 3 65 29 79 76 31 45 15 35 63 28 67 -4 -64 -52 -25 -47 -22 -13 -78 -77 -8 -33 -14 -49 -80 -68 -2 -48 -6 -20 -43 0
48 -70 0
41 72 17 37 5 60 74 64 55 73 9 49 29 13 47 66 51 71 1 36 67 31 15 79 16 70 81 77 18 46 14 7 -50 -11 -63 -24 -58 -21 -69 -80 -3 -6 -28 -59 -62 -30 -53 -54 -22 -2 -19 0
75 -24 -21 -2 -51 0
6 12 5 68 63 66 15 71 4 17 43 73 18 56 25 33 -70 -27 -79 -14 -50 0
32 79 17 76 8 63 61 53 75 54 51 62 34 12 18 29 14 69 2 74 78 13 47 81 7 70 -33 -26 -28 -35 -80 -72 -10 -36 -58 -6 -40 -15 -49 -52 -30 -25 0
44 21 47 26 35 80 51 8 17 30 20 6 11 22 25 36 5 65 45 2 13 61 39 73 9 46 81 67 78 24 72 37 79 58 4 -32 -53 -18 -3 -66 -64 -29 -77 -12 -43 -75 -10 -14 -56 -48 -34 -57 -60 -15 -52 -63 -19 -1 -31 -28 -59 -38 -74 -50 -54 -7 -40 -55 -42 -71 -62 -49 0
77 55 15 60 30 61 51 47 66 63 25 67 57 19 39 1 45 33 17 70 23 16 64 53 62 22 29 6 80 40 34 8 68 73 41 26 42 -79 -54 -24 -46 -12 -52 -14 -71 -74 -49 -81 -50 -35 -13 -43 -56 -7 -20 -44 -69 -65 -5 -27 -11 -75 -59 -4 -21 -78 -48 -10 -76 -18 -28 -9 -31 -58 -32 0
19 36 62 81 -50 -26 0
24 73 29 6 8 32 63 52 53 9 49 4 13 51 55 38 16 -64 -75 -68 -30 -58 -27 -22 -39 -71 -61 -5 -37 -59 -54 -43 -72 -40 -23 -15 -35 -2 -21 -31 -26 -48 0
6 5 1 53 11 27 16 72 61 69 73 71 41 57 70 2 14 23 81 8 65 32 15 37 74 75 44 38 67 64 22 -76 -51 -35 -40 -55 -58 -62 -26 -10 -54 -60 -39 -48 -63 -78 -13 -28 -79 -68 -42 -17 -18 -24 0
51 76 30 15 36 78 12 81 26 23 24 11 18 13 2 48 60 42 17 -52 -69 -65 -50 -55 -43 -4 -6 -74 -77 -3 -33 -35 -28 -64 -31 -27 -34 -40 0
72 56 39 32 41 51 35 69 17 38 20 11 37 33 28 47 25 15 53 68 52 64 73 3 55 23 60 12 19 8 29 24 9 49 58 63 43 78 75 -50 -70 -36 -10 -26 -62 -16 -7 -46 -13 -27 -77 -14 -57 -40 -22 -65 -66 -18 -44 -48 -4 -80 -76 -1 -67 -42 -74 -31 -45 -2 -59 -61 0
77 47 68 67 78 43 56 74 19 26 63 80 18 32 23 33 15 50 35 28 42 41 48 70 37 45 64 25 38 49 -40 -55 -57 -76 -81 -73 -12 -6 -8 -21 -9 -5 -69 -52 -16 -72 -61 -13 -34 -53 -79 -11 -17 -20 -2 -71 -62 -22 -59 -36 -31 -75 -60 -24 -3 -46 -30 -66 -14 -39 -44 -58 -4 -1 -51 -10 -27 -54 -65 0
78 17 43 -65 -76 -52 0
57 17 72 -78 -81 -76 0
40 28 9 30 39 24 37 58 76 66 3 43 48 1 62 21 71 63 74 15 26 7 78 -53 -8 -19 -13 -72 -12 -59 -41 -36 -65 -51 -16 -70 -22 -18 -29 -10 -27 -4 -33 -38 0
57 43 15 37 6 14 8 47 72 23 45 30 -4 -58 -77 -1 -55 -38 -76 -16 -19 -81 -25 -49 -73 -60 -17 -74 -7 -2 -62 -54 -26 -80 0
44 80 41 10 5 14 58 57 63 24 71 49 27 74 81 16 65 77 60 8 3 22 52 -6 -47 -15 -7 -1 -68 -70 -73 -21 -59 -11 -35 -25 -45 -62 -29 -30 -32 -37 -67 -61 -12 -31 -36 -76 -53 -38 -75 -4 -54 0
7 70 76 4 68 74 5 67 40 32 19 39 2 50 1 77 30 6 56 71 49 37 25 42 48 66 57 -45 -8 -72 -14 -23 -65 -78 -3 -55 -52 -24 -58 -13 -12 -15 -47 -26 -43 -33 -79 -80 -46 -73 -29 -9 -44 -38 -34 -17 0
8 32 -22 -29 -72 -58 0
41 33 31 24 64 72 28 73 35 52 27 40 49 58 47 81 43 38 78 23 6 -66 -80 -37 -67 -14 -75 -2 -63 -30 -21 -20 -65 -56 -16 -74 -44 -18 -26 0
64 5 76 67 31 4 71 13 75 43 22 58 15 46 47 80 3 62 70 16 12 9 56 -39 -51 -73 -52 -23 -27 -54 -17 -10 -60 -21 -66 -33 -48 -40 -8 -59 -57 -77 -45 -69 -28 -78 0
24 37 14 64 16 79 10 52 26 48 43 4 2 30 8 32 59 46 11 67 28 18 51 66 40 68 -7 -19 -70 -71 -5 -6 -36 -41 -29 -15 -47 -44 -63 -35 -25 -54 -3 -81 -58 -39 -80 -78 -33 -60 -27 -49 -31 0
17 69 8 22 18 72 61 62 40 57 60 37 27 47 -53 -1 -33 -35 -63 -10 -36 -73 -13 -28 -80 -5 -71 -48 -50 -21 -58 -20 -30 -6 0
27 14 67 8 52 44 50 20 37 47 10 51 3 22 80 21 25 73 34 -18 -35 -74 -13 -28 -5 -77 -75 -45 -43 -79 -26 -62 -81 -39 -53 -19 -32 -64 0
33 29 11 67 50 35 49 77 32 71 58 76 34 75 40 20 56 72 48 73 44 4 70 5 39 61 2 27 -21 -57 -10 -3 -74 -16 -47 -60 -30 -46 -80 -53 -6 -52 -42 -41 -69 -45 -63 -64 -62 -37 -81 -51 -78 0
26 32 47 78 19 10 54 39 17 41 43 22 18 14 2 3 60 67 62 1 42 29 33 73 12 9 46 72 34 70 31 4 52 61 59 57 80 23 49 -74 -77 -21 -81 -40 -13 -11 -76 -65 -15 -69 -20 -68 -5 -36 -45 -48 -50 -51 -30 -75 -58 -28 -63 -53 -38 -55 -79 -6 -27 -64 -66 -35 0
71 80 1 78 2 5 3 37 73 16 67 77 49 55 25 36 8 52 76 45 54 56 4 74 47 -38 -39 -63 -28 -13 -18 -22 -65 -51 -42 -75 -44 -60 -64 -72 -31 0
36 11 63 52 62 80 44 42 77 54 -69 -48 -28 -38 -71 -41 -15 -59 -5 -49 -65 -23 -21 -73 -75 -13 0
47 65 1 10 40 50 78 31 54 34 77 25 2 6 59 35 74 42 3 52 21 5 80 24 37 76 46 75 11 30 61 45 15 -36 -9 -53 -4 -12 -20 -55 -33 -18 -8 -17 -38 -51 -19 -58 -79 -81 -71 -43 -22 -73 -60 0
61 73 64 50 68 57 76 1 39 23 81 5 40 25 9 16 47 18 -21 -13 -33 -75 -36 -11 -17 -62 -6 -52 -29 -46 -3 -77 -42 -69 -26 -44 -2 -20 -38 -45 -22 -60 -54 -67 -30 -8 0
80 16 50 19 23 24 39 21 55 8 77 71 25 12 65 10 30 76 54 32 20 47 42 46 29 40 63 28 38 72 48 17 59 44 57 22 2 5 -37 -53 -45 -61 -62 -34 -9 -52 -60 -70 -64 -33 -73 -36 -51 -11 -6 -49 -78 -27 -13 -66 -74 -3 -56 -15 -75 -14 -4 -35 0
23 80 44 29 76 38 35 66 20 8 48 14 26 31 71 32 22 75 62 45 12 61 46 18 28 43 15 42 34 17 51 55 30 -4 -64 -5 -53 -52 -39 -58 -27 -65 -6 -72 -2 -1 -57 -3 -63 -79 -33 -56 -74 -49 -50 -24 -25 -9 -37 -60 -13 -19 0
39 70 62 59 13 78 58 72 51 80 24 42 23 57 35 36 41 32 60 7 8 -2 -6 -34 -22 -79 -67 -27 -46 -65 -54 -64 -49 -81 -19 -40 -56 -69 -66 -30 -5 -48 -61 -50 -12 -77 0
66 78 21 45 59 14 30 60 27 35 81 75 31 41 13 52 -5 -29 -25 -37 -69 -53 -6 -56 -12 -24 -2 -65 -62 -58 -4 -23 -51 -1 0
72 74 7 50 23 13 80 65 12 42 9 32 1 8 37 26 53 76 4 3 15 63 31 11 34 51 24 18 79 2 64 36 28 60 67 33 68 71 20 52 41 46 62 39 25 -73 -16 -69 -6 -40 -27 -45 -5 -35 -21 -47 -22 -54 -48 -19 -81 -43 -30 -70 -17 -61 -78 -59 -49 -10 -57 -58 -14 -38 -44 -29 -55 -56 0
26 22 67 48 55 78 24 36 68 3 23 4 74 73 70 13 2 75 59 40 79 56 71 18 -9 -50 -15 -42 -62 -12 -19 -29 -37 -44 -16 -21 -32 -1 -10 -34 -54 -47 -5 -80 -60 -39 -30 -6 -17 -45 -41 -49 -38 -25 -8 -64 -33 -20 -27 0
44 6 36 72 22 81 13 7 60 12 30 18 78 73 59 35 17 47 5 57 32 24 26 20 16 63 40 23 27 68 19 50 51 31 71 3 55 43 74 -49 -42 -64 -11 -34 -70 -10 -66 -54 -39 -76 -14 -9 -79 -21 -80 -75 -56 -67 -33 -45 -1 -52 -28 -65 -8 -25 -41 -46 -58 -62 -69 -48 -61 0
18 -34 -17 0
75 40 13 10 20 42 -6 -63 -61 -67 -49 -47 -78 -11 -35 -9 -16 -59 -64 -80 -68 -5 -43 -71 0
43 44 20 39 33 13 63 23 3 67 66 26 61 47 38 60 45 5 10 46 37 64 76 62 19 75 50 12 7 55 2 56 69 1 54 53 80 81 25 16 34 -31 -11 -30 -48 -17 -49 -32 -70 -8 -28 -57 -9 -40 -79 -6 -72 -51 -15 -68 -41 -22 -27 -4 -74 -14 -24 -35 -29 -58 -65 -18 -78 -71 -59 -36 -73 -42 -21 0
71 14 33 49 58 -65 -72 -12 -20 -4 -24 -43 -54 -22 0
54 -59 0
24 33 50 23 28 54 46 13 30 57 47 44 64 19 77 60 38 39 6 14 73 76 11 -72 -62 -55 -20 -25 -5 -45 -9 -10 -42 -18 -65 -34 -2 -31 -26 -37 -29 -52 -78 -4 -68 -15 -3 -70 -81 -48 -63 -8 -66 -43 -35 -49 -74 -1 0
4 29 26 16 81 48 20 42 78 75 56 24 -63 -61 -6 -10 -2 -18 -30 0
25 18 36 66 69 22 29 32 6 81 8 59 78 43 13 14 67 41 54 45 11 17 4 53 80 52 30 42 64 26 71 68 -58 -75 -1 -77 -73 -62 -21 -31 -23 -7 -70 -27 -2 -57 -15 -44 -33 -9 -12 -47 -24 -48 -56 -37 -79 -46 -19 -39 -35 -38 0
47 29 8 72 66 80 43 -11 -41 -51 -2 -38 0
60 39 31 28 47 48 32 38 37 76 67 12 61 35 7 42 65 43 3 79 44 27 5 23 49 73 53 54 16 68 57 41 -80 -64 -74 -78 -75 -63 -66 -9 -11 -34 -70 -2 -25 -10 -8 -56 -69 -15 -29 -81 -51 -4 -59 -72 -77 -1 0
11 80 45 43 74 81 68 46 57 15 29 10 20 55 28 34 32 58 7 37 72 70 36 33 23 63 75 76 53 13 6 71 19 25 22 40 59 41 5 14 4 18 54 -51 -47 -52 -65 -12 -16 -60 -48 -56 -62 -38 -49 -64 -50 -17 -26 -78 -21 -66 -73 -30 -24 -31 -61 -39 -1 -42 -69 -67 -44 -79 -2 -77 0
38 50 76 77 28 13 53 71 72 21 40 57 78 30 26 1 60 42 52 29 23 44 22 69 2 73 32 49 7 6 8 56 65 12 59 37 80 75 54 47 -18 -25 -4 -68 -19 -43 -58 -9 -36 -61 -48 -11 -35 -41 -81 -33 -62 -51 -20 -10 -14 -34 -67 -70 -27 -79 -74 -15 -17 -16 -64 -45 -39 -31 -24 -46 0
78 28 43 55 32 81 31 79 27 39 47 24 14 66 74 8 40 21 56 52 58 61 59 29 22 15 18 75 5 44 3 25 77 26 60 1 -73 -38 -49 -65 -54 -51 -67 -17 -6 -9 -68 -57 -35 -13 -23 -36 -30 -19 -2 -70 -42 -34 0
21 9 -67 -61 0
16 72 46 60 23 68 69 12 54 18 20 34 62 22 80 9 64 66 26 5 -75 -67 -70 -44 -14 -1 -25 -42 -56 -58 -59 -49 -29 -55 -2 -39 -47 -63 -41 0
23 45 24 -55 -69 0
61 55 23 3 73 12 79 81 56 54 40 48 62 76 47 66 57 71 -21 -51 -30 -75 -1 -6 -19 -70 -13 -35 -77 -59 -26 -80 -2 -46 -43 -15 -63 -10 -38 -52 -42 -69 0
31 4 58 1 68 28 53 49 59 57 78 75 35 71 22 27 6 74 65 60 80 45 5 70 73 8 50 43 46 67 41 -44 -19 -63 -66 -64 -48 -18 -25 -34 -14 -47 -52 -77 -33 -39 -55 -7 -37 -26 -30 -17 -76 -61 -38 -15 -29 -32 -81 0
76 46 61 51 37 53 62 68 49 52 48 20 36 5 27 -45 -70 -50 -66 -25 -28 -54 -31 -1 -57 -17 -65 -72 0
27 36 62 74 70 8 78 9 23 25 21 17 48 68 69 54 39 32 42 58 6 76 12 47 43 72 52 10 37 61 81 30 3 1 75 55 19 79 49 77 67 11 -4 -26 -63 -71 -14 -65 -41 -29 -20 -46 -33 -18 -60 -5 -28 -16 -56 -50 -51 -31 -66 -44 -64 -59 -35 -13 -80 -73 -24 -2 -40 -45 -57 -22 -34 -38 -7 0
59 72 58 81 71 69 60 49 80 36 18 21 30 40 13 12 31 15 26 4 24 9 62 55 38 78 20 35 -19 -37 -74 -65 -39 -17 -45 -8 -63 -77 -2 -70 -51 -46 -22 -75 -25 -29 -57 -53 -23 -3 -76 -7 -16 0
23 42 70 53 75 57 64 62 43 51 49 55 36 24 29 61 10 74 45 6 -25 -21 -79 -3 -69 -35 -19 -32 -68 -17 -9 -15 -76 -80 -44 -18 -52 -38 -14 0
20 13 37 14 68 32 24 35 74 50 60 52 41 31 26 51 75 62 36 63 66 2 -71 -8 -38 -53 -29 -44 -1 -5 -54 -33 -64 -59 -17 -30 -65 -69 -22 -6 -3 -70 -18 -27 -45 -81 -72 -79 -9 -42 -56 -10 -4 0
47 43 56 5 33 50 36 12 9 15 81 6 73 21 -34 -27 -62 -79 -38 -30 -55 -58 -37 -29 -28 -64 -22 -61 -66 -72 -8 -76 -71 -51 -35 -7 -23 -25 -17 0
7 47 26 72 16 14 9 77 17 11 27 71 59 31 19 45 32 23 53 61 -2 -60 -21 -20 -37 -30 -65 -25 -58 -43 -22 -54 -15 -55 -80 -1 -44 -34 -8 -81 -41 -68 -74 0
72 56 36 10 26 37 5 9 64 50 29 4 80 73 34 16 59 25 -13 -42 -8 -11 -47 -49 -19 -55 -43 -68 -63 -62 -46 -21 -27 -54 -23 -35 -76 -57 -48 -51 -22 0
71 35 48 2 -29 -23 -4 -5 -38 -13 0
69 55 56 24 17 67 6 12 57 -76 -22 -61 -13 -77 -32 -15 -65 0
75 42 27 80 78 36 70 61 37 12 38 52 29 17 76 69 55 63 24 13 25 26 -74 -77 -51 -54 -16 -8 -11 -79 -20 -68 -49 -48 -47 -64 -5 -58 -32 -15 -67 -23 -71 -41 -66 -59 -62 -46 -40 -73 -2 -21 -19 -7 -44 -28 -56 -57 -53 0
14 16 77 32 24 7 62 1 71 -17 -21 -53 -66 -26 -70 -18 -75 -6 0
58 25 16 8 49 73 54 51 11 3 80 81 9 50 18 27 37 6 64 36 35 59 -23 -7 -38 -66 -63 -69 -12 -75 -70 -2 -46 -20 -39 -10 -62 -41 -74 -77 -43 0
31 35 77 42 64 14 75 33 69 17 22 54 66 61 44 79 32 -39 -20 -59 -13 -65 -25 -50 -46 -4 -37 -19 -70 -68 0
72 55 68 1 80 48 51 3 50 37 43 59 42 32 58 10 5 78 46 56 16 4 62 8 2 52 29 24 63 64 35 33 -66 -54 -23 -27 -9 -67 -57 -65 -47 -17 -14 -31 -81 -21 -60 -49 -76 -75 -40 -61 -7 -28 -11 -19 -13 -22 -69 0
8 -41 -2 -43 -19 -5 -34 0
51 1 10 68 16 70 29 27 23 32 44 -80 -74 -11 -63 -24 -5 -17 -39 -33 0
41 16 29 34 21 74 38 39 69 58 32 63 -73 -18 -5 -54 -68 -76 -22 -56 -60 -71 0
68 51 39 15 10 20 63 58 24 47 32 -55 -19 -28 -62 -79 -64 -60 -30 -41 -46 -66 -34 0
36 70 37 31 72 3 42 63 39 34 66 54 44 17 75 81 20 62 48 52 9 69 56 32 41 40 25 43 10 73 14 79 6 74 11 -21 -5 -59 -67 -27 -33 -61 -18 -68 -38 -30 -77 -2 -49 -8 -4 -78 -58 -55 -12 -71 -53 -46 -60 -15 -26 -23 -50 -65 -57 -19 -64 -7 -16 -45 -51 -76 -1 -28 -35 -13 0
37 9 24 72 -38 -81 0
77 81 48 2 40 37 55 70 41 10 79 67 52 12 45 1 7 -66 -4 -53 -35 -3 -33 -21 -18 -75 -24 -31 -50 -30 -64 0
15 52 75 64 24 68 25 2 3 79 46 44 74 70 41 49 17 56 19 21 37 31 8 35 58 69 42 -13 -18 -20 -11 -23 -73 -55 -60 -45 -77 -14 -9 -12 -5 -6 -63 -36 -4 -53 -33 -72 -67 -27 -40 -38 -47 -26 -80 -59 0
49 58 71 9 13 27 60 10 78 64 69 46 67 35 63 50 32 42 15 21 16 43 20 52 75 18 33 3 61 4 29 45 -44 -1 -2 -38 -79 -39 -76 -47 -22 -14 -24 -19 -30 -53 -62 -74 -80 -8 -36 -6 -68 -57 -7 -56 -23 -59 -41 -26 -51 -77 -81 0
8 26 33 10 40 32 80 55 29 47 -46 -12 -14 -34 -2 -42 -72 -7 0
74 33 8 53 39 15 55 50 46 11 80 17 25 12 48 69 71 4 44 79 65 34 18 43 47 45 16 -57 -41 -30 -58 -27 -24 -37 -6 -35 -49 -63 -28 -36 -66 -73 -22 -77 -52 -60 -51 -9 -67 -68 -81 -38 -10 -21 -54 -40 -75 -26 -1 -14 -42 -23 -5 -61 -2 -31 -64 -7 -3 -76 -20 -78 0
5 72 11 34 50 54 -58 -45 -15 -59 -14 -48 -19 -70 0
37 47 80 33 52 71 35 75 32 43 65 46 16 40 34 41 5 17 -60 -78 -79 -2 -22 -7 -57 -8 -69 -50 -10 -62 0
18 12 19 13 46 64 37 43 16 81 66 17 79 78 44 39 55 32 80 23 4 33 14 75 65 77 70 34 41 -60 -25 -50 -58 -73 -5 -15 -1 -61 -30 -69 -48 -74 -27 -47 -62 -21 -36 -6 0
8 80 26 75 48 15 79 33 -21 -62 -36 -60 -76 -74 -17 -78 -46 -77 -39 -50 0
77 47 75 24 5 46 1 80 21 62 44 17 -50 -2 -52 -29 -51 -35 -57 -68 -78 -8 -31 -41 0
13 5 35 42 1 4 23 9 41 73 37 25 2 57 29 69 47 65 71 43 11 12 50 16 6 62 26 59 77 64 49 30 45 46 -18 -39 -28 -38 -10 -33 -20 -24 -61 -80 -53 -19 -52 -15 -7 -54 -63 -34 -36 -44 -66 -3 -55 -14 -40 -60 -31 -81 -8 0
21 16 7 75 71 58 55 39 46 56 48 70 9 34 38 44 52 80 17 72 74 3 22 -29 -50 -59 -54 -78 -20 -66 -18 -27 -4 -41 -2 -60 -25 -57 -15 -76 -28 -8 -62 -63 -26 -13 -40 -24 -73 -10 0
64 25 10 13 14 58 23 33 69 36 12 44 32 38 24 40 26 77 49 42 8 11 51 -50 -3 -48 -71 -65 -72 -20 -81 -17 -60 -15 -19 -37 -7 -61 -1 -39 -67 -41 -73 -4 -63 -76 -62 -22 -68 -54 -2 -75 -66 -35 -27 -6 0
76 62 66 58 47 63 48 41 72 67 53 50 73 74 16 81 17 23 69 31 36 78 46 42 29 79 77 59 64 38 49 -27 -52 -2 -80 -37 -25 -39 -33 -18 -44 -43 -71 -24 -40 -12 -10 -11 -3 -54 -45 -55 -19 -56 -5 -65 -51 -75 -32 -34 -26 -68 -1 -15 -28 -35 -57 -7 -14 -4 -61 -20 -9 -22 -30 -60 0
63 12 61 9 27 33 58 60 53 44 19 78 24 29 -42 -7 -25 -10 -28 -2 -43 -68 -57 -45 -15 -52 0
75 12 29 81 52 79 37 67 21 18 73 65 14 64 61 16 10 2 53 1 56 57 -77 -71 -68 -3 -4 -48 -24 -44 -26 -20 -78 -7 -9 -31 -27 -28 -42 -80 -70 -40 0
73 27 10 15 35 68 31 32 39 55 48 6 71 -41 -59 -45 -4 -37 -51 -9 -56 -52 -63 -53 -24 0
74 18 77 1 44 10 3 40 54 11 47 16 35 50 67 -9 -41 -23 -58 -24 -61 -63 -59 -48 -45 -5 -64 -17 -34 -46 -6 -75 -55 -51 -2 -26 -73 -20 -32 -37 -76 -31 0
40 46 67 59 80 62 41 3 66 79 69 38 32 4 43 11 65 73 75 20 51 56 1 53 72 8 81 52 57 28 35 -19 -63 -18 -6 -54 -23 -76 -47 -29 -74 -5 -64 -31 -70 -16 -14 -12 -58 -60 -55 -10 -27 -77 -13 -36 -49 -22 -39 -9 0
32 58 41 42 38 13 36 39 5 60 24 -68 -64 -62 -23 -43 -11 -80 -21 -33 0
37 9 34 79 19 62 75 61 70 17 44 45 27 10 47 54 41 66 63 76 25 64 49 51 67 57 73 39 31 -53 -74 -35 -58 -7 -8 -1 -20 -77 -33 -13 -2 -56 -32 -21 -80 -15 -30 -78 -42 -71 -5 -43 -55 -65 -14 -23 -3 0
71 32 1 3 67 80 2 23 78 36 45 57 30 79 76 17 8 50 -69 -14 -16 -41 -49 -6 -43 -12 -40 -22 -33 -42 -29 -15 -53 -70 -58 0
26 25 55 76 16 62 15 71 9 53 1 31 34 -32 -41 -57 -33 -54 -80 -65 -17 -8 -19 -35 -12 -14 -39 -59 0
13 64 60 24 75 68 69 52 -18 -79 -46 -9 -43 -41 -39 -2 -50 -28 -6 0
20 78 44 75 26 25 40 37 59 18 64 22 45 48 61 74 16 43 7 69 39 12 66 6 55 2 62 31 29 52 32 49 41 60 21 1 63 71 11 50 70 17 -42 -33 -81 -4 -15 -24 -3 -8 -27 -34 -65 -10 -54 -13 -46 -19 -30 -76 -77 -56 -51 -58 -57 -53 -28 -36 -23 -80 -5 -14 -79 -67 -73 -68 -38 -9 0
35 68 79 48 13 23 37 -29 -50 -67 -4 -49 -12 -57 -33 -28 -27 -21 -62 -25 -32 0
33 74 29 72 50 66 3 6 78 12 14 20 21 37 16 4 34 46 36 80 24 30 61 15 9 -71 -32 -59 -77 -10 -23 -65 -19 -47 -45 -56 -28 -62 -22 -2 -60 -49 -69 -13 -43 -52 -54 -68 -38 0
32 36 20 74 29 40 23 70 39 37 54 17 69 81 35 76 10 73 56 67 51 72 68 43 6 46 -78 -75 -13 -9 -2 -48 -31 -50 -62 -19 -59 -77 -65 -63 -44 -22 -7 -18 -16 -58 -80 -79 -1 -42 -60 -11 -12 -8 -49 -64 -55 -47 -53 -14 -27 -66 -61 -71 -57 -4 0
17 12 66 7 4 73 -18 -79 -20 -42 -48 -13 -19 0
62 30 26 42 55 37 23 24 64 35 15 45 48 -71 -41 -56 -68 -53 -58 -29 -38 -63 0
20 47 54 34 69 33 32 18 43 50 31 76 80 58 26 35 41 56 63 -13 -75 -10 -21 -14 -16 -5 -1 -46 -27 -44 -71 -51 -17 -67 -25 -78 -60 -64 -48 -40 -11 -29 -57 -3 -62 -4 -79 0
26 53 79 6 35 43 48 60 19 61 78 67 -57 -58 -54 -9 -30 -18 -75 -46 -5 -51 -80 -32 -12 0
2 3 12 23 48 1 65 70 52 42 47 55 6 32 49 29 69 60 5 7 19 9 17 40 73 61 21 41 8 33 4 -31 -59 -46 -68 -74 -27 -35 -20 -28 -77 -63 -56 -79 -13 -37 -80 -18 -51 -72 -66 -15 -64 -67 -14 -57 -44 0
65 39 12 40 72 26 37 32 53 25 48 3 74 14 51 15 50 36 60 63 58 68 22 18 78 35 28 64 70 57 11 24 10 5 81 1 7 73 75 59 -6 -4 -47 -44 -21 -67 -49 -13 -45 -42 -34 -29 -54 -69 -52 -2 -71 -16 -30 -20 -80 -41 -31 -43 0
33 62 70 45 8 25 4 69 56 20 74 61 34 7 73 32 44 -42 -64 -22 -48 -14 -6 -5 -37 -15 -60 -49 -54 -12 -16 -31 -1 -35 0
75 25 6 -34 -27 -76 -39 -32 -3 0
66 62 72 18 75 24 20 1 76 59 60 61 40 74 63 57 51 17 80 32 29 23 3 13 78 68 64 25 12 49 31 -69 -46 -50 -36 -6 -15 -44 -2 -81 -34 -4 -67 -28 -43 -73 -41 -56 0
42 38 35 58 75 68 10 16 64 22 30 61 -11 -44 -18 -52 -78 -24 -70 -14 -29 -13 -62 0
39 40 21 -41 -29 -43 0
3 27 20 79 8 16 67 -24 -5 -6 -40 -9 -54 -15 -65 0
81 35 55 17 11 76 49 -15 -70 -78 -75 -52 -16 0
35 46 14 -55 -16 -20 -64 -51 -62 0
34 12 77 62 19 50 72 70 41 8 7 75 16 -25 -61 -58 -24 -56 -63 -46 -49 -6 -55 0
16 50 1 23 11 45 44 43 21 64 67 42 27 66 80 33 29 58 62 60 31 52 2 59 74 26 63 15 -55 -37 -22 -61 -69 -28 -48 -18 -36 -73 -6 -65 -5 -30 -10 -46 -35 -47 -40 -8 -49 -53 -14 0
79 37 62 15 78 77 44 74 29 50 68 64 33 31 22 40 45 23 61 54 -3 -14 -56 -65 -47 -1 -27 -21 -57 -28 -75 -49 -9 -70 -58 -41 -32 -43 -25 -42 -20 -17 -39 -7 -80 -2 -19 -67 -10 -59 -71 -8 -48 0
38 64 4 58 77 19 40 5 48 30 63 51 73 8 67 57 72 28 66 24 42 43 76 21 25 18 3 22 16 50 -27 -60 -14 -74 -32 -68 -6 -2 -20 -7 -37 -17 -34 -54 -36 -10 -44 -41 -11 -29 -26 -33 -80 -62 -81 -52 -71 -47 -31 -59 -56 -69 -75 -15 -79 0
72 12 -49 -41 -33 0
56 60 2 75 73 79 31 65 53 10 80 21 34 6 37 -51 -71 -67 -33 -27 -22 -35 -76 -40 -17 -19 -24 -39 -48 -70 -1 -44 -46 -57 -64 -52 0
67 79 8 77 51 59 7 24 71 55 47 70 1 15 10 62 14 57 30 22 2 78 60 4 18 20 17 68 43 -54 -16 -81 -13 -9 -38 -69 -58 -32 -37 -61 -49 -23 -34 -50 -21 -46 -72 -64 -52 -27 -44 -80 -31 0
46 80 75 16 79 17 40 3 44 -55 -68 -38 -48 -60 -54 -51 0
19 22 10 3 16 49 43 77 47 31 61 21 71 48 42 6 80 56 46 37 23 -18 -5 -9 -63 -72 -30 -60 -29 -39 -26 -81 -70 -32 -55 -73 -52 -53 -17 -76 -24 -74 0
73 62 69 75 60 46 -22 -37 0
57 6 79 3 37 55 21 33 42 51 66 35 32 25 77 69 -75 -19 -44 -30 -70 -48 -31 -2 -46 -26 -78 0
49 54 8 74 48 18 53 59 40 36 17 5 75 70 60 12 23 69 -45 -9 -77 -44 -32 -31 -11 -63 -42 -73 -7 -6 -2 -47 -21 -16 -64 -25 -14 0
66 37 69 22 42 31 4 73 25 12 78 29 24 40 49 52 16 15 8 9 20 46 21 48 81 47 71 64 18 62 39 56 57 60 50 10 2 45 34 11 -72 -77 -63 -32 -1 -33 -13 -19 -59 -36 -61 -14 -38 -55 -70 -74 -75 -51 -30 -35 -23 -43 -27 -79 -76 -7 -65 -80 0
40 44 62 81 22 46 1 49 43 77 66 7 69 68 -34 -58 -26 -54 -72 -33 -73 -48 -55 -31 -24 -32 -57 -41 -39 -63 -59 -10 -47 -38 -20 -45 -23 -79 0
12 32 13 51 64 31 28 67 22 21 42 77 48 45 -20 -16 -49 -68 -15 -55 -72 -71 -11 -76 -59 -78 -39 -36 0
29 79 72 22 17 63 1 43 58 65 47 14 -35 -64 -50 -30 -28 -39 -24 -5 0
24 36 23 28 76 8 13 10 49 27 46 73 67 44 14 37 -50 -75 -35 -31 -47 -60 -25 -4 0
4 80 39 68 62 29 45 6 43 37 73 77 63 -11 -65 -67 -54 -69 -40 -20 -10 -44 -33 -78 -34 0
64 32 73 8 44 29 59 57 14 52 53 24 62 41 55 66 54 75 6 33 42 1 10 26 48 68 27 30 16 23 4 81 77 18 65 67 74 47 -17 -69 -34 -78 -79 -28 -58 -3 -45 -9 -20 -36 -39 -43 -5 -60 -51 -70 -46 -21 -37 -50 -11 -19 -2 -31 -22 -13 -35 -49 -61 -40 -72 -12 -38 -76 -71 -15 -80 -56 0
8 56 63 78 5 43 46 72 52 32 27 45 2 37 25 67 73 14 75 30 41 66 76 16 11 34 38 69 50 3 62 47 -10 -51 -80 -31 -6 -64 -53 -20 -1 -4 -54 -19 -77 -68 -26 -15 -40 -9 -42 -29 -39 -79 -23 -44 -28 -58 -21 -12 -49 -74 -81 -24 -7 -70 -36 -65 -22 -60 -35 -18 -57 -59 -61 0
4 17 9 5 20 76 19 39 63 78 26 45 24 38 35 13 10 1 27 62 59 32 56 67 41 -42 -57 -77 -69 -30 -44 -36 -46 -70 0
8 66 16 6 31 57 33 44 37 59 52 70 27 21 24 55 69 14 17 54 49 5 26 72 -2 -39 -58 -11 -81 -35 -20 -63 -22 -1 -34 -43 -71 -42 -73 -23 -41 0
12 13 65 8 45 5 78 29 20 80 6 57 50 48 -4 -79 -61 -15 -21 -44 -19 -35 -73 -16 0
33 44 52 80 56 18 2 68 13 5 38 35 21 36 37 48 43 53 25 49 29 60 75 57 73 31 8 65 26 1 -12 -72 -19 -58 -79 -67 -81 -59 -78 -69 -15 -74 -22 -7 -4 -62 -51 -45 -3 -63 -70 0
43 70 9 4 15 78 64 79 34 60 47 25 73 36 61 10 45 7 51 23 75 14 42 54 58 40 53 18 26 3 41 77 62 19 74 31 48 46 65 69 63 27 67 21 68 49 -29 -20 -32 -35 -28 -2 -71 -76 -1 -22 -12 -30 -57 -11 -5 -6 -24 -16 -56 -13 -80 -38 -81 -66 -59 0
54 9 4 72 29 43 6 55 78 24 42 81 40 18 80 7 37 61 -63 -75 -31 -49 -15 -8 -19 -59 -35 -41 -22 -30 -1 -34 -58 -67 -53 -62 -74 -5 -13 -23 -39 -33 -45 -51 -25 -77 -21 0
60 79 65 18 6 38 8 77 40 52 4 33 76 54 11 61 36 14 59 3 13 17 71 44 39 50 58 43 23 51 28 41 35 62 32 31 22 -20 -21 -72 -12 -48 -57 -24 -53 -1 -63 -37 -47 -16 -55 -46 -29 -42 -75 -56 -26 -68 -5 -27 -7 -30 -9 -45 -34 -64 -80 -25 -73 -70 -19 -81 -49 0
26 62 35 24 64 34 1 15 11 59 33 60 5 61 18 72 19 47 31 45 20 42 57 2 44 78 13 29 12 55 14 38 52 17 50 28 -7 -40 -3 -80 -21 -48 -56 -25 -76 -77 -16 -46 -22 -81 -6 -41 -8 -73 -65 -58 -10 -32 -23 -51 -27 -74 -54 -37 -53 -49 -68 -71 -4 -66 0
49 21 65 18 64 47 12 19 68 54 2 44 59 9 70 15 26 42 40 55 77 17 -32 -60 -38 -80 -28 -13 -24 -27 -74 -31 -33 -46 -75 -4 -23 -1 -14 -58 -66 -7 -72 -29 -34 -71 -11 -78 0
48 40 14 -63 -35 -38 0
46 47 30 6 16 5 37 72 75 54 21 23 74 66 2 73 40 65 39 34 24 18 8 81 50 36 14 -28 -68 -79 -1 -55 -38 -77 -59 -15 -57 -71 -41 -26 -20 -29 -63 -19 -17 -7 -13 -43 -56 -69 -80 -49 -52 -76 -62 -22 -53 -70 0
19 2 -15 -10 -61 0
62 23 16 32 36 46 79 66 10 55 45 64 41 14 34 -21 -19 -28 -61 -20 -76 -78 -69 -48 -39 -67 -13 -47 -72 -5 -25 -53 -9 -52 -74 -49 -73 -18 -11 -3 -57 -65 -59 -60 -58 -56 -63 -24 -77 -68 -8 -80 0
43 41 18 66 54 70 65 21 34 17 16 39 52 5 47 51 -26 -46 -42 -20 -28 -11 -25 -55 -81 -7 -60 -67 -10 -58 -77 0
76 24 66 34 51 67 8 65 48 38 72 68 22 4 23 11 61 15 19 41 7 39 12 47 78 53 49 74 62 26 69 43 30 -70 -50 -81 -21 -37 -71 -44 -3 -75 -45 -54 -36 -52 -17 -18 -73 -16 -64 -59 -27 -9 -5 -56 -29 -63 -35 -20 -28 -42 -2 -14 -32 -13 -25 -57 -33 -31 -58 -1 -10 -79 -77 -6 -46 -60 0
81 76 12 63 55 68 69 7 43 30 31 28 10 -51 -18 -42 -40 -9 -78 -41 -29 -6 -45 0
6 63 52 60 34 76 10 72 32 70 45 4 74 11 71 65 28 69 27 59 18 -50 -79 -17 -48 -21 -61 -55 -67 -36 -20 -78 -49 -64 -22 -51 -16 -73 0
54 21 2 6 49 41 62 60 63 28 22 78 46 48 66 76 -64 -70 -81 -74 -23 -24 -52 -42 -11 -3 -50 -9 -13 -58 -19 -40 -57 -20 -12 -30 -26 -10 -61 -16 -72 -35 -47 0
27 45 4 75 30 -46 -58 -70 -65 -81 -74 -40 -15 -3 -39 0
77 38 69 21 39 81 22 18 45 14 28 71 -31 -80 -60 -72 -19 -74 -11 -4 -13 -3 -79 -51 -41 -44 -78 0
51 76 10 4 12 43 45 63 14 18 73 75 68 60 40 70 42 7 39 72 37 52 38 31 58 26 55 54 80 25 57 28 62 61 22 -19 -3 -69 -21 -44 -9 -30 -24 -34 -48 -56 -29 -13 -50 -32 -47 -65 -20 -15 -16 -77 -11 -79 -36 -23 0
1 29 38 76 33 13 39 40 60 41 3 54 47 14 77 58 69 15 11 42 44 46 70 20 49 43 12 78 9 -57 -26 -37 -21 -61 -22 -28 -68 -65 -67 -10 -23 -75 -17 -53 -25 -32 -8 -73 -55 0
52 4 76 40 58 79 25 19 34 -64 -23 -16 -28 -14 0
19 4 61 22 18 15 52 11 25 69 30 71 3 13 23 29 21 58 17 6 7 42 67 65 32 28 41 36 50 31 10 74 57 12 20 62 -48 -59 -76 -63 -77 -75 -33 -72 -38 -51 -37 -5 -79 -80 -24 -70 -45 -35 -40 -56 -43 -66 -1 -53 -64 -54 -78 -27 -8 -2 -60 -34 -46 -55 -73 -68 -26 -49 -39 -44 0
3 43 55 29 64 53 9 46 74 27 25 70 68 49 32 10 67 59 8 2 38 66 63 24 19 56 23 6 72 26 35 51 17 41 15 78 60 30 47 1 58 11 61 31 37 -50 -4 -34 -18 -40 -54 -73 -65 -33 -75 -21 -77 -80 -14 -48 -12 -79 -57 -20 -45 -5 -39 -7 -16 -69 -13 -28 -76 -81 -22 -36 -44 -42 0
38 26 53 67 47 69 36 77 -23 -46 -68 -70 -28 -65 -14 -13 -21 0
61 49 19 60 18 80 73 14 20 27 4 59 12 66 11 75 45 81 25 3 56 57 79 54 35 77 7 26 32 51 38 9 34 41 -30 -70 -72 -40 -52 -13 -2 -24 -29 -42 -22 -36 -48 -28 -68 -43 -58 -37 -69 -15 -71 -33 -65 -67 0
52 47 -3 -24 -23 0
3 68 55 11 30 64 81 27 66 26 70 23 80 65 10 62 72 29 40 2 4 18 16 39 67 74 47 77 34 79 43 25 19 50 42 41 56 14 76 21 12 53 -28 -51 -24 -17 -9 -45 -35 -36 -63 -46 -13 -60 -49 -75 -57 -59 -38 -61 -20 -5 -44 -32 -31 -78 -69 -58 -54 -73 -37 -48 0
59 25 2 73 75 18 78 27 39 46 69 34 37 71 58 74 48 8 7 20 36 -6 -49 -3 -38 -45 -12 -61 -11 -80 -77 -32 -62 -17 -68 -44 -29 -14 -41 -64 -55 -57 -23 -19 -72 -53 -15 -65 -24 -56 0
78 79 51 19 69 56 20 25 47 39 62 80 58 -22 -44 -61 -27 -68 -13 -33 -73 -59 -17 -24 -57 -46 -67 -40 -76 0
64 12 75 36 74 5 70 27 73 -77 -65 -34 -43 -47 -11 -18 -44 -71 -13 -57 -62 -37 -66 -8 -17 0
7 77 2 13 46 15 30 59 14 17 4 33 40 75 47 10 21 8 55 28 64 35 27 58 18 48 29 54 61 51 45 -74 -44 -5 -43 -70 -19 -76 -72 -49 -60 -12 -11 -68 -39 -34 -69 -50 -42 -1 -38 -63 -24 -41 -57 -26 -36 -56 -32 -20 -78 0
12 24 22 47 5 2 16 68 15 64 14 81 50 65 72 41 73 6 80 52 1 9 62 30 39 33 63 27 20 19 25 57 32 59 17 -76 -31 -18 -34 -46 -36 -13 -74 -78 -4 -69 -67 -29 -49 -79 -55 -60 -38 -7 -70 -26 -66 -71 -23 -77 -11 -54 -35 -8 0
29 16 3 18 36 5 66 48 63 73 31 30 27 81 53 2 37 47 44 51 38 19 13 4 56 67 72 -23 -62 -25 -40 -45 -78 -39 -59 -8 -54 -12 -7 -61 -70 -24 -34 -21 -76 -68 -43 -58 -11 -22 -60 -79 -9 -1 -57 -26 -74 -6 -41 -77 -20 -46 -33 -14 -75 -10 -28 -17 -32 -64 -52 -65 -71 -35 0
11 17 53 73 12 7 6 43 74 56 33 64 65 78 40 23 61 -62 -57 -1 -45 -76 -66 -59 -79 -47 -32 -8 -54 -5 -38 -80 -58 -24 -26 -69 -42 -19 -35 -4 0
37 61 49 14 64 11 57 8 -77 -40 -15 -12 -65 -25 -5 0
29 60 63 77 66 38 28 42 78 15 8 73 3 55 48 58 35 27 76 1 7 45 32 33 53 71 44 10 20 19 21 41 36 18 2 5 47 69 -12 -56 -23 -81 -67 -11 -59 -72 -70 -13 -49 -68 -30 -43 -50 -9 -62 -16 -4 -25 -39 -31 -75 -22 -14 -79 -51 -54 -34 -24 -74 -80 0
7 42 47 15 49 60 33 37 45 3 70 65 25 28 17 35 71 13 22 30 69 57 29 81 50 -14 -19 -75 -6 -63 -39 -41 -18 -77 -78 -8 -58 -2 -64 -4 -9 -40 0
27 63 60 17 54 52 -49 -41 -40 -23 -18 -13 -15 0
18 9 40 8 79 63 26 48 11 2 6 41 52 34 -58 -39 -4 -12 -49 -61 -37 -68 -56 -3 -32 0
54 79 63 13 11 7 50 74 35 20 49 75 27 22 6 -76 -2 -53 -70 -45 -33 -37 -41 0
39 66 20 7 70 63 61 53 13 17 69 49 62 2 57 28 -5 -10 -56 -16 -38 -31 -50 -76 -35 -75 -22 -46 0
74 24 5 20 13 4 42 62 79 21 58 72 50 -60 -71 -53 -9 -17 -11 -65 -56 -54 -45 -51 -64 -30 -3 -55 -52 -15 -31 -73 -34 -44 -29 -40 -66 -22 0
16 37 41 55 49 34 9 39 -68 -6 -48 -80 -47 -62 -42 -36 -1 -74 -77 -79 -72 -12 -57 0
33 19 49 67 74 2 81 12 65 68 41 61 29 26 64 47 -21 -42 -40 -54 -5 -43 -23 -11 -70 -56 -79 -76 -55 -66 -28 -38 -63 0
70 20 12 -79 -5 -75 0
14 44 10 34 75 37 33 20 79 55 25 65 76 61 35 15 17 -30 -50 -78 -72 -51 -32 -46 -36 -71 -73 -77 0
42 79 45 63 28 43 3 26 22 60 75 46 74 11 -56 -58 -1 -5 -19 -13 -10 -8 -67 -6 -69 -41 -66 -29 -4 -27 -72 -49 -33 -20 -39 -68 -65 0
73 17 13 65 77 64 55 71 49 74 10 3 48 41 4 76 58 25 30 50 63 47 28 46 34 9 -12 -66 -15 -78 -5 -37 -11 -35 -40 -68 -79 -14 -19 -26 -57 -56 -42 -33 -43 -21 -72 -45 -70 -23 -29 -38 -6 -53 -62 0
20 68 33 62 47 8 72 64 13 3 37 15 40 34 55 16 78 -44 -1 -6 -41 -75 -80 -17 -28 -60 0
76 59 28 72 11 69 33 8 32 7 -38 -77 -54 -41 -3 -53 -60 -2 -48 -70 -78 -47 -27 -14 -29 -25 0
50 40 79 59 55 73 21 9 -3 -53 -33 -54 -57 -71 -28 -25 -32 -62 0
36 61 29 64 2 -57 -58 -8 -45 0
7 38 26 45 73 11 75 15 13 44 22 61 53 31 43 10 25 5 50 -54 -60 -19 -21 -72 -4 -51 -6 -33 -80 -35 -66 -77 -56 -78 -37 -63 -14 -8 -57 -18 0
41 81 52 12 37 59 55 1 4 64 23 11 56 61 -20 -32 -38 -39 -29 -54 -75 -79 -36 -14 -34 -44 0
75 52 51 48 11 76 25 2 17 56 24 13 62 20 43 28 30 6 40 66 65 78 67 49 53 -16 -35 -58 -54 -9 -77 -1 -72 -15 -61 -22 -32 -27 -29 -8 -79 -71 -10 -37 -46 -73 -60 -63 -12 -59 -31 -34 -23 -74 -4 -14 -70 0
69 66 29 12 19 70 81 14 5 54 76 24 33 62 30 73 72 46 42 74 9 64 36 23 37 25 45 51 6 44 55 67 -41 -7 -15 -16 -58 -47 -17 -13 -27 -59 -61 -75 -32 -4 -8 -53 -26 -68 -52 -78 -49 0
74 37 28 54 1 69 50 40 -45 -30 -81 -59 -57 -44 -80 -11 -18 -3 -49 -27 0
67 36 4 62 -58 -26 -43 -50 0
66 29 15 71 69 61 60 22 75 80 31 16 62 65 37 81 -46 -38 -21 -34 -56 0
54 21 26 17 42 3 62 13 61 73 18 80 10 31 75 2 41 24 12 72 5 78 9 76 1 67 33 65 59 35 28 69 48 70 23 52 43 30 -60 -19 -64 -51 -29 -55 -27 -25 -36 -4 -46 -74 -71 -11 -7 -8 -68 -14 -79 -38 -58 -66 0
80 52 63 68 11 9 38 13 35 21 51 37 71 6 47 3 5 43 31 34 22 -39 -23 -66 -48 -33 -12 -46 -81 -17 -25 -54 0
33 49 40 63 74 76 70 22 50 15 38 81 23 58 30 10 43 39 1 68 36 13 -12 -41 -4 -11 -55 -37 -24 -80 -56 -60 -78 -44 -69 -52 -54 -53 -62 -46 -42 -26 -5 -57 -21 -18 -31 -3 -71 -47 -6 -72 -29 -61 -51 -19 -14 0
40 45 58 13 16 53 68 37 23 21 -43 -66 -6 -7 -56 -32 -67 0
78 39 3 59 71 9 53 -13 -7 -46 0
-34 0
78 11 55 66 81 38 36 61 73 43 42 63 17 8 69 68 21 49 74 70 -56 -58 -79 -62 -19 -15 -54 -2 -64 -53 -35 -76 -60 -34 -12 -3 -75 -80 0
29 50 71 68 55 22 8 15 75 74 45 28 16 73 81 4 80 31 -49 -66 -53 -37 -36 -6 -25 -39 -51 -78 -43 -72 -62 -12 -35 -38 -76 -52 -60 -41 -58 -3 -44 -33 0
3 45 47 75 29 81 -24 -49 -19 -23 0
57 45 25 44 14 43 50 20 62 8 77 11 21 6 68 35 58 22 76 47 54 28 4 48 10 13 52 74 23 18 29 73 27 -12 -79 -19 -37 -70 -2 -65 -67 -31 -5 -63 -60 -1 -59 -81 -64 -32 -26 -69 -33 -39 -49 -16 -53 -38 -3 -42 -51 -55 -7 -78 -34 -41 -71 -80 -75 -40 -15 -56 -46 -24 -66 0
15 31 71 80 75 48 49 61 63 47 44 81 27 56 39 60 35 13 59 66 43 14 25 69 72 34 17 26 8 19 64 32 58 57 23 55 -62 -70 -76 -53 -45 -1 -52 -12 -9 -68 -20 -2 -78 -37 -67 -77 -28 -21 -42 -5 -11 -30 -16 -54 0
74 41 29 47 51 80 43 18 30 56 32 55 45 73 15 16 -60 -69 -19 -44 -63 -14 -78 -59 -76 -68 -46 -38 -65 -3 -72 0
39 72 73 6 48 14 50 4 68 55 20 69 43 8 38 49 54 45 52 36 5 75 2 11 42 37 25 16 77 -56 -46 -80 -32 -65 -76 -60 -70 -59 -62 -10 -51 -34 -15 -67 -58 -26 0
51 36 61 9 27 54 32 12 10 80 -67 -56 -33 -71 -49 -59 -57 -24 0
22 75 38 3 12 9 23 50 7 6 55 54 -39 -8 -21 -1 -57 -31 -71 -45 -49 -20 -17 0
21 -51 0
55 37 35 28 16 17 20 61 63 76 64 21 5 62 33 45 77 9 53 54 78 81 4 12 71 43 1 36 44 47 18 69 25 -41 -34 -42 -65 -15 -6 -67 -31 -46 -27 -7 -50 -14 -19 -11 -59 -3 -40 -51 -66 -74 -60 -24 -13 -39 -79 -48 -26 -22 -58 -8 -75 -32 -57 -80 -29 -2 0
18 15 76 36 75 -63 -20 -1 -23 -56 0
36 50 21 5 68 11 63 52 57 66 33 12 46 9 72 16 22 34 20 27 77 43 74 25 24 75 10 -3 -44 -81 -49 -58 -48 -80 -14 -78 -41 -31 -28 -76 -42 -59 -2 -19 -39 -55 -8 -51 -30 -67 -29 -73 -71 -37 -15 -17 -26 -45 -60 -13 -53 -61 -38 -7 -47 -62 -64 -69 -23 -35 -6 0
16 77 25 72 59 44 3 40 73 13 29 67 39 11 47 52 9 42 62 10 8 21 78 79 66 -38 -15 -18 -53 -2 -5 -68 -46 -50 -23 -55 -63 -26 -80 -35 -20 -43 -65 -19 -7 -37 -61 -24 -31 -64 -14 -48 -30 -76 0
23 25 76 42 73 2 68 67 33 80 27 17 -20 -74 -48 -18 -77 -15 -63 -7 -28 -71 -47 -37 -51 -14 -69 -39 0
41 52 7 2 26 1 18 6 45 66 53 54 77 4 27 62 33 30 13 42 21 29 69 -11 -44 -15 -34 -63 -74 -73 -46 -79 -65 -38 -22 -5 -25 -55 -40 -50 -57 -61 -36 -68 -9 -48 -24 -47 -70 -37 0
25 77 23 75 53 73 -34 -11 -58 -79 -27 -19 -18 -50 -78 -69 -41 -51 -57 -49 -61 -55 0
49 60 41 32 44 52 40 56 33 63 11 25 20 26 55 5 31 64 2 78 9 19 7 -54 -16 -38 -1 -43 -15 0
15 67 27 38 9 60 10 29 63 1 37 39 21 53 81 31 3 52 18 72 70 11 -19 -73 -74 -14 -24 -28 -30 -41 -22 -77 -7 -56 -65 -71 -59 -23 -40 -49 -64 -36 -2 -51 -34 -26 -16 0
73 80 23 47 51 65 66 13 71 81 52 49 55 43 32 2 59 48 15 57 5 72 14 77 68 41 -12 -16 -25 -3 -70 -33 -7 -75 -46 -17 -31 -36 -35 -24 -38 -11 -74 -1 -19 -53 -64 -76 -18 0
81 3 31 77 42 17 50 41 70 23 65 11 22 5 46 75 -26 -63 -39 -37 -13 -6 -69 -20 -48 -19 -47 -25 -57 -43 -68 -35 -71 -53 0
13 58 -22 -65 -39 0
40 31 57 78 48 32 45 6 74 59 34 47 69 49 75 65 29 77 20 46 17 4 7 3 2 35 42 25 76 66 -44 -72 -8 -60 -38 -41 -63 -13 -70 -68 -33 -67 -51 -64 -26 -58 -19 -15 -23 -50 -81 -1 -53 -28 -56 -27 -54 -37 0
38 34 80 36 28 45 43 26 60 2 66 7 37 74 -50 -11 -23 -75 -51 -24 -6 -61 -44 -22 -64 -47 -39 -8 -16 -21 -57 -17 -59 -15 -12 0
75 55 53 49 36 79 18 67 37 48 42 40 51 25 7 11 14 54 64 68 -58 -57 -60 -80 -21 -45 -1 -47 -34 -8 -30 -59 -61 -5 -63 -31 -4 -69 -33 -6 -22 -39 -38 -28 -76 -9 -3 -24 -77 -56 -62 -23 -73 -35 -72 0
30 54 50 33 12 36 75 38 34 51 10 61 40 70 72 60 22 71 65 17 80 64 6 27 -63 -16 -67 -78 -52 -55 -23 -57 -58 -41 -3 -73 -81 -25 -59 -39 -32 -8 -24 -9 -2 -79 -13 -76 -49 -5 -15 -69 -11 -35 -29 -18 0
2 26 61 43 40 71 23 59 22 32 46 67 -17 -11 -39 -31 -78 -63 -21 -52 -45 -34 -9 -50 0
41 77 22 15 26 61 65 12 76 68 53 42 33 13 78 -52 -23 -7 -27 -58 -51 -5 -32 -43 -70 -62 -74 0
7 17 42 52 15 64 81 2 38 62 37 44 16 80 18 58 65 43 47 50 34 71 49 -48 -28 -35 -36 -39 -20 -67 -31 -25 -70 -27 -75 -41 -8 -73 -19 -69 -6 -55 -54 0
25 62 63 50 57 58 79 34 11 -16 -47 -10 0
37 41 14 65 81 38 62 33 23 60 28 39 54 42 19 47 44 8 50 76 17 31 72 58 13 34 21 49 67 2 52 6 77 57 79 7 25 68 43 35 15 78 32 -30 -56 -11 -4 -5 -64 -73 -40 -71 -48 -18 -80 -46 -75 -45 -27 -24 -20 -16 -63 -1 -12 -29 -22 -69 -9 -3 -55 -66 -26 -53 -70 -10 -61 -59 0
1 30 72 -71 0
75 42 65 5 6 50 51 38 26 13 56 34 40 45 74 36 70 16 68 2 22 32 20 80 -17 -29 -33 -77 -35 -47 -1 -18 -73 -67 -72 -9 -76 -78 -31 -71 -69 -39 -57 -3 -55 -11 -19 -14 -64 -7 -48 0
74 50 57 15 60 66 62 80 10 58 40 35 4 46 18 61 70 78 16 27 42 79 26 76 68 45 -41 -51 -14 -17 -63 -34 -24 -28 -65 -13 -3 -72 -5 -67 -23 -25 -30 -81 -19 -22 -52 -31 -36 -48 0
46 44 57 75 6 42 25 23 64 4 2 24 9 41 66 11 36 52 51 8 68 63 55 35 18 67 32 17 37 -58 -19 -31 -80 -65 -7 -40 -30 -12 -81 -1 -16 -72 -26 -20 -71 -48 -13 -38 -47 -45 -56 -21 -27 -70 0
35 65 72 36 20 42 77 68 11 49 53 -15 -76 -39 -27 -74 -3 -2 -10 -62 0
73 45 52 75 37 6 31 3 42 13 15 23 78 74 -40 -64 -76 -70 -50 -72 -5 -49 -33 -28 -55 -79 -68 -1 -81 -29 -18 -39 -59 -41 -26 -19 0
45 81 67 75 30 69 66 -47 -42 -25 0
15 43 21 -54 -56 -57 -59 -49 -76 -46 0
24 73 -70 -2 -10 0
69 50 31 36 23 38 12 37 -71 -30 -17 -64 -79 -55 -74 -16 0
45 33 47 15 68 52 51 78 -14 -22 -20 -73 -62 -80 0
46 78 63 48 45 7 80 77 70 71 81 19 3 15 59 26 68 51 23 41 54 47 64 53 32 56 38 76 50 24 74 72 20 2 17 57 34 75 -39 -52 -31 -5 -79 -69 -35 -29 -73 -43 -14 -67 -55 -11 -33 -21 -37 -6 -66 -9 -49 -60 -22 -12 -10 -58 0
65 6 20 8 44 57 1 52 -66 -42 -64 -54 0
41 35 5 81 71 43 8 57 10 25 39 66 4 17 3 40 72 62 74 44 1 27 -73 -76 -59 -19 -49 -48 -63 -23 -31 -70 0
15 75 55 24 39 28 14 35 41 61 21 20 40 71 30 65 27 11 19 43 49 -38 -18 -1 -74 -78 -26 -17 -23 -44 -54 -80 -52 -53 -2 -47 -45 -48 -62 -13 -73 -9 -22 -5 -68 -50 -8 0
68 23 36 -14 -64 -67 -26 -45 0
4 39 80 37 2 19 55 44 8 77 79 42 12 68 69 43 17 62 60 7 21 23 70 -16 -73 -52 -45 -46 -61 -63 -29 -57 -32 -41 -14 -76 -40 -26 -65 -49 -64 -78 -56 -13 -72 -11 -48 0
13 43 81 26 7 38 30 34 40 60 65 66 32 63 77 55 22 57 80 11 -41 -79 -53 -33 -5 -1 -8 -50 -52 -31 -37 -74 -61 -47 -71 -44 -9 -67 0
28 74 4 70 47 54 63 15 59 45 33 -7 -29 -35 -57 -3 -76 -49 -67 0
52 46 68 64 42 73 37 58 72 63 29 55 28 -49 -47 -31 -66 -75 -10 -41 -22 -81 -6 -18 -80 -40 -3 -21 -34 -27 -32 -70 -15 -62 0
51 79 6 16 26 55 19 28 72 46 48 58 44 73 29 1 15 60 54 61 21 59 7 -49 -80 -76 -63 -22 -4 -12 -50 -47 -68 -10 -11 -17 -13 -31 -18 -75 -3 -64 -40 0
15 27 57 26 -35 -47 -40 -54 -44 0
58 34 45 73 65 5 2 52 4 39 46 19 56 -81 -24 -22 -54 -77 -41 -64 -37 -47 -1 -40 -42 -69 -33 -27 -14 -21 -51 -59 -76 -13 -12 -7 -74 -53 -43 -72 -16 -32 0
35 25 69 11 46 41 29 47 34 37 61 22 45 3 27 15 73 77 17 33 19 81 31 59 75 67 48 6 28 -53 -44 -12 -42 -24 -64 -56 -71 -5 -49 -13 -4 -76 -38 -16 -65 -51 -72 -80 -62 -14 -68 -58 -10 -23 -52 -54 -8 -55 -79 -70 -60 -78 -50 -32 -26 0
59 33 73 56 75 25 79 42 80 32 50 13 44 60 22 12 68 20 58 5 74 49 39 43 66 26 31 24 47 23 -61 -21 -57 -63 -71 -3 -65 -41 -36 -35 -16 -52 -9 -69 -81 -29 -37 -15 -48 -46 -18 -78 -28 -76 -70 0
6 37 76 10 81 12 75 67 60 40 44 56 70 79 54 36 33 -52 -1 -21 -78 -15 -14 -31 -42 -65 -26 -24 -32 -71 -19 -30 0
39 63 23 1 18 77 51 78 67 65 49 34 7 21 76 48 60 72 46 15 11 73 43 17 68 53 55 3 80 16 20 64 14 -2 -29 -8 -79 -56 -54 -37 -9 -58 -44 -52 -36 -74 -45 -32 -27 -57 -10 -6 -41 -19 -31 -13 -66 -28 -35 -59 -26 -38 -40 -4 -69 -30 -25 0
22 15 76 78 62 79 39 10 38 35 56 55 57 80 43 50 69 -45 -65 -34 -81 -11 -7 -25 -30 -16 -23 -29 0
27 75 51 8 47 71 11 21 68 64 54 53 28 -10 -32 -16 -41 -22 -31 -74 -7 -12 -35 -77 -62 -13 -40 -44 -4 0
70 71 58 24 63 66 49 21 10 69 68 23 1 13 44 36 19 61 51 52 29 14 -37 -43 -20 -18 -65 -28 -50 -35 -11 -55 -53 -72 -38 -4 -34 -81 -74 -27 -5 -48 -78 -12 -41 -57 -62 -46 -54 0
10 3 75 73 64 41 72 34 66 43 69 4 31 19 47 28 62 30 15 40 49 76 51 58 33 54 23 59 63 79 21 71 36 67 8 17 35 42 39 6 -27 -46 -61 -12 -13 -81 -70 -77 -24 -7 -20 -9 -65 -22 -48 -37 -1 -52 -45 -78 -32 -14 -11 -38 -50 -57 -53 -5 -80 -29 -26 -25 -60 -2 -56 -74 -55 -18 0
15 45 64 68 60 19 75 52 50 39 74 46 79 61 10 80 14 71 17 23 29 56 33 36 69 22 21 77 66 -18 -43 -16 -73 -6 -20 -42 -25 -11 -5 -2 -26 -30 -55 -37 -32 -62 -4 -3 -35 -65 -13 -24 -76 -8 -40 -57 -78 -9 0
25 6 45 29 16 41 3 54 52 8 30 5 69 22 61 57 49 21 7 58 1 44 63 75 64 23 13 32 79 27 28 19 72 20 48 46 -76 -71 -68 -39 -38 -47 -26 -55 -66 -77 -60 -78 -17 -9 -34 -15 -74 -31 -2 -70 -33 -35 -65 -53 -24 -11 -81 -36 -10 -40 -51 0
47 45 22 7 67 43 10 30 23 39 9 3 64 34 46 75 24 18 8 37 12 44 63 19 65 72 14 78 29 74 5 17 60 25 66 54 49 2 70 -53 -55 -36 -4 -6 -79 -73 -62 -40 -38 -15 -77 -68 -13 -51 -42 -69 -35 -61 -26 -28 -11 -48 -21 -57 -80 -52 -56 -1 -41 -71 -33 -27 -31 -32 0
80 -21 0
43 79 14 17 -77 -53 -42 -36 -67 -20 -66 -75 0
13 69 22 30 39 27 67 66 71 7 45 52 11 55 43 1 12 23 81 41 63 49 57 65 -58 -80 -75 -54 -48 -42 -10 -59 -5 -70 -72 -64 -50 -25 -61 -16 0
64 61 -72 -18 -28 -21 -65 -59 -4 -27 -39 0
23 62 32 0
22 76 32 64 10 74 1 57 15 38 81 33 -80 -58 -5 -47 -16 -44 0
48 69 -55 0
64 41 23 52 14 29 39 36 59 7 57 75 6 20 61 37 8 10 34 72 48 47 71 38 1 50 33 3 4 31 46 80 56 25 45 66 -63 -42 -73 -28 -22 -62 -43 -9 -21 -54 -77 -26 -60 -11 -53 -15 -12 -68 -18 -55 -24 -81 -78 -27 -44 -74 -76 -79 -67 -51 -70 -35 -2 -13 -19 -49 -65 -17 -5 -69 -40 0
33 50 40 51 2 19 73 25 45 47 68 17 53 77 67 58 35 16 13 9 8 -79 -22 -43 -12 -3 -38 -21 -66 -1 -6 -61 -54 -64 -74 -5 -23 -36 -7 -52 0
4 11 55 62 2 64 28 36 73 -31 -74 -75 -78 -66 -24 -33 -53 -16 -45 -47 -40 -8 -41 -12 0
2 14 46 -40 -62 -33 -38 -26 -50 -72 0
59 3 15 39 41 5 35 56 65 1 43 28 69 21 17 27 23 48 54 46 60 62 32 14 45 24 55 77 4 70 10 6 25 80 50 26 42 -63 -16 -19 -9 -7 -67 -40 -36 -20 -76 -22 -61 -58 -52 -66 -79 -29 -8 -68 -2 -31 -44 -71 -11 -78 -30 -13 -37 -53 -57 -12 -73 -47 -33 -51 -34 -49 -75 0
18 20 31 -50 -24 -21 -56 -51 0
14 25 6 73 42 49 74 47 41 78 39 24 -32 -8 -76 -40 -30 -44 -55 -59 -61 -18 -46 -77 -80 -11 -19 -60 -52 0
69 45 9 73 19 55 2 28 43 76 71 3 47 46 1 54 79 63 81 37 50 75 13 11 51 34 27 77 7 21 35 80 56 -26 -12 -40 -6 -18 -70 -64 -38 -52 -72 -33 -68 -15 -66 -25 -61 -24 -8 -65 -53 -67 -42 -58 -59 -36 -20 -48 -10 0
75 24 33 11 58 -37 -20 -47 -46 -5 0
30 45 72 20 34 16 33 48 -23 -18 -62 -38 0
47 27 28 6 78 39 52 73 15 31 -59 -10 -50 -12 0
9 79 41 61 10 8 -71 -18 -58 -78 -3 -21 -60 -20 -54 0
35 53 51 8 62 30 24 67 73 50 26 32 68 -49 -18 -52 -58 -65 -23 -21 -81 -77 0
40 27 63 75 9 13 76 21 57 80 30 38 36 45 28 51 1 31 7 39 20 47 19 60 77 49 66 24 70 62 54 22 -4 -18 -56 -53 -16 -58 -61 -78 -5 -34 -52 -15 -12 -44 -67 -79 -33 -59 -74 -25 -32 -73 -46 -42 -50 0
51 75 40 59 42 9 54 16 57 79 49 41 21 34 27 46 30 11 64 35 32 72 1 47 24 62 20 53 45 68 58 23 78 66 56 25 73 80 70 50 17 65 -60 -14 -37 -81 -8 -19 -6 -28 -7 -77 -74 -63 -29 -61 -10 -36 -55 -33 -3 -76 -71 -43 -26 -69 -4 -31 -39 -67 -44 -15 -52 -38 -12 -13 -22 0
30 38 37 27 -61 -35 -64 -11 -5 -24 -63 -66 -44 -39 -16 0
7 56 69 63 44 60 26 54 32 52 28 6 77 48 73 22 18 31 53 10 34 38 8 20 46 30 -68 -35 -1 -43 -81 -14 -29 -27 -61 -33 -17 -13 -11 -59 -37 -21 -24 -25 -51 -45 -3 -66 -16 -47 -72 -65 -39 -76 -9 -42 -78 -12 -79 -41 0
45 76 35 4 54 50 81 69 25 78 6 66 1 5 31 24 21 44 -71 -53 -11 -60 -28 -17 -14 -59 -74 -3 -18 -55 -33 -39 -16 -36 -47 -79 -19 -15 -52 -73 -62 0
22 39 35 68 29 12 19 45 4 51 33 78 7 25 15 49 72 21 43 5 47 9 30 69 10 8 27 34 58 16 46 -64 -17 -66 -55 -79 -60 -70 -3 -75 -20 -41 -38 -67 -26 -1 -81 -59 -14 -76 -77 -28 -73 -61 -80 -36 -13 -42 0
9 71 41 70 64 15 -33 -27 -50 -47 -12 -56 -57 -53 -28 0
41 18 29 81 10 45 55 20 43 22 19 1 21 14 65 2 74 -67 -75 -9 -12 -69 -32 -33 -49 -35 -4 -34 -15 -17 0
64 81 43 15 61 31 6 20 62 -80 -11 -8 -24 -66 -63 -7 -59 -29 -13 -27 -56 -37 0
29 14 18 60 73 9 4 54 32 48 65 47 28 67 78 34 13 79 5 15 30 26 68 2 42 43 46 25 6 51 53 59 -31 -10 -62 -39 -8 -49 -56 -41 -1 -23 -24 -16 -72 -77 -63 -35 -71 -19 -45 -33 -22 -27 -44 -3 -80 0
22 47 81 9 57 40 63 80 56 50 26 65 14 67 25 52 59 16 36 58 45 13 5 77 46 73 -20 -79 -78 -76 -15 -6 -68 -44 -12 -7 -27 -11 -29 -34 -55 -60 -54 -53 -23 -1 -19 0
3 47 74 35 21 51 78 73 20 10 57 16 2 24 55 37 70 65 56 62 39 27 67 34 44 19 45 46 6 43 15 49 64 23 69 54 -41 -76 -77 -8 -58 -53 -9 -22 -28 -79 -1 -75 -71 -66 -4 -63 -42 -7 -48 -38 -13 -59 -14 -18 -81 -52 -72 -33 -26 -25 -30 -29 -31 -11 -80 -32 -17 -61 -50 -68 -5 -36 -60 -40 0
15 60 80 51 54 10 38 69 48 27 74 6 22 5 65 20 1 25 63 59 42 13 64 29 4 19 76 79 21 -7 -46 -55 -50 -81 -58 -78 -57 -41 -30 -17 -77 -31 -71 -47 -3 -72 -45 -44 -24 0
76 11 52 46 64 72 33 22 80 58 37 24 53 43 71 74 27 78 39 18 42 57 20 45 2 29 70 17 68 31 60 5 34 25 26 54 40 56 49 50 61 -19 -63 -77 -51 -35 -16 -38 -32 -1 -36 -13 -62 -8 -21 -9 -55 -44 -66 -67 -65 -59 -7 -48 -75 -79 -47 -41 -4 -15 -10 -69 -28 -6 -3 -14 0
51 13 10 69 39 1 63 65 28 33 68 73 22 62 9 53 23 56 49 14 78 70 35 6 7 19 64 71 59 4 60 -3 -37 -47 -79 -15 -25 -67 -30 -40 -21 -42 -12 -24 -5 -11 -32 -58 -74 -54 -46 -77 -18 -76 -36 -26 -38 -29 -44 -75 -72 -66 -45 0
64 11 75 42 29 54 10 79 23 8 71 38 14 68 21 15 49 58 35 80 40 72 55 24 3 62 52 63 -81 -59 -67 -50 -53 -39 -7 -44 -18 -74 -76 -36 -56 -12 -41 -16 -9 -34 -2 -26 -22 -65 -51 -66 -48 -32 0
