c NeuroCodeBench 2.0 CNF formula with verdict Sat
p cnf 34 245
7 13 34 30 20 10 15 16 28 33 5 -11 -12 -31 -18 -32 -1 -27 -21 -22 -23 -24 -25 -17 0
29 20 16 8 31 34 18 27 -1 -25 -4 -32 -6 -10 0
26 29 31 11 7 4 1 14 25 30 -9 -24 -5 -13 -21 -15 -28 -33 -12 -23 0
32 17 25 19 7 21 3 8 9 10 6 15 23 34 -2 -14 -5 -31 -4 -22 -16 -13 -26 -30 -12 0
7 25 1 23 14 30 9 -32 -2 -34 0
19 31 13 22 28 -4 -33 -12 -21 -26 -23 -10 -27 0
14 25 3 10 2 5 -12 -28 -8 -21 -33 -31 -16 -18 -6 0
28 4 7 31 9 19 15 23 22 33 10 29 6 14 8 24 34 5 -2 -11 -1 -17 -18 -26 -16 -25 -20 -30 -3 -21 -12 -13 -27 0
8 12 6 16 3 17 18 32 11 14 -22 -24 -28 -21 -23 -20 -34 -15 -19 -9 -29 -7 -25 -5 -31 -26 -4 -13 -10 -2 0
24 17 19 30 28 32 12 4 1 -2 -13 -20 -22 -10 -25 -14 -29 -23 -8 -11 -15 -3 -21 -26 -33 -7 0
16 -24 -27 0
5 30 19 11 7 12 2 14 1 34 27 20 18 3 9 -32 -15 -23 -26 -8 -17 -16 -24 -21 -6 -33 -4 -29 -13 -10 -28 -25 -22 0
22 24 -30 -32 0
33 4 23 30 25 17 5 27 26 28 18 3 2 1 21 20 34 31 6 -15 -8 -19 -11 -12 -32 -7 -10 -9 -16 -22 0
14 7 32 -10 -33 0
23 34 0
3 19 10 8 20 33 2 -30 -23 -13 -15 -11 -22 -24 0
34 28 31 -22 -2 -10 -6 -29 -8 0
6 32 21 17 20 2 -24 -3 -29 -18 -19 0
22 31 6 30 34 10 0
21 30 9 11 10 2 -4 -12 -13 -33 -17 -6 0
8 7 18 11 33 20 21 27 14 23 -13 -6 -16 -30 -15 -9 0
10 30 34 11 6 21 15 32 4 8 16 5 18 31 -19 -25 -13 -20 -9 -29 -23 -17 -24 -12 -7 -22 -1 -14 -33 -28 0
20 15 23 1 18 12 16 27 19 24 34 25 3 33 22 9 -26 -17 -10 -2 -4 -32 -28 -8 -14 -21 0
34 17 16 11 12 30 8 9 31 28 -5 -3 -29 -18 -7 -32 -10 0
25 -9 -2 0
16 9 2 22 8 18 29 24 -32 -33 -5 -25 -13 -4 -17 -23 -3 -6 -21 0
26 18 31 25 34 -22 -3 -7 -24 0
10 33 14 26 -3 -2 -32 -1 -20 -30 -25 -15 -7 -6 0
29 31 14 28 24 27 10 21 5 7 3 -17 -20 -19 -16 -11 -23 -9 -6 -4 -18 -12 -2 -22 -30 -1 -13 0
13 0
5 4 12 1 11 21 -14 -17 -22 -3 -20 -2 -10 -28 -6 -19 -32 -33 -9 0
12 21 4 18 16 31 27 14 24 5 2 -30 -15 -17 -22 -29 -1 -3 -13 -26 -28 -11 -9 -32 0
22 17 2 0
13 29 7 26 9 23 -30 -32 -14 -17 -3 -19 -21 0
25 34 5 6 -20 -26 -9 -2 -1 0
22 7 3 25 34 9 26 10 15 8 24 23 12 18 11 -1 -14 -29 -20 -5 -32 -19 -6 -30 -13 -2 -27 -16 -21 -31 -28 0
16 22 9 3 15 5 33 25 20 28 11 4 21 23 31 24 -14 -8 -17 -34 -12 -29 -32 -1 -10 -27 -7 -30 -6 -13 0
17 14 9 10 3 21 29 31 16 7 34 25 30 26 22 5 15 -33 -4 -23 -27 -13 -12 -1 -32 -11 -19 -2 -20 -18 -24 0
19 28 3 18 29 2 30 12 22 31 -5 -8 -14 -16 -13 -27 -17 -32 -25 -20 0
-31 0
31 18 30 9 24 -33 -8 -12 -3 -14 0
16 31 25 26 14 -19 -4 -30 -5 -17 -34 -28 -18 0
12 16 -17 -4 0
27 5 9 32 6 7 -30 -12 -3 -23 -31 -25 -20 -1 0
23 7 32 29 24 4 3 19 27 17 1 -28 -18 -16 -13 -33 -8 -26 0
-2 -12 -8 -3 0
27 24 21 4 31 10 13 17 29 34 1 30 15 25 6 -32 -16 -9 -5 -8 -23 0
18 1 30 19 -31 -10 -9 -28 0
7 19 10 23 34 16 31 13 6 -24 -9 -8 -18 -21 -15 0
31 34 11 16 20 29 7 13 32 4 27 6 -18 -30 -12 -24 -2 -21 -10 0
24 33 6 32 28 18 12 21 23 31 10 -11 -16 -14 -2 -7 -25 -20 -17 -34 -27 0
17 16 7 -29 -3 0
30 16 33 25 29 26 10 14 34 -23 -9 -31 -22 -3 -28 -19 -8 -5 -1 0
2 -19 0
2 32 26 13 21 -11 -16 -8 -10 -17 -23 -1 -30 0
29 13 3 11 24 12 22 10 32 15 -28 -5 -23 -34 -25 -8 0
3 2 26 23 25 -5 -19 -7 -28 -31 0
3 14 30 8 18 6 33 4 29 19 5 13 24 20 16 1 34 32 -28 -21 -25 -11 -27 -17 -10 -7 -23 -12 -22 -15 -9 -31 0
12 8 9 31 -19 -11 -7 -16 -18 -14 0
16 12 14 1 18 3 -9 -20 -29 -15 -21 -24 -34 -17 -8 -19 0
34 20 11 25 24 33 3 27 8 9 7 18 23 6 -17 -29 -22 -1 -19 -31 -28 -15 -5 -12 -26 -2 -32 -30 0
26 17 -18 -32 -16 0
27 6 14 3 19 34 -7 -32 -10 -18 -22 -29 -5 -33 0
32 20 12 26 13 21 6 25 14 9 5 7 23 1 -2 -34 -18 -4 -31 -16 -11 -29 -33 -8 -19 -27 -22 -30 -24 -17 -15 0
29 18 6 17 11 34 19 30 5 -15 -4 -24 -22 0
10 14 26 13 5 29 7 31 11 3 25 24 33 30 15 -28 -27 -16 -34 -4 -18 -22 -8 -12 -21 -1 -17 -9 0
26 34 10 21 31 24 5 1 9 18 11 7 4 15 -23 -16 -27 -13 -14 -30 -33 -12 -19 -32 -3 -28 -2 -22 0
-4 -24 -14 -8 -32 0
10 25 -18 -1 -6 -20 -31 -32 0
13 9 29 11 30 19 8 25 27 26 24 17 15 -23 -32 -14 -18 -16 -4 -20 -2 -6 -12 0
21 24 3 31 5 9 10 32 19 8 -15 -4 -33 -28 -20 -16 -23 -12 -30 -11 -7 -22 -25 0
31 1 27 29 18 33 24 13 7 34 17 4 3 10 22 5 -6 -32 -2 -16 -26 -14 -28 -15 0
24 9 17 13 -26 -27 -8 -15 -34 -23 -28 -7 -20 0
23 20 19 10 9 25 29 -7 -34 -21 -16 -4 -3 -11 0
23 30 32 25 -14 -20 -8 -26 -18 -11 -15 -2 0
17 10 14 1 19 3 7 5 25 6 9 8 -16 -31 -11 -26 -29 -21 -34 -33 -30 -24 -22 -4 -2 0
4 10 15 -1 -13 -9 -28 -24 -17 -23 -22 -16 -34 -3 -11 -26 -31 -6 -8 0
23 1 30 16 3 14 17 25 -31 -32 -24 -18 -28 -10 0
30 18 3 7 21 12 14 29 20 26 31 8 15 16 13 -33 -32 -9 -5 -17 -19 -22 -4 -28 -25 -27 -11 -2 0
21 32 33 13 16 30 26 29 10 4 -14 -20 -7 -18 -34 -27 -12 -24 -1 0
31 1 22 -24 -8 -25 0
6 7 10 -13 -30 -17 -15 0
31 8 14 1 20 34 10 17 16 7 2 22 11 -23 -3 -29 -4 -25 -28 -18 -15 0
33 11 29 30 32 17 27 18 -5 -1 -10 -6 -16 -8 -15 -31 -28 -2 0
25 22 28 0
32 5 -23 -11 0
34 -2 -15 0
33 18 34 2 22 21 -28 -10 -25 -5 -23 -26 -3 -17 -11 0
4 5 29 32 15 -33 -25 -10 -9 -1 -19 -13 -14 -18 -34 -7 0
32 8 21 5 24 29 18 34 19 14 33 11 26 25 -4 -1 -20 -28 -3 -6 -7 -27 0
10 3 26 34 8 2 29 14 31 9 -22 -24 -20 -13 -11 -6 -30 -5 -33 -17 -32 -21 -27 0
12 3 33 4 2 16 20 10 22 6 -15 -34 -14 -7 -19 -11 -1 -13 -28 -5 -8 -21 -29 -30 0
4 3 13 -15 -19 -23 -28 -11 -6 0
18 22 2 1 29 10 12 32 4 27 21 3 8 -23 -14 -6 -24 -30 -20 -26 -34 -16 -9 -31 -17 -11 -25 -5 -15 0
6 8 32 27 31 7 -3 -30 -5 0
21 -32 -17 -34 -29 0
4 15 16 -24 -18 -23 -8 -11 -32 -1 -7 0
23 7 14 16 29 27 13 22 30 18 3 12 -9 -32 -1 -17 -26 -19 -5 -33 -4 -34 -20 -6 -10 0
25 3 34 28 1 33 11 -21 -18 -17 -30 -15 -32 -19 -8 -23 -13 0
4 33 -13 0
28 23 26 25 15 4 -18 -5 -33 -9 -3 -27 -20 -10 0
7 11 33 16 26 19 2 3 -15 -31 -22 -12 -28 -24 -1 -30 -4 0
26 -28 -13 0
12 23 34 21 4 29 13 28 16 9 7 18 -1 -10 -2 -20 -15 -8 -32 -5 -26 -25 -19 -27 -31 -6 -22 -11 -30 0
9 34 4 22 26 18 -3 -28 -2 -5 -13 -31 -20 -11 -14 -6 -12 -8 -15 -23 0
19 4 32 24 18 8 26 10 12 -30 -22 -1 -16 0
29 16 2 25 0
21 14 26 -2 -30 -18 -19 -29 -34 -28 -31 -15 -24 0
12 3 9 17 18 31 33 28 34 13 26 24 6 14 32 -29 -10 -8 -5 -22 -23 -25 -27 -19 -2 -15 -16 -1 -7 -21 -30 -20 0
33 9 28 10 30 3 5 16 29 23 6 34 -18 -27 -32 -14 -4 -13 -19 -8 -17 -20 -2 -31 0
23 16 28 27 12 17 31 13 14 -20 -30 -25 -32 -5 -21 -15 -4 -18 -19 -33 -26 0
33 21 -7 0
31 25 27 22 26 10 3 23 32 28 2 12 13 29 6 34 -24 -5 -14 -7 -19 -17 -8 -33 0
11 3 19 30 22 10 18 33 14 6 34 -4 -2 -27 -15 -24 -1 -25 -16 -13 -12 -7 -21 -32 -26 -28 -29 0
12 17 3 22 10 -18 -21 -8 -19 -2 -13 -4 0
17 22 31 0
24 6 31 3 15 12 20 16 17 30 25 9 -21 -32 -33 -1 -13 -2 -19 -34 -7 -11 -28 -26 -18 0
34 32 10 -3 -7 -16 0
2 19 22 31 1 -21 -5 -34 -29 -23 -4 0
2 9 21 6 0
12 29 10 5 7 -16 -4 0
15 24 31 6 20 25 -30 -12 -2 -32 -33 -8 -19 -17 -27 -14 0
25 6 8 10 27 32 -30 -19 -26 -12 0
15 30 24 28 13 11 33 6 17 16 5 31 1 25 -34 -4 -21 -32 -29 -8 -12 -7 -20 -14 -27 -10 -18 -22 -26 -2 -9 -3 -23 0
26 25 7 3 24 2 13 16 17 10 21 6 14 -30 -12 -22 -9 -8 -15 -33 -11 -34 -19 -20 -4 -29 -28 -23 0
32 8 29 13 28 1 6 19 -16 -34 -10 -3 -27 -12 0
14 33 9 34 10 7 21 -25 -2 -19 -15 -22 -20 -30 0
22 23 19 33 34 -26 -27 -25 -20 0
14 18 17 25 -26 -4 -11 -6 0
15 2 20 30 8 24 12 22 5 13 -4 -9 -34 -29 -14 -18 0
8 24 25 32 4 7 10 16 19 9 31 30 26 -15 -11 -3 -18 -34 -27 -13 -17 -23 -14 -6 0
15 12 9 6 4 5 26 -28 -31 -24 -10 0
13 6 23 10 29 16 26 5 -12 -11 -27 -2 -33 -28 -24 0
15 10 7 21 29 1 3 30 19 24 34 27 2 -17 -14 -8 -33 -6 -9 -13 -28 -16 -18 -22 -23 -4 -25 -20 -31 -5 -11 -12 0
15 29 32 21 14 10 16 13 17 6 5 26 18 25 12 31 -20 -1 -27 -9 -3 -24 -4 -8 -34 -33 -23 -2 -11 -30 -22 -19 -28 0
13 6 25 5 23 34 12 1 33 3 27 15 31 8 -4 -7 -22 -20 -18 -2 -19 -10 -9 -32 -26 0
24 4 7 3 17 16 27 6 -25 -8 -14 -21 -20 -9 -34 -26 -13 0
23 4 9 22 29 14 6 8 19 30 27 16 20 25 -26 -32 -34 -31 -11 -3 -33 0
3 21 10 18 24 30 14 11 7 13 19 -16 -4 -28 -6 -12 -33 -31 -29 -15 -9 -25 -23 -17 -20 0
26 11 32 21 5 3 24 19 34 -6 -29 -13 -10 -33 -9 -15 -4 -16 -31 -14 -7 -1 -30 -8 -25 -2 -27 -23 0
32 1 3 6 16 2 19 24 33 20 -25 -9 -27 -31 -30 -7 -5 -23 -8 -26 0
20 1 -14 -29 -34 0
20 9 14 25 15 4 33 19 28 -3 -11 -27 -6 -7 -21 0
34 29 14 23 31 18 6 10 22 27 15 4 16 -1 -32 -26 -3 -12 -28 -11 -20 -21 -9 -24 0
26 8 30 19 7 -17 -25 0
28 23 17 18 32 22 34 -20 -16 0
26 20 10 3 14 32 6 -12 -2 -25 -8 -22 -15 -18 0
7 23 28 33 13 14 17 32 26 11 -6 -27 -5 -29 -20 -24 -12 -9 -4 -15 -1 -2 0
33 30 16 28 13 20 1 32 2 29 14 -10 -6 -7 -18 -23 -11 -9 -25 -5 -31 -26 -27 -19 -8 -4 -12 0
5 28 26 3 33 30 22 16 4 10 24 -12 -21 -7 -8 -32 -23 -11 -15 -19 0
24 21 13 34 28 1 29 23 4 7 -6 -25 -32 -14 -3 0
4 25 30 11 14 29 17 19 27 -16 -1 -22 -13 -33 -28 -23 -5 -8 -7 -21 -26 -31 -3 -32 -24 0
5 14 16 31 25 4 12 9 2 30 -24 -8 -21 -32 -29 -10 -26 -13 -33 0
9 22 31 27 1 25 18 30 33 15 10 17 19 14 26 21 24 8 7 11 -16 -4 -29 -20 -34 -12 -23 -5 -13 0
28 18 32 33 6 -9 -31 0
2 4 27 6 8 14 10 3 15 30 18 23 33 17 12 5 26 16 7 -34 -9 -19 -31 -13 -22 -24 -21 -29 -25 -11 -28 -1 0
24 21 22 20 -32 -17 0
6 15 -9 -18 -29 0
18 33 20 14 29 6 9 -15 -12 -30 -5 -28 -31 -21 -3 -34 -19 -23 -8 -2 -1 0
21 34 30 23 20 4 14 6 10 29 17 3 -28 -2 -25 -15 -32 -33 -7 -13 -11 -22 -5 -26 0
21 27 20 10 11 5 6 34 3 25 -4 -9 -24 -12 -14 -26 -28 -13 -29 -17 -18 -16 -23 -1 -19 -15 -7 -31 -30 0
31 1 25 26 23 33 30 -28 -15 -4 -6 -20 0
-18 -20 0
15 5 20 25 21 17 10 9 -13 -30 -6 -32 -11 -34 -14 -3 -23 -19 -24 -29 -4 -22 -12 -28 -26 -2 -33 -1 0
2 9 13 10 16 11 -26 -30 -20 -28 -12 -19 -24 -5 -14 -3 0
3 22 29 1 23 -34 -24 -11 -33 -6 -30 0
28 19 26 13 10 25 17 1 15 11 20 -27 -21 -31 -24 -9 -16 -29 -3 -4 -23 -12 -5 -7 -14 -30 0
3 23 31 34 19 -22 -11 -6 -1 -20 -17 -5 0
2 3 14 24 1 29 13 -12 -22 -15 -4 -10 -20 -9 -18 -7 -33 0
-9 0
17 32 20 7 4 -14 -6 -12 -23 -18 -16 -28 -13 -21 0
20 11 3 2 4 7 5 6 1 22 10 15 18 34 8 9 -32 -25 -30 -26 -14 -27 -17 -21 0
7 29 30 13 31 -22 0
13 31 18 20 3 14 10 29 17 2 21 12 4 8 19 25 -32 -28 -7 -6 -30 -26 -15 -1 -5 -34 -33 0
27 13 7 28 2 1 19 17 32 11 15 -25 -16 -14 -9 -33 -31 -3 -20 -5 -18 -8 -21 -34 -10 -23 -22 -26 -30 -4 0
28 23 9 13 1 2 22 19 20 26 10 11 3 25 -18 -4 -7 -8 -21 -27 -34 -30 -16 -24 -6 -29 0
33 26 18 8 12 34 28 21 -32 -14 -17 -11 0
21 3 32 26 -25 -20 -17 -8 -29 0
22 9 24 8 11 16 13 14 28 21 17 2 20 23 15 34 7 27 32 -19 -18 -6 -26 -3 -31 -1 -25 -30 -4 -5 -29 -12 0
16 34 7 25 31 8 6 22 28 11 30 29 12 1 17 -5 -13 -19 -33 -20 -24 -4 -23 -2 -15 -21 0
9 28 15 20 30 25 33 1 -18 -4 -14 -5 -12 -26 0
31 23 27 21 32 29 17 24 -6 -5 -20 -8 -11 -12 -9 0
3 4 20 17 -32 -31 -34 -8 0
17 7 27 10 19 15 34 3 13 6 -33 -9 -25 -5 -21 -22 -24 -1 -12 -26 -18 -20 0
11 16 26 20 32 -30 -19 -4 -5 -22 -14 -8 -3 -28 -34 0
7 5 25 -26 -21 -27 -4 -15 -20 -12 -30 -10 -33 0
11 3 30 21 20 1 19 24 7 6 22 5 -26 -8 -2 -27 -4 -34 -32 -23 -14 -31 -13 -29 -10 -33 -17 -12 -16 0
3 2 21 15 -5 -1 -30 -31 -26 -34 0
16 15 6 14 24 13 21 25 17 5 11 18 -33 -2 -34 -26 -1 -28 -29 -8 -12 -27 -22 -7 -23 -32 -10 -20 -31 0
34 28 31 25 9 24 21 16 13 4 18 -11 -33 -10 -22 -5 -32 -7 -19 -2 -6 -8 -30 -17 -26 -14 -29 -1 -12 -23 -20 -3 -27 0
19 24 10 18 1 25 -20 -29 -5 -31 -26 -4 -23 -16 -33 -32 -15 -13 -6 0
31 25 -8 -12 -21 -15 -2 -3 0
20 28 18 3 17 9 16 15 22 10 27 23 6 14 19 1 2 32 -26 -29 -21 -13 -30 -31 0
33 -1 -19 0
29 24 25 32 26 15 30 -4 -12 -6 -20 -22 -23 -3 -5 -16 -21 -19 -17 -8 -14 -27 -33 -13 -10 -28 -34 -2 -1 0
8 6 23 31 7 4 20 15 -2 -12 -3 -24 -27 -17 0
25 6 8 7 14 31 28 34 23 1 30 -15 -26 -2 -11 -22 -9 -18 -19 0
34 28 8 23 30 15 -24 -11 -25 -13 -18 -14 -5 -27 -22 -2 -3 -4 -21 -33 -26 -29 -1 0
13 6 12 1 30 20 14 -7 -19 -23 -25 -22 -28 -18 0
3 13 33 32 11 30 8 20 5 10 24 -7 0
24 10 27 13 34 18 5 15 33 14 -29 -21 -17 -7 -11 -16 0
9 5 3 28 1 32 22 14 10 30 20 11 25 27 34 8 15 16 -21 -12 -24 -19 -6 -31 -4 -7 -26 -17 -23 -13 0
12 19 17 13 23 18 14 26 29 32 24 -16 -6 -1 -30 -34 -3 -20 0
16 26 33 30 13 27 25 17 7 6 23 34 2 18 9 32 -5 -19 -8 -29 -3 -28 -1 -4 -31 -21 -10 -11 -24 -20 -15 0
30 25 21 24 23 3 28 7 12 8 29 33 14 11 6 19 9 17 -20 -31 -13 -10 -4 -32 -18 -34 -16 -2 -5 -26 0
25 33 15 5 16 11 24 26 -21 -22 -28 -18 -4 -17 -7 0
17 3 24 33 32 18 -15 -16 -8 -25 0
-21 -33 0
1 2 25 30 10 28 5 7 23 15 16 18 -22 -20 -27 -17 -26 -11 -8 -24 -19 -3 -32 -6 -4 -29 -21 -31 0
27 16 0
7 -17 0
10 21 16 20 8 6 22 25 14 12 15 3 -23 -29 -5 -34 -28 -18 -24 -32 -30 -9 -13 -26 -27 -19 -33 -2 0
2 9 19 14 18 10 1 20 34 22 23 32 28 15 17 -27 -25 -5 -6 -13 -3 -29 -24 -12 -7 -21 -30 -26 -11 -8 0
10 21 30 2 3 4 7 24 13 5 -33 -17 -25 -28 -15 -12 0
29 12 26 30 32 4 -25 -31 -11 -14 -7 0
33 12 23 32 11 -13 -9 -26 -7 -30 -19 -16 -14 -6 0
32 0
3 34 13 2 5 20 33 4 22 19 9 21 25 11 12 6 -27 -26 -15 -30 -10 -32 -31 -7 -29 -18 -24 -16 0
18 28 33 3 19 4 10 26 31 27 24 25 7 21 -8 -20 -11 -2 -14 -16 -30 -13 -23 -15 -9 -6 -22 -34 -29 0
1 10 21 26 9 27 16 33 19 -29 -22 -17 -5 -6 -8 -2 0
12 5 4 20 31 30 13 11 -3 -23 -6 -19 -2 -24 -1 -34 -15 -22 -33 -21 0
6 1 12 9 -7 -28 -34 -22 0
15 5 6 12 27 14 32 18 -30 -13 -26 -21 -3 -23 -20 -9 0
21 26 12 18 29 34 8 14 7 -6 -25 -3 -24 -15 -33 -2 -28 -9 -13 -1 -22 -31 -4 0
26 9 -18 0
10 2 27 17 4 15 7 -14 -34 -12 -19 -20 -18 -3 -22 0
6 16 34 10 31 18 11 12 -24 -15 -5 -8 -26 -14 -3 -13 -1 0
19 17 10 5 12 6 33 34 8 16 20 28 32 23 -1 -15 -3 -22 -7 -4 -24 -13 0
28 27 17 21 10 6 26 33 8 29 11 34 -18 -22 -7 -2 -31 -19 -15 -9 -1 -24 -14 -4 -30 -25 0
24 4 21 15 3 29 33 23 16 10 30 12 -28 -22 -2 -18 -31 -9 -11 -27 -1 -7 -6 0
11 20 25 17 16 -18 -32 -14 -31 -27 -28 -3 -26 -21 -1 0
34 14 -17 -2 -8 -27 -19 0
29 19 6 -9 -11 0
27 32 9 6 5 34 -25 -10 -19 -21 0
12 22 25 28 31 8 32 -1 -33 -34 -11 -7 0
2 8 5 30 20 10 6 28 22 15 32 13 14 17 -23 -18 -24 -7 -29 -16 -31 -12 -1 -3 0
23 25 6 -16 -15 -4 -13 -3 0
27 5 25 33 19 -9 -34 -18 -14 -2 -32 -12 -17 -24 -31 0
33 29 3 8 11 13 31 -6 -24 -34 -20 -4 -7 -19 -14 -16 -5 -22 -25 -26 -32 0
10 27 34 21 26 29 -7 -16 -9 -8 -31 0
32 16 30 21 6 14 -23 -3 0
7 -17 -33 -15 0
21 10 16 14 -28 -23 0
3 25 14 33 5 13 17 27 32 28 -31 -15 -19 -7 -6 -12 -30 0
