c NeuroCodeBench 2.0 CNF formula with verdict Sat
p cnf 25 81
9 18 22 -25 -19 -12 -6 -10 -8 -7 -11 0
2 20 1 12 5 11 -25 -19 -22 -4 -13 -8 0
25 9 16 14 0
6 24 13 20 -10 -4 -19 -3 -17 -11 -8 0
14 15 25 -6 -1 -18 -8 0
14 5 8 18 15 7 23 -6 -9 -1 -10 -17 -20 -4 0
10 21 7 1 5 0
7 3 25 -5 -8 -20 -11 -21 -9 -14 -6 0
10 22 12 9 1 16 -14 -21 -2 -15 -13 -5 0
17 13 1 14 20 12 18 15 -22 -21 -4 -6 -23 -3 -19 0
14 8 3 13 2 17 -6 -20 -10 -25 -18 -22 -16 -23 -4 -24 0
23 4 19 17 14 1 -13 -16 -22 0
3 8 11 9 18 14 5 10 17 -21 -25 -23 -20 0
20 3 13 23 5 -11 -9 -14 0
12 23 16 17 19 21 2 24 5 -1 -14 -13 -10 -20 -22 -9 -18 -11 -7 -8 0
15 13 -10 -23 -8 -1 0
20 -22 -21 0
19 25 -22 -14 -23 -18 -20 -2 0
17 7 21 12 1 13 6 11 16 -10 -3 -14 -22 -5 -18 -25 -23 -24 -19 -9 -4 0
1 11 25 21 22 18 16 3 7 8 14 13 17 -15 -4 -6 -5 -9 -12 -23 -2 -20 -10 0
7 22 21 13 19 23 10 5 9 3 6 17 20 -25 -1 -15 -12 -8 -11 -14 0
11 -23 -2 0
23 16 6 12 2 20 14 25 7 -18 -22 -11 -19 -24 -9 -15 -17 0
4 12 5 -2 0
13 7 15 8 4 2 23 25 -24 -19 -6 -5 0
12 11 10 14 16 6 23 -4 -8 0
23 9 24 -10 -21 -12 -6 -22 0
22 19 1 -2 -17 -16 -6 -8 0
20 12 16 3 1 8 7 6 -2 -14 -11 -25 -22 -24 -21 -18 -19 0
21 5 8 4 6 11 22 1 17 16 20 23 -18 -9 -14 -13 -12 -7 0
25 4 2 9 15 7 8 10 6 13 14 -23 -17 -12 -5 -19 -20 0
2 5 17 13 4 8 11 16 22 14 7 6 18 19 -21 -25 -1 -3 -9 -10 0
17 5 13 16 3 22 15 1 14 8 -10 -2 -7 -24 -25 -19 0
19 12 20 3 2 8 23 24 25 22 10 18 -7 -6 -11 -21 -17 -4 -15 -14 -9 0
2 20 18 5 21 3 17 10 -19 -23 -15 -25 -8 -14 0
25 24 22 15 17 14 12 -21 -10 -9 -7 -16 0
15 9 5 11 24 17 13 -2 -21 -20 -14 -1 0
24 6 16 10 9 15 25 -23 -20 -3 0
24 23 22 7 17 14 -8 -16 -25 -5 0
11 25 12 10 5 16 19 13 7 15 4 24 2 23 21 17 -9 -20 -6 -18 -1 0
16 12 11 9 15 23 22 -21 -10 -2 -24 -18 0
15 3 -2 -9 0
2 6 22 21 20 18 -19 -23 -4 -13 -1 -8 -7 -10 -3 0
12 25 15 5 19 1 20 23 -11 -7 -2 -9 -10 -3 -21 -24 -14 -16 0
10 4 18 11 3 -7 -14 -16 -12 0
4 25 19 8 6 14 23 -7 -20 -5 -2 -16 0
24 10 22 12 11 7 6 23 14 -13 -2 -8 -21 -9 -16 -1 -19 -20 0
3 12 9 17 25 19 8 7 11 -22 -15 -10 -5 -24 -1 -14 0
2 16 21 1 -13 -19 -5 -24 -6 0
4 17 18 22 2 12 19 23 11 1 9 5 21 25 14 13 6 -24 -15 -8 -7 -10 -3 -20 0
6 7 19 22 13 5 15 2 8 21 23 18 -14 -24 -12 -11 -20 -1 0
8 19 21 6 11 20 -4 -15 -3 -9 -24 -17 -22 -13 -2 -12 -5 -23 0
15 14 25 1 6 17 9 8 22 13 16 23 7 -2 -4 -11 -18 -19 -10 -21 0
22 7 21 15 5 17 -20 -10 -18 -12 -16 -4 -13 -19 0
8 10 4 20 7 22 -5 -9 -12 -3 -21 -25 -13 -18 -24 -23 0
6 22 7 25 17 1 15 12 21 -23 -11 -19 -13 -16 -3 -18 -14 -9 -8 -10 -4 -2 -5 0
21 -6 -5 -18 -4 -24 0
22 18 1 16 20 -4 -24 -8 -7 0
18 15 -22 0
12 18 16 -15 -23 -11 -25 0
5 7 1 -21 0
25 5 16 10 -21 -9 -18 -20 -17 -2 0
9 -3 -7 -12 0
16 17 7 19 22 14 10 11 21 23 9 -1 -24 -25 -3 -13 0
6 21 4 16 22 12 25 1 24 11 14 3 20 -5 -8 -23 -18 -9 -19 -17 -13 0
8 1 16 2 -18 -4 -14 -5 -22 0
7 5 8 19 13 18 1 -12 -17 -24 -25 -23 -6 -15 0
21 25 4 15 -2 -5 -13 -11 0
24 14 23 18 9 20 5 21 19 2 -12 -4 -7 -15 0
12 2 24 19 18 -11 -8 -4 0
7 8 11 -12 -5 -18 0
8 15 11 21 25 19 2 10 22 5 17 -12 -23 -7 -24 -4 -14 -6 -18 -3 -16 -9 -13 -20 0
24 5 2 -21 -4 -9 0
11 19 6 -9 -8 -7 -13 -3 -21 -20 -14 -10 0
2 25 4 15 13 3 17 18 9 22 1 8 6 5 -11 -7 -12 -23 -14 -16 -21 -20 -24 0
15 6 19 1 4 13 18 7 -25 -5 -10 -8 -2 -9 -23 -16 -21 -22 -11 0
5 24 22 19 25 -8 -4 -10 -16 -23 0
21 18 20 13 14 16 8 12 11 15 -10 -5 -19 -6 -9 -17 -24 0
21 9 2 15 18 24 23 -6 -22 -3 -14 -20 -13 -1 -5 -16 -19 0
2 18 13 10 14 24 1 3 16 -15 0
20 7 6 9 14 17 8 22 5 -11 -15 -23 -18 -1 -25 -2 -16 -21 0
