c NeuroCodeBench 2.0 CNF formula with verdict Unsat
p cnf 79 306
1 -44 70 -6 40 30 -28 43 16 -51 0
1 44 49 -73 52 27 35 55 63 70 68 -17 0
1 -44 70 6 72 -41 0
1 -44 70 -6 40 -30 -65 -28 -34 38 0
1 44 -49 -3 -36 -10 -53 -60 0
-1 -3 55 30 -45 -60 -27 0
-1 -3 -55 25 47 73 4 0
1 44 -49 3 -43 54 59 77 45 0
-1 -3 -55 25 47 -73 -4 -10 -16 57 -77 0
1 -44 -70 19 -77 -76 -67 -39 21 3 -49 0
1 44 -49 3 -43 -54 72 46 -45 -61 0
1 -44 -70 19 -77 76 62 23 -17 0
1 44 -49 -3 36 20 0
1 -44 70 -6 40 30 -28 43 -16 0
1 44 -49 -3 36 -20 -66 35 59 18 0
1 44 49 -73 -52 -51 -5 37 -70 25 0
1 44 49 73 -9 -77 42 0
-1 -3 55 30 -45 60 2 -78 0
1 -44 70 -6 40 -30 65 23 -11 -72 0
1 -44 -70 -19 11 -12 -26 29 -63 -66 -36 0
1 44 49 73 -9 -77 -42 -74 11 -58 0
-1 3 -8 19 40 71 -37 70 -25 0
-1 -3 -55 25 -47 -53 -9 0
-1 3 8 -70 21 0
-1 3 -8 19 40 -71 62 0
-1 3 8 70 12 55 -74 0
1 44 49 -73 -52 51 -37 0
1 44 -49 -3 36 -20 66 9 -12 -43 0
1 -44 -70 19 -77 -76 -67 -39 21 -3 68 0
1 44 49 73 -9 -77 -42 -74 -11 -25 0
1 44 -49 3 43 -16 -60 79 67 78 0
1 44 49 -73 52 27 35 -55 64 0
-1 3 -8 -19 28 -16 37 11 23 0
1 -44 -70 19 77 -75 55 0
1 44 -49 3 -43 54 -59 -42 0
1 -44 -70 19 -77 -76 -67 39 51 65 0
1 -44 70 -6 40 -30 65 -23 -32 29 0
-1 -3 -55 25 47 -73 -4 -10 -16 57 77 -35 0
1 -44 -70 19 -77 -76 -67 -39 21 -3 -68 -30 -27 -7 0
1 44 -49 3 -43 -54 72 -46 -38 0
1 -44 70 6 -72 63 -56 49 53 0
-1 3 -8 -19 -28 47 32 -71 -23 -18 0
1 -44 70 6 -72 63 56 48 -43 -32 0
1 44 -49 -3 -36 10 21 -24 14 0
1 -44 -70 19 -77 -76 -67 -39 21 -3 -68 -30 27 0
1 -44 70 6 -72 63 56 48 -43 32 0
1 44 -49 3 43 16 24 -11 -69 -4 -56 0
1 -44 -70 -19 -11 60 36 -28 8 -9 0
1 44 -49 -3 36 -20 66 9 12 -56 0
1 44 49 -73 52 27 35 55 -63 -77 0
1 -44 70 -6 -40 -66 -38 0
1 -44 70 -6 40 -30 65 23 11 18 0
1 44 49 -73 -52 51 37 53 35 0
1 -44 -70 19 -77 -76 67 -21 -27 75 13 0
-1 3 8 70 12 55 74 0
1 -44 70 6 -72 63 56 48 43 0
1 44 -49 -3 36 -20 66 9 12 56 70 0
1 -44 70 -6 40 -30 -65 -28 -34 -38 12 0
1 44 -49 -3 -36 10 21 -24 -14 0
1 -44 70 6 72 41 -12 50 0
1 -44 -70 19 -77 -76 67 -21 -27 -75 -45 0
-1 -3 -55 -25 -35 40 15 34 -32 0
1 44 -49 -3 36 -20 66 -9 -17 74 0
-1 -3 -55 -25 -35 40 15 34 32 0
-1 3 -8 19 40 71 -37 70 25 0
1 44 49 -73 -52 -51 -5 37 70 0
1 44 49 73 9 34 -28 -37 0
1 -44 -70 19 -77 -76 67 -21 -27 -75 45 26 0
-1 3 -8 19 40 -71 -62 0
1 -44 -70 -19 11 -12 -26 29 -63 66 -9 65 -2 0
1 44 -49 3 -43 54 -59 42 0
-1 3 -8 -19 28 -16 37 11 -23 -68 0
1 -44 -70 19 -77 -76 -67 -39 21 -3 -68 -30 -27 7 0
1 44 49 73 9 -34 71 0
1 44 49 73 -9 -77 -42 -74 -11 25 0
1 -44 -70 19 -77 -76 -67 -39 21 3 49 0
1 -44 -70 19 -77 76 62 23 17 0
1 44 49 -73 52 27 35 55 63 -70 0
1 -44 70 6 -72 -63 21 75 65 71 -48 0
1 -44 70 -6 40 -30 65 23 -11 72 0
1 -44 -70 19 -77 76 -62 4 -24 6 67 0
1 44 -49 3 43 16 -24 41 -22 0
-1 3 8 70 -12 -69 5 54 0
1 44 49 73 9 34 28 0
-1 -3 55 30 45 29 0
1 -44 70 -6 40 -30 65 -23 32 27 0
1 -44 70 -6 40 30 28 -50 0
1 44 49 -73 52 27 -35 61 0
1 44 49 73 -9 -77 -42 -74 11 58 0
-1 -3 -55 -25 -35 -40 53 43 0
-1 3 8 70 -12 -69 -5 34 0
1 44 49 -73 -52 -51 -5 -37 0
-1 3 -8 -19 28 -16 37 -11 -22 0
1 44 -49 3 43 16 -24 -41 0
-1 -3 -55 -25 -35 40 15 -34 0
1 -44 -70 -19 11 -12 26 46 -56 17 0
1 -44 -70 -19 11 12 30 78 0
-1 3 -8 -19 -28 47 32 -71 23 0
1 -44 -70 19 -77 76 -62 4 -24 -6 59 43 0
-1 -3 -55 25 -47 -53 9 0
1 44 -49 3 43 16 24 11 -48 0
-1 -3 -55 25 47 -73 4 0
1 44 49 -73 -52 -51 5 -77 -25 0
-1 3 -8 -19 28 16 -79 37 0
-1 -3 55 30 -45 60 -2 0
1 -44 -70 19 -77 76 -62 -4 -52 0
1 -44 70 6 72 41 -12 -50 -48 79 0
1 -44 -70 -19 11 -12 -26 29 -63 66 -9 -65 0
1 44 -49 -3 -36 10 21 24 30 0
1 -44 -70 -19 -11 60 36 -28 -8 0
1 -44 70 6 72 41 -12 -50 48 0
1 44 -49 -3 36 -20 -66 -35 -9 0
-1 -3 -55 25 47 -73 -4 -10 16 -20 0
1 -44 70 -6 40 30 -28 43 16 51 0
-1 3 -8 19 40 71 -37 -70 -9 35 26 0
1 -44 70 -6 40 -30 65 -23 -32 -29 0
1 44 49 73 9 -34 -71 0
1 44 49 -73 -52 -51 5 -77 25 -26 0
1 -44 -70 19 -77 -76 67 21 0
1 -44 -70 19 -77 -76 -67 39 -51 0
-1 -3 -55 25 47 73 -4 -32 5 0
1 44 -49 -3 36 -20 -66 -35 9 0
-1 -3 -55 25 47 -73 -4 -10 -16 57 77 35 0
1 -44 -70 -19 11 -12 -26 29 -63 66 -9 65 2 0
1 -44 70 -6 40 -30 -65 28 -68 0
1 -44 70 6 -72 -63 21 75 65 71 48 0
1 44 -49 3 43 -16 -60 -79 22 0
1 44 -49 3 43 -16 -60 79 67 -78 0
-1 3 -8 19 40 71 -37 -70 -9 -35 0
1 44 -49 -3 36 -20 66 9 12 56 -70 0
1 -44 -70 -19 -11 60 -36 0
1 44 -49 -3 -36 -10 -53 60 0
1 -44 -70 -19 -11 60 36 28 0
1 44 49 73 -9 -77 -42 74 0
1 -44 -70 19 -77 76 -62 4 24 -38 59 0
1 -44 70 6 -72 63 -56 -49 0
-1 3 -8 19 40 71 -37 -70 9 0
1 44 -49 3 -43 54 59 -77 -60 -25 0
-1 3 8 70 -12 69 0
-1 3 -8 19 40 71 -37 -70 -9 35 -26 67 76 0
1 -44 -70 -19 11 -12 -26 29 63 -4 62 76 0
1 44 -49 -3 -36 10 -21 54 0
-1 3 -8 -19 -28 47 32 -71 -23 18 0
1 -44 -70 -19 -11 60 36 -28 8 9 0
1 44 -49 3 -43 54 59 -77 -60 25 -28 0
-1 3 -8 -19 28 -16 -37 -73 62 0
1 -44 70 6 -72 63 56 -48 58 50 68 0
1 44 -49 3 -43 54 59 77 -45 23 0
1 44 -49 3 -43 54 59 -77 -60 25 28 56 0
-1 -3 -55 25 -47 53 0
1 -44 70 -6 -40 -66 38 -36 69 0
1 44 -49 3 43 16 24 11 48 0
1 -44 70 6 -72 63 56 -48 -58 61 0
-1 -3 55 -30 -17 36 24 -60 0
1 44 49 -73 52 27 -35 -61 0
1 44 -49 3 43 -16 -60 79 -67 0
1 -44 70 6 72 41 12 0
-1 3 -8 19 -40 0
1 -44 -70 -19 11 -12 26 46 56 0
-1 3 8 -70 -21 0
-1 3 -8 -19 28 -16 -37 73 26 70 0
-1 -3 55 30 45 -29 0
-1 3 -8 -19 28 -16 37 -11 22 -58 0
1 -44 -70 19 -77 -76 -67 -39 -21 0
1 -44 70 6 -72 63 56 -48 -58 -61 53 -59 0
1 44 -49 -3 36 -20 66 9 -12 43 0
1 44 -49 -3 -36 10 -21 -54 0
1 44 -49 3 -43 -54 -72 0
1 -44 70 6 72 41 -12 -50 -48 -79 0
1 -44 -70 19 -77 -76 67 -21 -27 75 -13 0
1 -44 -70 19 -77 76 -62 4 24 -38 -59 -18 0
-1 -3 55 -30 -17 36 -24 0
1 -44 -70 -19 11 -12 -26 29 63 -4 -62 0
-1 -3 -55 25 47 -73 -4 -10 -16 -57 0
1 44 -49 3 -43 54 59 -77 60 -64 -19 69 0
1 -44 -70 19 77 -75 -55 48 0
1 -44 -70 -19 11 -12 26 46 -56 -17 43 0
-1 3 -8 -19 28 -16 37 11 -23 68 0
1 -44 70 6 -72 63 -56 49 -53 0
1 -44 70 -6 40 30 28 50 0
1 -44 70 6 -72 -63 21 75 -65 0
1 -44 -70 -19 11 -12 26 46 -56 -17 -43 7 0
-1 -3 55 30 -45 -60 27 0
-1 3 -8 -19 28 16 79 0
-1 -3 -55 -25 -35 -40 -53 31 0
1 -44 -70 -19 11 12 30 -78 0
-1 3 8 70 -12 -69 5 -54 14 0
1 44 -49 -3 -36 -10 53 -25 0
1 -44 -70 19 -77 -76 67 -21 27 0
1 -44 -70 -19 11 -12 26 -46 5 0
1 44 49 73 -9 77 72 0
1 -44 -70 19 -77 -76 67 -21 -27 -75 45 -26 0
1 -44 -70 19 -77 76 62 -23 -31 0
1 -44 -70 -19 11 -12 -26 -29 16 0
1 44 49 73 9 34 -28 37 0
1 -44 -70 19 -77 76 62 -23 31 -55 0
1 -44 -70 -19 11 -12 -26 29 -63 66 9 0
1 -44 -70 -19 11 -12 -26 29 -63 -66 36 0
1 44 -49 3 43 -16 60 34 0
1 44 -49 3 -43 54 59 -77 -60 25 28 -56 0
1 -44 -70 19 -77 76 62 -23 31 55 0
1 -44 -70 -19 11 -12 -26 29 63 -4 62 -76 -73 0
1 44 -49 3 43 16 24 -11 69 39 0
1 44 -49 3 -43 54 59 -77 60 -64 -19 -69 -34 0
1 44 49 73 -9 77 -72 0
1 -44 -70 -19 11 -12 -26 29 63 4 -35 0
1 -44 70 6 -72 63 56 -48 -58 -61 -53 0
-1 3 -8 -19 -28 47 32 71 17 0
1 -44 -70 19 -77 76 -62 4 24 38 0
1 -44 70 6 -72 63 56 -48 58 -50 -65 0
1 -44 -70 -19 11 -12 -26 29 63 -4 62 -76 73 0
1 -44 70 -6 -40 66 0
1 -44 -70 19 77 -75 -55 -48 0
-1 -3 -55 25 47 -73 -4 10 0
1 -44 -70 19 -77 76 -62 4 -24 -6 -59 0
-1 -3 -55 -25 35 0
-1 -3 -55 25 47 73 -4 -32 -5 0
1 -44 70 -6 40 -30 65 -23 32 -27 0
1 44 -49 3 43 -16 60 -34 -64 0
1 44 -49 3 43 -16 60 -34 64 0
-1 3 -8 -19 -28 47 -32 0
-1 -3 -55 25 47 73 -4 32 16 0
-1 3 -8 -19 28 -16 -37 73 26 -70 0
-1 3 -8 19 40 71 37 0
1 44 -49 -3 36 -20 -66 35 59 -18 0
1 44 -49 3 -43 54 59 77 -45 -23 0
1 -44 70 -6 40 -30 -65 28 68 0
1 -44 -70 19 -77 76 -62 4 -24 6 -67 0
1 -44 -70 -19 11 -12 26 46 -56 -17 -43 -7 0
-1 3 -8 -19 -28 47 32 71 -17 0
1 -44 -70 19 -77 -76 -67 -39 21 -3 -68 30 0
-1 -3 55 30 -45 60 2 78 0
1 44 -49 3 43 -16 -60 -79 -22 0
1 -44 -70 19 -77 -76 -67 39 51 -65 -38 -34 0
1 -44 -70 -19 11 -12 -26 -29 -16 0
1 44 -49 3 -43 54 59 -77 60 64 0
1 44 -49 -3 -36 -10 53 25 0
1 44 49 -73 -52 -51 5 77 0
-1 3 -8 -19 28 -16 37 -11 22 58 0
1 -44 70 6 -72 63 56 -48 58 -50 65 0
1 44 -49 -3 -36 10 21 24 -30 0
1 -44 70 -6 -40 -66 38 -36 -69 0
1 44 -49 3 -43 -54 72 46 -45 61 0
1 44 -49 3 -43 54 59 -77 60 -64 19 -32 0
1 44 -49 3 -43 54 59 -77 60 -64 19 32 0
1 44 49 -73 52 27 35 55 -63 77 0
1 44 49 -73 -52 51 37 -53 0
-1 3 8 70 12 -55 -50 0
-1 3 -8 -19 28 -16 -37 73 -26 0
1 -44 -70 19 -77 76 -62 -4 52 0
1 -44 70 -6 40 30 -28 -43 -56 0
-1 3 -8 19 40 71 -37 -70 -9 35 -26 -67 0
1 44 -49 -3 36 -20 66 -9 -17 -74 0
1 44 -49 3 43 16 24 -11 69 -39 0
1 -44 70 6 -72 -63 21 75 65 -71 0
-1 -3 -55 -25 -35 -40 53 -43 0
1 -44 70 -6 40 -30 -65 -28 34 -2 -24 0
-1 -3 -55 25 47 -73 -4 -10 16 20 0
1 44 -49 3 -43 54 59 -77 60 -64 -19 -69 34 0
1 -44 70 6 -72 63 56 -48 58 50 -68 0
-1 -3 -55 25 47 73 -4 32 -16 0
1 -44 -70 -19 11 12 -30 0
-1 3 8 70 12 -55 50 0
1 -44 -70 -19 -11 -60 -79 0
-1 3 8 70 -12 -69 -5 -34 0
1 -44 70 6 -72 -63 -21 0
1 -44 -70 19 -77 76 -62 4 24 -38 -59 18 0
1 -44 70 6 -72 63 56 -48 -58 -61 53 59 0
1 -44 -70 19 -77 76 -62 4 -24 -6 59 -43 0
-1 3 -8 -19 -28 -47 0
1 -44 70 -6 -40 -66 38 36 0
1 -44 70 -6 40 -30 65 23 11 -18 0
1 44 49 -73 -52 -51 5 -77 25 26 0
-1 3 -8 -19 28 -16 -37 -73 -62 0
1 44 49 -73 -52 -51 -5 37 -70 -25 0
-1 -3 55 -30 -17 36 24 60 0
1 44 -49 3 -43 -54 72 46 45 0
1 -44 70 6 -72 -63 21 -75 0
1 44 -49 3 43 16 -24 41 22 0
1 -44 70 -6 40 30 -28 -43 56 0
-1 3 -8 19 40 71 -37 -70 -9 35 -26 67 -76 0
1 -44 70 -6 40 -30 -65 -28 34 -2 24 0
1 44 49 -73 52 27 35 55 63 70 -68 0
1 44 -49 -3 36 -20 66 -9 17 0
-1 3 8 70 -12 -69 5 -54 -14 0
1 -44 70 -6 40 -30 -65 -28 -34 -38 -12 0
1 44 -49 3 -43 -54 72 -46 38 0
1 -44 -70 -19 -11 -60 79 0
1 44 49 -73 -52 51 37 53 -35 0
-1 3 -8 -19 28 16 -79 -37 0
1 -44 -70 19 -77 -76 -67 39 51 -65 -38 34 0
1 -44 -70 19 77 75 0
1 -44 -70 -19 11 -12 -26 29 63 4 35 0
1 -44 -70 -19 11 -12 26 -46 -5 0
1 44 49 -73 52 27 35 55 63 70 68 17 0
-1 -3 -55 -25 -35 -40 -53 -31 0
1 44 49 -73 52 -27 0
1 44 49 -73 52 27 35 -55 -64 0
1 -44 -70 19 -77 -76 -67 39 51 -65 38 0
-1 -3 55 -30 17 0
1 -44 70 -6 40 -30 -65 -28 34 2 0
1 44 -49 3 43 16 24 -11 -69 4 0
1 44 -49 3 43 16 24 -11 -69 -4 56 0
-1 -3 -55 -25 -35 40 -15 0
1 44 -49 -3 36 -20 -66 35 -59 0
-1 -3 55 -30 -17 -36 0
