c NeuroCodeBench 2.0 CNF formula with verdict Unsat
p cnf 25 208
1 22 -10 -8 19 -11 4 -6 -14 0
-1 5 -10 17 -4 -18 23 25 0
1 22 -10 -8 -19 -4 0
1 22 -10 8 19 2 12 0
-1 5 -10 -17 4 13 6 19 0
-1 5 -10 17 4 7 -11 0
1 22 -10 -8 -19 4 -2 0
-1 5 -10 -17 4 -13 0
-1 5 10 -2 -8 -17 13 0
-1 -5 7 9 -12 16 20 -22 0
1 -22 -9 -19 -11 -10 5 0
-1 -5 7 9 -12 16 -20 24 0
-1 5 10 2 6 -11 -16 0
-1 5 10 2 6 -11 16 9 0
-1 -5 -7 -14 19 3 -4 0
-1 -5 7 -9 -23 4 20 25 0
-1 5 10 2 -6 -20 -23 9 18 0
1 22 10 13 15 -11 0
1 22 -10 -8 19 11 -14 25 4 13 15 0
-1 -5 -7 -14 -19 -22 10 -15 0
1 -22 -9 -19 -11 10 -17 -14 0
-1 5 10 2 -6 -20 -23 -9 0
1 -22 -9 -19 -11 10 17 -6 15 0
1 -22 9 -8 5 -4 -20 0
1 -22 -9 -19 11 -5 21 20 14 0
-1 5 10 -2 8 9 24 0
-1 5 10 -2 8 9 -24 -6 -15 0
-1 -5 -7 -14 -19 -22 10 15 0
1 22 10 13 -15 12 2 23 -25 11 0
1 -22 -9 -19 11 -5 21 20 -14 0
-1 -5 -7 14 -10 3 12 0
1 -22 9 8 -19 17 0
1 22 10 13 -15 12 -2 -25 -9 0
1 -22 9 8 19 23 -6 20 0
-1 -5 -7 14 -10 -3 -13 -15 -4 -22 -6 0
-1 5 -10 17 4 7 11 0
1 -22 -9 19 -20 -21 0
-1 5 10 -2 8 9 -24 -6 15 0
-1 5 10 2 6 11 25 -21 0
1 -22 -9 -19 11 -5 -21 0
-1 -5 7 -9 -23 4 -20 -25 0
-1 -5 -7 14 10 -9 23 0
-1 5 10 -2 -8 17 25 -14 0
1 -22 9 8 19 23 -6 -20 -21 0
-1 -5 -7 14 10 -9 -23 0
-1 -5 -7 14 -10 -3 -13 -15 -4 22 0
1 22 -10 8 19 -2 5 15 0
1 22 -10 -8 19 11 14 -13 4 7 0
-1 -5 7 -9 23 25 -16 14 0
-1 5 10 -2 8 -9 21 11 0
1 22 -10 -8 19 11 14 13 -21 0
1 -22 -9 19 20 -11 4 3 0
-1 5 -10 17 4 -7 0
1 22 10 -13 -21 -15 -20 -6 0
1 22 10 -13 -21 -15 -20 6 -14 0
-1 5 -10 17 -4 -18 -23 -9 0
-1 -5 -7 -14 -19 22 -20 0
-1 -5 7 -9 23 -25 -11 21 4 0
-1 -5 -7 14 -10 -3 13 24 -18 0
-1 5 10 -2 -8 -17 -13 -3 0
-1 5 -10 17 -4 -18 -23 9 0
-1 -5 7 -9 -23 4 -20 25 -10 -14 -12 0
-1 5 10 2 -6 20 -21 -13 19 0
1 22 10 13 -15 12 2 -23 -11 0
1 22 -10 -8 19 11 -14 25 4 13 -15 0
-1 -5 7 9 12 -6 14 17 -18 0
-1 -5 -7 -14 19 -3 -21 20 0
1 -22 -9 -19 -11 10 17 -6 -15 0
-1 -5 -7 14 -10 -3 -13 15 -16 9 0
-1 5 10 -2 8 -9 -21 0
-1 -5 -7 14 -10 -3 -13 15 -16 -9 -12 22 0
1 -22 9 -8 -5 -11 -19 0
1 -22 9 8 19 -23 -4 0
-1 5 10 2 -6 -20 23 19 0
1 22 -10 -8 -19 4 2 -3 0
-1 5 -10 17 -4 -18 23 -25 -11 0
1 22 10 13 -15 12 2 -23 11 -3 0
-1 -5 7 9 12 6 0
-1 -5 -7 14 -10 -3 -13 -15 4 -18 0
1 22 -10 -8 19 11 -14 -25 17 -15 0
-1 -5 7 9 12 -6 14 -17 -2 0
1 22 -10 -8 19 11 -14 25 4 -13 23 0
-1 -5 -7 14 -10 -3 -13 -15 4 18 -17 0
1 22 -10 -8 19 11 14 -13 4 -7 0
1 22 10 13 15 11 4 0
1 -22 9 8 -19 -17 -25 0
1 22 -10 -8 19 11 -14 25 4 -13 -23 0
-1 -5 -7 14 -10 -3 -13 15 -16 -9 12 0
1 -22 -9 -19 -11 10 -17 14 20 0
1 -22 -9 -19 11 -5 21 -20 0
1 22 -10 -8 19 11 -14 -25 17 15 0
1 22 10 13 -15 12 2 -23 11 3 -25 0
-1 5 10 -2 8 9 -24 6 14 0
1 22 10 -13 21 -5 3 -20 12 0
-1 -5 -7 -14 -19 -22 -10 0
-1 5 -10 -17 4 13 -6 21 0
1 22 -10 8 19 -2 5 -15 0
1 22 10 13 -15 12 -2 -25 9 0
1 22 -10 8 19 2 -12 0
1 22 -10 -8 19 11 -14 -25 -17 -15 0
1 22 -10 -8 19 -11 -4 0
1 -22 9 8 -19 -17 25 14 0
-1 5 10 -2 -8 17 -25 0
-1 5 -10 -17 -4 23 0
1 22 10 -13 21 5 17 0
1 -22 -9 19 20 -11 -4 0
-1 -5 -7 14 10 9 -11 -15 0
1 22 -10 -8 19 11 -14 -25 -17 15 0
-1 -5 7 9 12 -6 -14 0
1 22 10 -13 21 -5 -3 0
1 -22 -9 -19 11 5 0
1 -22 9 8 19 23 6 0
1 22 10 -13 21 5 -17 0
1 -22 9 -8 5 4 0
-1 -5 7 -9 23 25 -16 -14 0
-1 5 10 2 6 11 -25 0
-1 -5 7 9 12 -6 14 -17 2 0
-1 -5 7 -9 23 -25 -11 -21 0
-1 -5 -7 14 10 9 -11 15 0
1 22 10 13 -15 -12 0
-1 -5 -7 14 -10 -3 13 24 18 0
1 22 10 -13 -21 -15 20 0
1 22 -10 8 19 -2 -5 0
1 -22 -9 -19 -11 -10 -5 -16 13 0
1 22 10 -13 -21 15 0
1 22 10 13 -15 12 2 -23 11 3 25 0
1 -22 -9 19 -20 21 -11 14 0
1 -22 9 -8 -5 11 0
1 -22 9 -8 5 -4 20 0
1 -22 -9 -19 -11 10 17 6 0
-1 -5 -7 14 -10 -3 -13 -15 4 18 17 0
1 -22 9 8 19 23 -6 -20 21 24 0
-1 5 -10 -17 4 13 6 -19 0
-1 5 10 2 -6 20 -21 13 0
-1 -5 7 9 12 -6 14 17 18 0
1 22 10 13 -15 12 2 23 25 6 0
1 22 -10 -8 19 11 14 13 21 16 -24 0
1 22 -10 -8 19 11 14 -13 -4 -2 0
-1 -5 7 -9 -23 4 -20 25 -10 14 0
-1 5 -10 17 -4 18 0
1 22 -10 -8 19 -11 4 6 0
1 22 10 13 -15 12 2 23 -25 -11 7 0
-1 -5 7 -9 -23 -4 0
-1 -5 -7 14 10 9 11 0
-1 5 10 -2 -8 17 25 14 -18 0
-1 -5 7 -9 23 -25 11 0
-1 -5 -7 -14 19 3 4 0
-1 -5 7 -9 -23 4 20 -25 -24 0
1 22 -10 -8 19 -11 4 -6 14 0
-1 -5 -7 14 -10 -3 13 -24 -9 0
1 22 -10 -8 19 11 14 13 21 16 24 0
1 -22 9 8 19 -23 4 0
1 -22 -9 19 20 11 6 0
-1 -5 -7 14 -10 -3 -13 15 -16 -9 -12 -22 0
-1 -5 -7 -14 19 -3 21 0
1 22 10 13 -15 12 -2 25 0
-1 -5 7 9 -12 16 20 22 -10 0
-1 -5 -7 -14 -19 22 20 0
-1 5 10 2 -6 20 21 8 0
1 -22 9 -8 -5 -11 19 0
-1 -5 7 -9 -23 4 20 -25 24 0
1 -22 -9 19 20 -11 4 -3 0
-1 5 10 -2 8 9 -24 6 -14 0
-1 -5 -7 14 -10 3 -12 -25 0
-1 5 10 2 6 11 25 21 0
-1 5 -10 -17 -4 -23 0
1 -22 9 8 -19 -17 25 -14 0
-1 -5 7 9 -12 16 -20 -24 0
-1 5 10 2 6 -11 16 -9 0
-1 5 10 2 -6 -20 -23 9 -18 0
-1 5 10 -2 -8 -17 -13 3 0
1 22 10 -13 21 -5 3 20 0
1 22 -10 8 -19 7 0
1 22 10 13 -15 12 2 23 -25 -11 -7 0
1 22 -10 -8 19 11 14 -13 -4 2 0
1 22 10 13 15 11 -4 0
-1 5 10 -2 8 -9 21 -11 0
-1 5 10 2 -6 20 21 -8 0
1 -22 9 8 19 23 -6 -20 21 -24 0
-1 -5 7 -9 23 25 16 0
-1 5 -10 17 -4 -18 23 -25 11 0
-1 -5 7 -9 -23 4 -20 25 -10 -14 12 0
1 -22 -9 19 -20 21 11 0
-1 -5 7 9 -12 16 20 22 10 0
1 22 10 13 -15 12 2 23 25 -6 0
1 22 -10 -8 19 11 -14 25 -4 0
-1 -5 -7 -14 19 -3 -21 -20 0
-1 5 10 2 -6 -20 23 -19 0
1 22 -10 -8 -19 4 2 3 0
1 -22 -9 -19 -11 -10 -5 16 0
1 -22 -9 19 -20 21 -11 -14 0
1 22 -10 -8 19 11 14 13 21 -16 0
-1 5 -10 -17 4 13 -6 -21 0
1 22 10 -13 21 -5 3 -20 -12 0
-1 -5 -7 14 -10 3 -12 25 0
-1 5 10 2 -6 20 -21 -13 -19 0
-1 -5 -7 14 -10 -3 -13 15 16 0
-1 -5 7 9 -12 -16 0
1 -22 -9 19 20 11 -6 0
-1 -5 7 -9 23 -25 -11 21 -4 0
1 22 -10 8 -19 -7 0
-1 -5 -7 14 -10 -3 -13 -15 -4 -22 6 0
1 -22 -9 -19 -11 10 -17 14 -20 0
1 22 10 -13 -21 -15 -20 6 14 0
-1 -5 7 -9 -23 4 -20 25 10 0
-1 5 10 -2 -8 17 25 14 18 0
1 -22 -9 -19 -11 -10 -5 -16 -13 0
-1 -5 -7 14 -10 -3 13 -24 9 0
