c NeuroCodeBench 2.0 CNF formula with verdict Unsat
p cnf 77 147
-1 31 -21 11 -15 -29 -72 0
-1 -31 -6 42 -37 -48 9 -55 -75 0
-1 -31 -6 42 -37 48 -56 0
-1 -31 -6 -42 59 -13 57 0
-1 -31 -6 42 -37 -48 -9 -76 4 0
1 -65 -46 59 58 -22 0
-1 -31 6 -20 39 69 52 0
-1 31 -21 11 -15 29 58 75 0
-1 31 -21 11 -15 -29 72 -43 0
-1 31 21 60 -36 66 16 59 0
-1 31 21 60 36 53 9 67 62 0
-1 31 21 -60 -35 -48 3 0
1 -65 -46 -59 75 -38 52 11 0
-1 31 21 60 -36 66 16 -59 -58 20 0
1 -65 46 3 -63 12 -26 -77 -38 -68 31 0
1 65 -54 39 44 -38 0
1 -65 46 -3 -34 6 0
1 -65 -46 -59 -75 13 -42 -3 0
-1 31 -21 -11 -32 0
-1 31 -21 -11 32 0
-1 -31 -6 -42 59 13 35 0
1 -65 46 -3 34 21 -49 -57 -19 -15 39 0
-1 -31 -6 42 37 65 36 -9 0
1 -65 46 3 -63 12 -26 -77 -38 -68 -31 0
1 -65 46 -3 34 -21 70 40 -66 0
-1 -31 -6 42 37 65 36 9 0
1 -65 -46 -59 75 38 -43 37 0
1 -65 46 -3 34 -21 70 -40 72 0
1 65 -54 -39 0
-1 31 -21 11 15 71 0
1 -65 46 -3 34 -21 -70 13 -64 0
-1 31 21 60 -36 -66 34 23 18 -8 -41 0
1 -65 46 3 -63 12 26 41 0
1 -65 46 -3 34 -21 -70 13 64 0
-1 -31 -6 42 -37 48 56 26 0
-1 31 21 60 36 53 9 67 -62 0
1 -65 46 -3 34 21 -49 57 0
1 -65 46 3 63 -75 -52 -28 -14 0
-1 31 21 60 -36 -66 34 23 18 -8 41 0
-1 31 -21 11 -15 -29 72 43 0
1 -65 46 3 63 -75 52 0
1 -65 46 -3 34 -21 70 -40 -72 0
1 -65 -46 -59 -75 13 42 62 0
-1 31 21 -60 35 29 0
-1 -31 -6 42 37 65 -36 0
-1 31 21 60 -36 -66 -34 -3 11 56 0
-1 31 21 -60 35 -29 15 -76 62 0
1 65 54 -10 0
1 -65 46 -3 34 21 -49 -57 -19 -15 -39 0
-1 -31 6 20 27 -16 -4 -40 0
-1 31 21 -60 -35 -48 -3 -65 0
-1 31 21 60 -36 66 -16 0
1 -65 -46 -59 -75 13 -42 3 45 39 0
1 -65 46 -3 -34 -6 0
-1 31 -21 11 -15 29 -58 47 8 63 54 0
-1 31 21 60 36 53 -9 0
-1 31 21 60 36 -53 -18 0
1 -65 46 -3 34 21 49 -60 17 0
-1 -31 6 20 -27 67 0
-1 -31 6 20 27 -16 -4 40 35 -32 0
-1 -31 6 20 27 -16 -4 40 35 32 0
-1 31 -21 11 15 -71 17 0
1 -65 46 -3 34 21 49 -60 -17 0
1 -65 -46 -59 75 -38 -52 0
-1 31 21 -60 35 -29 -15 -24 -53 0
1 -65 46 3 63 75 7 0
-1 31 21 60 -36 -66 -34 -3 11 -56 39 -17 0
-1 -31 6 20 27 -16 4 24 0
-1 -31 -6 42 -37 -48 -9 -76 -4 0
-1 -31 -6 42 -37 -48 9 55 0
-1 -31 -6 42 -37 -48 -9 76 -44 0
1 -65 46 3 63 -75 -52 28 0
1 -65 -46 -59 -75 13 -42 3 45 -39 0
-1 -31 6 20 27 -16 -4 40 -35 -75 -14 0
1 -65 -46 -59 75 38 -43 -37 0
-1 -31 -6 42 -37 -48 9 -55 75 -44 0
1 -65 46 -3 34 -21 -70 -13 72 0
-1 31 21 60 -36 -66 34 23 18 8 0
1 -65 46 3 -63 12 -26 -77 38 0
-1 31 21 60 -36 -66 -34 3 39 0
-1 -31 -6 42 37 -65 0
-1 31 21 -60 35 -29 -15 24 0
1 -65 46 -3 34 -21 -70 -13 -72 0
-1 31 -21 11 15 -71 -17 -35 0
-1 31 21 60 -36 -66 34 -23 0
1 -65 46 3 63 75 -7 0
-1 31 -21 11 -15 29 -58 47 -8 0
-1 -31 6 -20 39 69 -52 0
-1 31 21 60 -36 -66 34 23 -18 0
-1 31 -21 11 -15 29 58 -75 0
1 -65 -46 -59 -75 -13 0
-1 31 21 60 -36 -66 -34 -3 -11 0
1 65 -54 39 44 38 0
1 -65 46 3 -63 -12 56 -10 0
-1 -31 6 20 27 16 23 0
1 -65 46 -3 34 -21 70 40 66 0
-1 31 21 60 -36 66 16 -59 -58 -20 0
-1 -31 6 20 27 -16 4 -24 0
-1 31 21 60 -36 -66 -34 -3 11 -56 -39 0
1 -65 -46 -59 -75 13 -42 3 -45 0
-1 -31 6 20 27 16 -23 0
-1 -31 -6 -42 59 13 -35 0
-1 31 21 60 -36 -66 -34 -3 11 -56 39 17 0
1 65 54 10 0
-1 31 -21 11 15 -71 -17 35 55 0
-1 31 21 -60 -35 48 73 0
-1 31 -21 11 15 -71 -17 35 -55 0
-1 31 21 60 36 -53 18 0
-1 -31 -6 -42 -59 0
-1 31 21 60 -36 -66 -34 3 -39 0
1 -65 -46 -59 -75 13 42 -62 0
-1 31 21 -60 -35 -48 -3 65 0
-1 31 21 -60 35 -29 15 -76 -62 0
-1 31 -21 11 -15 29 -58 -47 0
1 -65 -46 59 -58 0
-1 31 -21 11 -15 29 -58 47 8 63 -54 0
1 -65 46 3 -63 -12 56 10 0
-1 31 21 60 -36 66 16 -59 58 0
-1 31 21 -60 -35 48 -73 61 0
1 -65 -46 -59 75 38 43 0
-1 -31 6 -20 39 -69 0
-1 -31 -6 42 -37 -48 9 -55 75 44 0
1 -65 46 -3 34 21 -49 -57 19 0
-1 -31 6 20 27 -16 -4 40 -35 75 0
1 -65 46 -3 34 21 49 60 0
1 -65 46 3 -63 12 -26 -77 -38 68 0
-1 -31 6 20 -27 -67 0
1 -65 46 -3 34 21 -49 -57 -19 15 0
-1 31 -21 11 -15 29 -58 47 8 -63 0
-1 -31 -6 -42 59 -13 -57 0
1 -65 -46 -59 75 -38 52 -11 0
-1 -31 6 20 27 -16 -4 40 -35 -75 14 55 0
1 -65 46 3 -63 12 -26 77 0
-1 -31 6 20 27 -16 -4 40 -35 -75 14 -55 0
-1 31 21 -60 35 -29 15 76 0
1 65 -54 39 -44 0
1 -65 46 3 -63 12 26 -41 0
1 -65 46 3 63 -75 -52 -28 14 0
1 -65 -46 59 58 22 0
-1 31 21 60 36 53 9 -67 0
-1 -31 6 -20 -39 -64 0
-1 -31 6 -20 -39 64 0
-1 31 21 -60 35 -29 -15 -24 53 0
-1 -31 -6 42 -37 48 56 -26 0
-1 31 21 -60 -35 48 -73 -61 0
-1 -31 -6 42 -37 -48 -9 76 44 0
1 -65 46 3 -63 -12 -56 0
