c NeuroCodeBench 2.0 CNF formula with verdict Unsat
p cnf 7 52
1 3 5 -6 -7 0
1 -3 4 2 -7 5 -6 0
1 3 -5 2 -6 0
1 -3 -4 -2 -7 0
1 -3 4 2 -7 5 6 0
-1 -5 -7 -6 3 4 2 0
-1 5 -6 -3 4 2 7 0
-1 -5 -7 6 -3 4 0
1 3 -5 2 6 -4 0
-1 5 6 3 2 0
1 -3 -4 2 -7 0
-1 5 -6 -3 -4 7 0
-1 5 6 -3 4 -2 -7 0
1 -3 -4 -2 7 5 0
-1 -5 7 -2 0
1 3 -5 -2 -7 0
1 -3 4 2 -7 -5 -6 0
1 3 5 -6 7 0
1 -3 4 2 7 0
-1 -5 7 2 6 -4 -3 0
1 -3 4 -2 -6 0
-1 -5 7 2 6 -4 3 0
1 -3 4 2 -7 -5 6 0
-1 -5 -7 -6 3 4 -2 0
-1 5 -6 -3 -4 -7 2 0
1 -3 4 -2 6 0
-1 5 -6 3 -2 -7 -4 0
-1 5 -6 3 2 -7 0
-1 -5 -7 6 3 0
-1 -5 -7 -6 3 -4 2 0
-1 5 -6 -3 4 -2 0
-1 -5 7 2 6 4 0
1 3 -5 2 6 4 0
-1 5 6 3 -2 0
1 -3 -4 -2 7 -5 0
-1 -5 7 2 -6 -4 0
-1 5 -6 3 -2 7 0
1 -3 -4 2 7 0
-1 -5 7 2 -6 4 3 0
1 3 5 6 0
-1 -5 7 2 -6 4 -3 0
-1 5 -6 -3 4 2 -7 0
1 3 -5 -2 7 0
-1 5 6 -3 4 -2 7 0
-1 5 -6 -3 -4 -7 -2 0
-1 -5 -7 -6 3 -4 -2 0
-1 5 -6 3 -2 -7 4 0
-1 -5 -7 6 -3 -4 0
-1 5 6 -3 4 2 0
-1 5 -6 3 2 7 0
-1 -5 -7 -6 -3 0
-1 5 6 -3 -4 0
