c NeuroCodeBench 2.0 CNF formula with verdict Unsat
p cnf 32 226
1 -20 27 -16 24 25 -28 0
-1 -23 12 -10 31 -20 -30 17 13 0
-1 23 4 19 26 16 -2 -10 0
-1 -23 12 10 9 31 27 -7 0
-1 -23 12 -10 -31 -24 26 2 3 0
-1 -23 12 -10 -31 24 -4 -19 -6 0
-1 -23 -12 -22 -21 7 -13 -26 -27 32 5 30 0
1 -20 27 -16 -24 0
1 -20 27 16 14 -3 18 23 29 -8 0
-1 -23 12 10 9 31 -27 -24 0
-1 -23 -12 -22 -21 7 -13 26 -16 -15 0
-1 23 -4 9 -7 -21 29 0
1 -20 -27 -24 -5 3 -19 0
-1 -23 12 -10 31 20 -18 -21 25 0
1 -20 -27 -24 -5 -3 29 0
1 -20 27 16 14 3 -7 -24 22 0
-1 -23 12 10 9 31 27 7 4 0
-1 -23 12 -10 31 -20 30 -2 -21 -11 0
-1 -23 12 -10 31 -20 30 -2 21 17 -27 0
-1 -23 -12 22 -9 29 -3 18 2 0
-1 23 4 19 26 16 2 32 -13 0
1 -20 -27 24 14 -18 8 0
-1 -23 -12 22 -9 -29 -8 14 0
1 -20 27 16 -14 -2 28 -25 19 0
-1 23 4 -19 30 29 -3 16 27 24 0
-1 23 4 -19 30 -29 5 14 -28 12 21 0
-1 -23 -12 22 -9 29 3 0
1 20 -26 17 11 0
-1 -23 12 10 9 31 -27 24 -20 -15 0
1 -20 27 16 -14 -2 -28 9 6 0
-1 23 -4 9 7 19 6 13 -11 0
-1 23 4 -19 -30 5 2 -21 -31 0
-1 23 4 -19 -30 5 -2 -7 14 9 0
-1 -23 -12 22 -9 29 -3 18 -2 5 -30 0
-1 23 4 19 -26 -13 15 20 10 0
-1 -23 12 -10 -31 -24 26 -2 22 -6 0
1 -20 -27 24 14 -18 -8 0
-1 -23 -12 -22 -21 7 -13 -26 -27 32 5 -30 6 0
-1 -23 12 10 -9 7 0
-1 23 4 19 26 16 -2 10 -17 0
1 20 -26 17 -11 -22 -5 0
-1 23 4 19 -26 -13 -15 27 -30 18 0
-1 -23 -12 22 -9 29 -3 18 -2 -5 0
1 20 -26 -17 11 0
1 -20 27 -16 24 -25 7 10 0
1 -20 27 16 14 -3 18 -23 0
1 -20 -27 24 14 18 -13 0
-1 -23 12 -10 31 -20 -30 -17 -22 14 -5 0
1 -20 27 16 -14 -2 -28 -9 26 -10 0
-1 23 4 -19 -30 5 2 21 0
1 -20 27 16 14 -3 -18 25 2 -9 0
1 -20 27 16 14 3 7 10 -11 0
1 -20 27 16 14 3 -7 24 12 0
1 -20 27 16 14 -3 -18 25 2 9 0
-1 23 4 19 26 -16 -29 0
-1 -23 -12 -22 -21 -7 8 -11 9 0
-1 23 4 19 -26 13 -30 5 0
-1 23 4 -19 30 -29 -5 27 -2 0
1 -20 -27 24 14 18 13 -12 -26 0
-1 23 -4 -9 -28 -20 0
-1 -23 -12 -22 -21 -7 -8 -10 0
-1 23 -4 9 7 -19 12 0
-1 23 4 -19 30 -29 5 14 -28 12 -21 0
-1 23 4 -19 30 29 -3 16 27 -24 0
-1 -23 12 10 -9 -7 20 0
-1 23 -4 9 -7 -21 -29 0
-1 -23 12 -10 -31 24 -4 19 0
1 -20 27 16 -14 -2 -28 -9 -26 -3 0
1 -20 27 16 -14 -2 -28 -9 26 10 0
-1 23 4 -19 30 -29 5 14 -28 -12 0
-1 -23 -12 -22 -21 7 -13 -26 27 0
-1 23 4 -19 -30 -5 16 13 24 -29 22 0
1 -20 27 16 -14 -2 -28 9 -6 0
-1 -23 -12 22 -9 -29 8 -10 -18 0
-1 23 -4 9 -7 21 3 29 -12 0
-1 23 4 -19 30 -29 5 14 28 0
-1 23 4 -19 30 29 -3 16 -27 7 0
-1 -23 -12 22 9 28 2 14 0
-1 -23 12 -10 31 -20 -30 17 -13 0
-1 -23 -12 22 -9 -29 -8 -14 0
-1 -23 -12 22 -9 -29 8 -10 18 0
-1 23 -4 -9 28 29 0
-1 23 4 19 26 16 -2 10 17 0
-1 -23 12 -10 31 -20 30 -2 21 17 27 0
-1 -23 -12 -22 -21 -7 8 11 3 6 -14 5 0
-1 -23 12 -10 -31 -24 26 -2 -22 -21 0
-1 23 4 -19 -30 5 -2 -7 -14 8 0
-1 -23 12 -10 31 -20 30 2 0
1 -20 27 16 14 -3 18 23 -29 0
-1 -23 -12 -22 -21 7 -13 -26 -27 32 5 -30 -6 0
1 -20 27 16 14 -3 -18 25 -2 -30 -9 0
-1 23 4 -19 -30 -5 16 13 -24 0
-1 23 4 -19 -30 -5 -16 -31 25 0
-1 -23 12 -10 31 20 18 -5 -21 0
1 -20 27 16 14 3 -7 -24 -22 0
-1 -23 -12 -22 -21 -7 8 11 3 -6 0
1 -20 -27 -24 -5 3 19 0
-1 23 4 19 -26 -13 -15 -27 21 0
-1 23 4 -19 30 29 3 22 0
-1 -23 12 -10 -31 -24 -26 -14 -4 7 0
-1 23 -4 9 7 19 6 -13 0
-1 23 4 -19 30 29 -3 -16 21 0
-1 23 4 -19 -30 5 -2 -7 -14 -8 0
1 -20 -27 24 -14 17 -25 0
-1 23 4 -19 30 -29 -5 -27 -12 0
1 -20 27 16 14 3 7 -10 0
1 -20 27 16 14 -3 -18 25 -2 30 0
-1 23 4 -19 -30 -5 -16 -31 -25 12 0
-1 -23 12 -10 -31 -24 -26 14 0
1 -20 27 16 -14 2 31 23 0
1 -20 27 16 -14 2 -31 0
1 -20 -27 24 14 18 13 -12 26 0
-1 23 4 19 26 -16 29 -20 0
1 20 26 0
1 -20 -27 24 -14 -17 0
1 -20 27 16 -14 2 31 -23 0
-1 -23 -12 -22 -21 -7 8 11 3 6 14 0
-1 -23 12 10 -9 -7 -20 -2 0
-1 -23 12 -10 31 -20 30 -2 -21 11 0
-1 -23 -12 22 9 -28 27 21 0
-1 -23 -12 -22 -21 7 13 31 -8 0
-1 23 4 -19 30 29 -3 16 -27 -7 0
-1 -23 12 -10 31 -20 -30 -17 -22 -14 -26 -16 0
1 -20 27 16 -14 -2 28 25 0
-1 -23 -12 22 -9 29 -3 -18 0
-1 23 4 -19 30 29 3 -22 0
-1 23 -4 9 7 19 6 13 11 0
-1 23 4 19 -26 -13 -15 27 30 -24 0
-1 -23 12 -10 31 -20 -30 -17 -22 -14 -26 16 0
-1 -23 12 -10 31 20 -18 21 28 0
-1 -23 -12 -22 -21 7 -13 26 16 0
-1 -23 12 -10 31 -20 30 -2 21 -17 0
-1 23 4 -19 -30 -5 16 -13 0
-1 23 4 19 -26 13 -30 -5 0
1 -20 -27 -24 -5 -3 -29 0
1 -20 27 -16 24 -25 -7 22 0
-1 -23 12 -10 31 -20 -30 -17 22 29 0
1 -20 27 -16 24 25 28 -18 0
-1 -23 12 -10 -31 24 4 0
-1 -23 -12 22 9 -28 -27 0
-1 -23 12 -10 31 -20 -30 -17 -22 -14 26 0
-1 -23 12 -10 -31 -24 -26 -14 -4 -7 0
1 -20 -27 24 -14 17 25 0
-1 23 4 19 -26 -13 -15 27 30 24 0
1 -20 27 -16 24 25 28 18 0
-1 -23 -12 -22 -21 7 -13 -26 -27 32 -5 0
-1 23 -4 -9 28 -29 0
-1 -23 -12 22 -9 -29 8 10 0
-1 -23 -12 -22 -21 -7 -8 10 0
-1 -23 12 10 9 31 -27 24 20 0
-1 23 4 -19 -30 5 -2 7 -3 0
1 -20 27 -16 24 -25 -7 -22 -9 0
-1 23 -4 9 -7 21 -3 0
-1 -23 -12 22 9 28 -2 16 0
1 -20 27 16 14 3 7 10 11 0
1 -20 27 -16 24 -25 -7 -22 9 0
-1 -23 -12 -22 -21 7 -13 -26 -27 -32 0
-1 -23 -12 22 9 28 2 -14 0
1 -20 27 16 14 -3 -18 25 -2 -30 9 0
-1 23 4 -19 30 -29 -5 27 2 0
-1 23 4 19 26 16 2 32 13 0
1 -20 27 16 14 3 -7 24 -12 0
-1 23 4 -19 -30 -5 16 13 24 -29 -22 0
1 -20 27 16 -14 -2 28 -25 -19 0
1 -20 -27 24 14 18 13 12 0
-1 -23 -12 -22 -21 7 13 31 8 0
-1 -23 12 10 9 31 27 7 -4 0
-1 23 4 19 -26 -13 15 -20 0
1 20 -26 -17 -11 0
-1 23 4 -19 30 -29 -5 -27 12 0
-1 23 4 19 26 16 2 -32 -24 0
-1 23 -4 9 7 -19 -12 0
-1 23 -4 -9 -28 20 0
-1 -23 -12 22 9 -28 27 -21 -2 15 0
-1 -23 12 -10 31 20 18 5 0
1 -20 -27 -24 5 0
-1 -23 12 -10 -31 -24 26 2 -3 0
-1 23 4 19 -26 -13 15 20 -10 0
-1 -23 12 -10 31 20 -18 -21 -25 17 0
-1 -23 -12 22 9 -28 27 -21 2 0
-1 23 4 -19 -30 5 2 -21 31 0
-1 -23 -12 22 9 28 -2 -16 0
1 20 -26 17 -11 22 0
-1 -23 12 -10 -31 24 -4 -19 6 0
-1 23 4 19 26 16 2 -32 24 0
1 -20 27 16 -14 -2 -28 -9 -26 3 0
-1 23 4 -19 -30 -5 -16 31 0
1 -20 27 -16 24 -25 7 -10 0
-1 -23 12 -10 31 -20 -30 -17 22 -29 0
-1 -23 12 -10 31 20 -18 -21 -25 -17 0
-1 -23 -12 -22 -21 7 -13 26 -16 15 0
-1 23 4 19 -26 13 30 -9 0
-1 23 4 -19 30 -29 5 -14 0
-1 23 -4 9 -7 21 3 -29 0
-1 -23 -12 -22 21 -32 0
-1 -23 -12 -22 21 32 0
1 20 -26 17 -11 -22 5 0
-1 23 4 -19 -30 5 -2 -7 14 -9 0
-1 23 4 19 -26 13 30 9 0
-1 23 4 19 -26 -13 -15 27 -30 -18 0
-1 -23 12 10 9 31 -27 24 -20 15 0
-1 -23 12 -10 31 -20 -30 -17 -22 14 5 -9 0
-1 -23 12 -10 31 20 -18 21 -28 0
-1 23 4 19 -26 -13 -15 -27 -21 0
-1 -23 -12 -22 -21 7 13 -31 0
-1 -23 12 -10 31 -20 -30 -17 -22 14 5 9 0
-1 -23 12 -10 -31 -24 -26 -14 4 0
-1 23 4 -19 30 29 -3 -16 -21 0
-1 23 4 -19 -30 5 -2 7 3 0
-1 23 -4 9 -7 21 3 29 12 0
-1 -23 12 -10 -31 -24 26 -2 22 6 0
-1 23 -4 9 7 19 -6 0
1 -20 27 16 14 -3 -18 -25 0
-1 -23 12 -10 -31 -24 26 -2 -22 21 0
-1 -23 12 10 -9 -7 -20 2 0
-1 23 4 -19 -30 -5 -16 -31 -25 -12 0
-1 -23 12 -10 31 20 18 -5 21 0
-1 -23 -12 -22 -21 -7 8 -11 -9 0
-1 -23 12 10 9 -31 0
-1 -23 -12 22 9 -28 27 -21 -2 -15 0
-1 23 4 19 26 -16 29 20 0
1 -20 27 16 14 -3 18 23 29 8 0
-1 -23 -12 -22 -21 -7 8 11 3 6 -14 -5 0
-1 -23 -12 22 -9 29 -3 18 -2 5 30 0
-1 -23 -12 -22 -21 -7 8 11 -3 0
-1 23 4 -19 -30 -5 16 13 24 29 0
