c NeuroCodeBench 2.0 CNF formula with verdict Unsat
p cnf 97 736
1 68 10 -84 -70 86 -91 -54 88 -67 0
-1 92 -25 49 7 55 -93 15 60 48 0
-1 92 25 -68 -7 41 9 93 -49 -87 0
1 68 -10 93 -94 -50 14 77 -8 -36 0
1 68 10 84 -47 -8 -38 -81 -4 0
-1 -92 -37 68 -84 41 -85 -71 -23 -82 96 75 0
-1 -92 -37 68 84 76 81 89 15 -50 16 0
1 -68 93 -97 -31 49 43 -29 -69 0
-1 92 -25 49 -7 -6 -22 28 95 -68 -27 0
-1 -92 37 -14 53 -19 -94 0
1 68 10 84 47 70 -55 -76 -81 0
1 -68 93 97 -76 2 86 94 0
-1 92 -25 -49 47 -8 -54 75 6 0
-1 -92 -37 -68 64 -18 89 5 13 -52 28 60 73 0
1 68 -10 93 94 -48 40 21 -20 -32 0
1 -68 -93 96 46 72 -66 2 64 -23 -69 0
-1 -92 -37 68 84 -76 24 -17 70 -43 0
1 -68 -93 96 46 72 -66 -2 -24 88 -90 0
-1 92 -25 -49 -47 -85 -44 -36 74 -54 -29 0
1 -68 93 -97 31 69 -4 -88 -47 61 0
-1 -92 -37 68 84 76 -81 64 65 0
-1 -92 -37 68 84 76 -81 64 -65 15 -82 10 0
-1 92 25 68 71 -48 -13 -36 42 80 0
1 68 10 -84 -70 -86 11 36 -8 87 0
-1 92 25 68 -71 38 -66 -87 94 4 85 0
-1 92 25 68 -71 -38 6 -60 41 -63 -52 89 35 0
-1 -92 -37 -68 -64 46 6 2 -62 0
1 68 10 84 -47 8 -21 -25 -39 9 23 0
-1 92 -25 49 -7 6 -19 0
-1 -92 -37 -68 -64 -46 15 18 14 0
1 -68 -93 -96 67 -89 -36 90 -81 8 -4 47 0
-1 92 25 -68 -7 41 -9 30 -61 0
-1 -92 -37 68 -84 41 85 -86 -28 40 -30 15 49 -43 0
-1 -92 37 -14 -53 2 -18 49 36 -72 -15 40 26 -20 0
-1 92 25 -68 7 91 86 96 -81 13 73 23 0
-1 92 25 68 -71 38 -66 -87 94 -4 52 11 0
-1 -92 -37 68 84 76 -81 -64 0
1 68 -10 -93 22 26 13 0
-1 92 25 -68 7 -91 -57 -65 0
-1 -92 37 14 31 -86 -26 -71 79 -56 38 0
-1 92 25 -68 7 91 -86 10 -85 31 0
-1 -92 -37 68 -84 41 85 86 91 4 -33 0
1 68 -10 93 -94 -50 -14 -96 3 0
-1 92 25 -68 7 -91 -57 65 -96 69 72 0
-1 92 25 68 -71 38 -66 87 54 -5 -81 28 0
-1 92 25 -68 7 91 86 96 -81 -13 26 12 0
1 68 -10 -93 22 -26 82 13 -94 37 0
1 -68 93 -97 -31 -49 -41 94 78 86 73 17 0
1 -68 93 -97 -31 -49 41 82 -71 -45 0
-1 -92 -37 68 84 -76 24 -17 -70 91 -67 0
-1 -92 37 -14 53 19 -77 62 -3 61 0
1 68 10 -84 70 87 -97 0
1 68 -10 93 -94 50 26 51 0
-1 92 -25 -49 47 8 -77 24 30 0
-1 92 -25 49 7 -55 -88 17 -53 28 0
1 -68 -93 -96 67 -89 -36 -90 52 0
1 68 10 84 -47 -8 38 -24 54 0
-1 -92 37 14 31 86 -77 -89 -21 0
1 68 -10 93 94 -48 40 -21 -19 97 0
1 -68 93 -97 -31 -49 -41 -94 16 36 96 0
1 -68 -93 96 46 -72 -85 -78 -30 0
-1 -92 -37 -68 64 -18 89 5 13 -52 -28 -58 60 0
-1 92 25 -68 7 91 -86 10 85 87 0
-1 92 -25 49 -7 6 19 46 0
1 68 -10 93 94 48 -28 -36 0
1 -68 93 -97 31 69 4 0
-1 -92 -37 -68 64 -18 -89 -29 -66 -38 0
1 -68 -93 -96 67 -89 36 71 -54 -5 -33 20 0
-1 -92 -37 -68 -64 -46 -15 0
1 -68 93 -97 -31 -49 -41 94 78 -86 -81 3 0
1 68 10 84 47 70 55 90 -67 -16 51 0
-1 -92 37 -14 -53 2 -18 49 36 -72 15 -39 0
-1 92 -25 49 -7 -6 22 -37 44 0
1 68 -10 93 94 48 -28 36 -25 31 0
-1 92 25 -68 7 -91 -57 65 -96 -69 0
-1 -92 -37 -68 -64 46 6 2 62 27 -93 50 -51 0
-1 92 25 68 -71 38 -66 -87 94 -4 -52 34 0
1 -68 93 -97 31 -69 -86 90 -32 87 0
-1 -92 -37 -68 64 -18 -89 29 -24 -2 0
-1 -92 -37 -68 64 -18 89 -5 35 17 0
-1 -92 -37 68 84 76 -81 64 -65 -15 0
-1 -92 37 14 31 -86 26 -11 43 3 0
1 68 10 84 -47 8 -21 25 -61 0
1 68 10 -84 70 -87 86 -41 18 -76 91 0
-1 92 25 -68 7 -91 57 66 -49 59 -39 0
-1 92 -25 -49 47 8 77 7 32 -83 0
-1 92 -25 -49 47 8 77 7 -32 -71 23 70 10 0
-1 -92 37 -14 -53 -2 -10 -24 -8 0
1 -68 -93 -96 67 -89 36 -71 20 -32 0
-1 -92 -37 -68 -64 -46 15 18 -14 0
1 68 10 84 47 70 55 -90 20 39 22 51 -71 0
1 68 -10 93 94 48 28 21 0
-1 92 25 -68 -7 41 -9 -30 6 -67 -33 83 0
1 -68 93 -97 -31 -49 41 82 -71 45 89 27 -9 0
-1 -92 -37 68 84 -76 24 -17 -70 91 67 0
-1 92 25 68 71 -48 13 -94 78 -88 0
-1 -92 -37 68 84 -76 24 17 60 -36 81 85 -4 0
1 -68 93 -97 -31 -49 41 82 -71 45 89 27 9 0
1 68 -10 93 94 -48 40 21 20 0
1 68 10 84 -47 8 -21 25 61 -37 0
1 -68 -93 -96 -67 8 -22 -4 36 -37 0
1 68 -10 93 -94 -50 -14 96 -63 -21 -75 35 0
-1 92 25 68 71 -48 -13 36 -67 -91 87 0
-1 92 -25 -49 47 8 77 7 -32 -71 -23 34 0
1 -68 93 97 -76 -2 82 -37 0
-1 92 25 68 -71 -38 -6 -55 0
1 -68 -93 -96 67 -89 36 -71 -20 16 0
-1 92 25 68 71 -48 13 -94 -78 0
-1 -92 -37 68 -84 41 85 86 91 -4 -66 0
-1 -92 37 -14 -53 2 18 39 72 -81 -13 -40 0
1 -68 93 -97 31 69 -4 88 47 0
-1 -92 -37 -68 64 18 -44 77 88 47 0
-1 92 25 68 71 48 34 -74 5 6 93 0
-1 -92 -37 -68 64 18 -44 77 -88 -48 0
-1 -92 -37 -68 64 18 -44 -77 0
-1 92 25 -68 7 -91 -57 65 -96 69 -72 84 0
-1 -92 37 -14 53 19 -77 -62 39 59 0
-1 92 25 -68 -7 41 9 93 49 4 33 -11 0
-1 -92 -37 -68 64 -18 89 -5 35 -17 10 0
-1 92 25 -68 7 91 86 96 -81 -13 -26 -76 0
-1 -92 -37 68 -84 41 -85 -71 -23 -82 96 -75 0
-1 -92 -37 -68 -64 46 6 -2 70 -62 53 11 0
1 -68 93 -97 31 -69 -86 -90 -18 10 -54 0
-1 -92 -37 68 84 -76 24 17 60 -36 81 85 4 95 0
1 68 -10 -93 -22 77 -18 -51 -28 0
-1 92 25 68 -71 38 -66 87 54 -5 -81 -28 -61 0
-1 -92 -37 -68 -64 46 6 2 62 27 -93 -50 -13 0
-1 92 -25 -49 47 8 77 7 -32 -71 23 -70 -24 0
-1 -92 37 14 31 86 77 -48 84 -69 0
1 68 10 -84 -70 -86 11 -36 48 66 0
1 68 10 -84 -70 -86 11 36 8 16 0
-1 92 25 -68 7 91 86 -96 63 19 0
1 68 10 -84 70 -87 -86 -54 15 -34 0
-1 -92 -37 -68 -64 46 6 -2 -70 21 -47 -58 0
1 68 10 -84 -70 86 -91 54 66 0
1 -68 -93 -96 67 -89 36 -71 -20 -16 0
-1 92 25 -68 -7 41 9 -93 80 23 0
-1 92 25 -68 7 91 86 96 -81 -13 26 -12 0
-1 -92 37 -14 -53 2 -18 -49 20 0
-1 92 25 -68 -7 41 -9 -30 6 -67 33 32 -37 82 0
-1 92 25 68 71 48 -34 26 -91 -66 0
-1 92 -25 -49 -47 85 -70 66 0
1 -68 -93 -96 67 89 -76 35 21 0
1 68 -10 93 -94 -50 14 -77 5 -87 24 0
-1 -92 -37 68 84 -76 24 -17 -70 -91 54 0
-1 92 -25 49 -7 -6 -22 -28 -74 46 -90 0
-1 -92 -37 -68 64 -18 -89 29 24 86 -76 -77 0
1 68 -10 -93 22 -26 82 13 94 0
-1 92 25 -68 7 -91 57 66 -49 -59 81 0
-1 -92 -37 68 84 76 81 89 15 -50 -16 -47 0
-1 -92 37 -14 53 19 -77 62 3 -27 0
-1 -92 -37 -68 -64 46 6 2 62 27 -93 50 51 0
-1 -92 -37 68 -84 41 85 -86 -28 40 -30 15 -49 22 0
1 -68 93 -97 31 -69 -86 -90 18 -40 0
-1 -92 -37 -68 64 -18 -89 29 -24 2 5 0
-1 92 -25 -49 -47 -85 44 -9 6 0
-1 -92 -37 68 84 76 81 89 15 -50 -16 47 0
-1 92 25 -68 7 91 86 96 81 65 79 0
1 -68 93 -97 -31 -49 -41 94 -78 -30 0
1 -68 93 97 -76 2 -86 -16 -60 0
1 -68 93 -97 -31 -49 -41 94 78 -86 -81 -3 0
-1 -92 37 14 31 86 -77 89 82 0
1 -68 93 -97 -31 -49 -41 94 -78 30 -66 0
-1 -92 37 14 -31 -40 -6 78 73 0
-1 92 25 68 -71 -38 -6 55 -74 -13 -84 0
1 -68 -93 -96 67 89 -76 -35 -57 0
1 68 -10 -93 -22 77 18 -2 0
-1 92 25 -68 -7 41 9 93 49 4 33 11 66 0
-1 92 25 -68 -7 41 -9 -30 6 67 66 0
-1 92 25 -68 7 91 86 96 -81 -13 -26 76 0
-1 -92 -37 68 -84 41 85 -86 28 69 -14 -38 -95 -21 0
-1 92 25 68 -71 -38 6 -60 41 -63 -52 89 -35 0
-1 -92 -37 -68 -64 46 6 -2 -70 21 -47 58 0
1 68 -10 -93 -22 77 18 2 -49 0
-1 92 25 68 -71 -38 6 -60 41 63 0
-1 -92 -37 68 84 -76 24 17 60 36 3 0
1 68 -10 93 94 48 28 -21 0
1 68 10 -84 70 87 97 -85 -20 -38 -18 0
-1 92 25 68 71 48 34 -74 5 6 -93 -67 0
-1 92 -25 -49 47 8 77 -7 55 -9 0
1 -68 -93 -96 67 -89 -36 90 -81 8 4 0
-1 -92 -37 68 -84 41 85 -86 28 69 14 -80 0
-1 92 25 -68 -7 41 9 -93 80 -23 0
-1 92 25 68 -71 38 -66 87 -54 -46 0
1 -68 93 -97 31 -69 86 89 -65 81 52 0
-1 92 25 68 71 -48 -13 -36 42 -80 0
-1 -92 37 -14 -53 2 -18 49 -36 -41 0
1 -68 93 -97 -31 -49 -41 94 78 86 73 -17 0
1 -68 -93 -96 67 -89 36 71 -54 -5 33 0
-1 92 25 -68 -7 41 -9 -30 -6 0
-1 92 25 -68 7 91 86 96 81 65 -79 0
1 68 10 84 47 70 -55 76 5 0
-1 -92 -37 -68 64 18 -44 77 -88 48 60 0
1 -68 93 -97 31 69 -4 -88 47 -32 7 0
-1 92 25 68 71 48 -34 -26 0
-1 92 -25 -49 47 8 77 7 -32 -71 23 70 -10 0
1 -68 93 -97 -31 49 -43 46 -94 0
-1 -92 37 14 31 86 77 -48 84 69 0
1 68 -10 -93 22 -26 -82 -38 -85 0
-1 92 25 -68 7 -91 -57 65 -96 69 -72 -84 0
1 68 10 84 47 70 55 -90 20 -39 0
-1 -92 -37 68 -84 -41 9 21 -85 0
1 68 -10 93 94 -48 40 21 -20 32 0
1 -68 -93 96 46 -72 -85 -78 30 0
-1 92 -25 49 7 -55 88 95 56 0
-1 -92 37 -14 -53 2 18 39 72 81 -29 0
-1 -92 37 14 31 -86 -26 -71 -79 -25 0
-1 92 25 68 71 -48 -13 -36 -42 -73 -40 -67 57 0
1 68 10 84 -47 8 -21 -25 39 0
-1 -92 37 14 31 -86 -26 71 -61 -73 0
1 68 10 -84 -70 -86 11 36 -8 -87 0
-1 92 -25 -49 47 8 77 -7 55 9 42 0
1 68 10 84 -47 -8 38 24 0
1 68 -10 93 -94 -50 14 -77 -5 45 0
-1 92 -25 49 -7 -6 22 37 -83 -71 0
1 68 10 84 47 70 55 -90 20 39 -22 0
-1 -92 37 -14 -53 2 -18 49 36 -72 -15 40 -26 0
1 -68 -93 -96 67 -89 36 71 -54 5 0
1 -68 -93 -96 67 89 -76 -35 57 28 -47 0
1 -68 -93 -96 -67 8 -22 -4 36 37 0
1 -68 93 -97 -31 -49 -41 94 -78 30 66 -12 73 0
-1 -92 37 -14 -53 2 -18 49 36 -72 15 39 0
1 -68 93 -97 -31 -49 -41 -94 16 -36 52 -87 89 0
-1 92 25 68 -71 38 -66 87 54 5 -20 15 0
1 -68 93 -97 31 -69 86 89 -65 81 -52 0
-1 -92 -37 68 -84 41 -85 -71 23 -74 7 -30 0
1 68 10 -84 70 -87 86 -41 18 76 0
-1 -92 -37 68 -84 41 85 -86 28 69 -14 38 -74 -61 0
1 68 10 84 -47 8 -21 -25 -39 9 -23 -40 94 0
-1 -92 -37 -68 64 -18 89 -5 35 -17 -10 0
1 68 10 -84 70 -87 86 41 58 -91 62 0
1 -68 93 97 -76 2 -86 -16 60 0
1 68 10 -84 70 -87 -86 54 81 -64 0
-1 -92 37 -14 -53 2 18 39 -72 58 0
1 68 -10 93 -94 -50 -14 96 -63 -21 -75 -35 0
-1 92 25 -68 7 -91 57 66 -49 59 39 0
-1 92 25 -68 -7 -41 37 -51 0
-1 -92 -37 -68 64 -18 89 5 13 52 17 0
-1 92 25 -68 7 91 -86 10 -85 -31 0
-1 92 25 -68 7 91 -86 -10 -11 -83 0
1 -68 93 -97 -31 -49 -41 -94 -16 0
-1 -92 -37 68 -84 41 -85 71 82 0
-1 -92 -37 -68 -64 46 6 -2 70 62 35 0
-1 92 25 68 -71 38 -66 87 54 5 -20 -15 82 0
-1 -92 -37 68 84 76 81 89 15 50 0
-1 -92 -37 68 84 -76 24 -17 70 43 0
-1 -92 -37 -68 64 -18 -89 29 -24 2 -5 -50 0
-1 -92 -37 68 -84 41 -85 -71 -23 82 63 -65 0
-1 92 25 68 -71 -38 6 60 3 0
-1 92 25 68 -71 38 -66 -87 94 4 -85 0
-1 -92 -37 -68 -64 -46 15 -18 -20 0
1 68 -10 93 94 -48 -40 -35 77 0
-1 -92 -37 68 -84 41 -85 -71 -23 82 -63 -43 0
1 -68 93 -97 -31 -49 41 -82 30 -52 0
1 68 10 -84 -70 86 91 0
1 -68 -93 -96 -67 8 22 12 0
1 -68 93 -97 -31 -49 41 82 -71 45 89 -27 0
-1 -92 -37 68 -84 41 85 -86 -28 40 -30 15 49 43 22 0
-1 92 25 68 -71 38 -66 87 54 5 20 74 0
1 -68 -93 96 46 72 -66 -2 -24 88 90 0
-1 92 25 68 -71 -38 6 -60 41 -63 -52 -89 -97 53 0
1 68 -10 93 -94 -50 -14 -96 -3 -51 0
1 -68 93 -97 -31 -49 -41 94 78 -86 81 0
1 -68 93 -97 31 -69 -86 90 -32 -87 0
-1 92 25 -68 -7 41 -9 -30 6 -67 33 32 -37 -82 0
1 -68 93 97 76 55 0
-1 92 25 68 71 -48 -13 -36 -42 -73 40 0
-1 -92 -37 68 84 76 81 89 -15 -19 0
1 -68 -93 -96 67 -89 -36 90 -81 8 -4 -47 0
-1 92 -25 49 -7 -6 -22 28 95 -68 27 0
-1 -92 -37 68 84 -76 24 17 60 36 -3 0
-1 92 25 -68 7 -91 57 -66 -86 8 35 0
-1 92 -25 -49 47 -8 54 12 0
1 68 -10 93 -94 -50 14 -77 5 -87 -24 -34 0
-1 92 25 -68 -7 41 -9 -30 6 67 -66 0
1 -68 -93 -96 67 -89 36 -71 20 32 0
-1 92 -25 -49 47 8 77 -7 -55 0
-1 -92 -37 68 -84 41 -85 -71 -23 82 63 65 66 0
-1 92 25 -68 7 91 -86 -10 11 0
-1 92 25 -68 7 91 86 -96 63 -19 41 0
1 -68 93 -97 31 69 -4 -88 47 -32 -7 73 0
1 68 10 -84 -70 -86 -11 81 63 -34 75 0
-1 92 -25 49 -7 -6 -22 28 95 68 0
1 -68 -93 96 46 72 -66 2 64 23 0
-1 92 25 -68 7 91 86 -96 -63 -20 -88 0
-1 92 -25 49 -7 -6 22 37 -83 71 20 0
-1 92 25 68 -71 -38 6 -60 41 -63 -52 -89 -97 -53 34 0
1 68 10 -84 70 -87 86 41 58 91 0
-1 -92 37 14 31 86 -77 89 -82 0
1 68 10 84 -47 8 21 -74 -83 -31 0
-1 -92 -37 -68 -64 46 6 -2 -70 -21 -55 0
-1 -92 -37 -68 -64 46 6 -2 -70 21 47 54 0
-1 -92 -37 68 -84 41 85 -86 28 69 -14 -38 95 10 0
-1 -92 -37 68 -84 41 85 -86 28 69 -14 -38 -95 21 62 0
-1 -92 37 -14 -53 2 -18 49 36 72 0
1 -68 93 -97 31 -69 86 -89 25 70 -13 -4 0
1 68 10 -84 -70 86 -91 -54 88 67 0
-1 92 25 68 71 -48 13 -94 78 88 0
-1 -92 37 -14 -53 2 18 39 -72 -58 -3 0
-1 92 25 -68 -7 41 -9 -30 6 -67 33 32 37 -53 0
-1 92 25 -68 7 -91 57 -66 86 0
-1 92 25 68 -71 38 -66 -87 -94 96 0
-1 92 25 -68 7 91 86 96 81 -65 -83 0
1 68 10 84 -47 8 21 -74 -83 31 -5 42 0
-1 92 -25 49 7 -55 88 95 -56 -23 -69 0
1 68 10 84 -47 -8 38 -24 -54 0
-1 92 -25 -49 -47 -85 -44 -36 74 -54 29 0
-1 -92 -37 68 -84 41 85 86 -91 -77 57 0
1 -68 93 -97 31 -69 86 89 65 66 14 0
1 68 10 -84 70 -87 -86 -54 -15 0
1 -68 93 -97 31 69 -4 -88 -47 -61 0
1 -68 -93 96 46 72 -66 -2 24 -65 0
1 -68 -93 -96 67 89 76 -97 -65 0
1 -68 93 -97 31 -69 -86 -90 -18 -10 -30 0
-1 -92 37 -14 53 19 -77 -62 -39 0
1 68 10 84 47 70 55 90 -67 16 -42 -77 25 -24 0
-1 -92 37 -14 -53 2 -18 49 36 -72 -15 40 26 20 0
-1 92 25 68 -71 38 -66 87 -54 46 0
-1 92 25 -68 -7 -41 37 51 0
1 68 10 84 -47 -8 -38 -81 4 0
-1 -92 37 -14 53 -19 94 0
-1 92 25 68 -71 -38 6 60 -3 22 0
1 68 10 -84 -70 -86 11 -36 -48 0
1 68 -10 93 94 -48 -40 -35 -77 0
1 -68 -93 96 46 72 -66 -2 24 65 80 84 0
1 68 10 84 47 70 -55 76 -5 -41 -57 0
1 68 10 84 47 70 55 90 -67 16 -42 -77 -25 0
-1 -92 -37 -68 64 -18 -89 29 24 86 -76 77 -66 0
-1 92 25 -68 -7 41 9 93 -49 87 70 0
-1 92 25 68 -71 -38 -6 55 -74 -13 84 -62 0
1 68 10 84 -47 8 21 -74 -83 31 5 0
1 -68 -93 -96 67 89 76 -97 65 0
-1 -92 37 -14 53 19 -77 62 -3 -61 0
1 -68 93 -97 31 69 -4 88 -47 0
1 68 -10 -93 -22 -77 0
1 68 -10 93 -94 -50 -14 -96 -3 51 0
-1 -92 -37 -68 64 -18 -89 -29 66 -44 0
-1 -92 -37 -68 64 18 -44 77 88 -47 0
1 68 -10 93 94 48 -28 36 25 64 0
1 68 10 84 -47 8 21 -74 83 -93 0
1 -68 93 -97 -31 49 43 -29 69 0
1 -68 93 -97 -31 49 -43 -46 0
-1 92 25 68 -71 -38 6 -60 41 -63 52 0
-1 92 25 68 71 -48 -13 -36 -42 -73 -40 67 0
1 -68 93 -97 31 -69 86 89 -65 -81 0
1 -68 -93 -96 67 -89 -36 -90 -52 0
-1 -92 -37 -68 64 18 -44 77 -88 48 -60 -97 0
-1 92 -25 49 -7 -6 -22 28 -95 77 54 0
1 -68 -93 96 46 72 -66 2 64 -23 69 0
1 68 10 84 -47 -8 -38 81 52 0
-1 -92 37 14 -31 -40 -6 -78 24 0
-1 92 -25 -49 47 8 77 7 32 83 0
-1 92 25 68 71 48 34 -74 5 -6 0
1 68 -10 93 -94 -50 -14 96 63 -41 38 0
-1 92 -25 -49 47 -8 -54 -75 0
-1 -92 37 -14 -53 -2 -10 -24 8 -76 -62 0
-1 -92 -37 -68 64 -18 -89 -29 -66 38 0
1 -68 -93 -96 67 89 -76 -35 57 -28 0
1 -68 -93 -96 67 -89 36 71 54 70 -48 0
1 68 10 84 -47 8 -21 -25 -39 9 -23 40 0
1 -68 93 -97 -31 -49 -41 -94 16 36 -96 -3 -57 0
-1 -92 -37 -68 64 18 44 -90 0
1 -68 -93 -96 67 89 -76 -35 57 28 47 59 71 0
-1 -92 -37 -68 -64 46 6 2 62 27 93 0
-1 92 -25 -49 47 -8 54 -12 0
-1 92 25 68 -71 -38 -6 55 74 47 -18 0
1 -68 93 -97 -31 -49 -41 94 -78 30 66 -12 -73 0
1 -68 93 -97 31 -69 86 89 65 66 -14 0
-1 92 -25 49 7 -55 -88 -17 0
1 -68 -93 96 46 72 -66 2 -64 52 0
1 68 -10 93 94 -48 40 -21 19 29 57 0
-1 92 25 -68 7 -91 57 -66 -86 -8 0
-1 92 25 -68 -7 41 9 93 -49 87 -70 0
1 68 -10 93 -94 -50 -14 96 63 41 0
-1 92 -25 -49 -47 -85 -44 -36 74 54 0
1 -68 -93 96 -46 -85 -58 0
1 -68 -93 96 46 72 -66 -2 24 65 -80 0
-1 -92 37 -14 -53 2 18 39 -72 -58 3 -60 0
-1 -92 -37 68 -84 41 -85 71 -82 0
-1 92 25 68 -71 38 -66 87 54 5 -20 -15 -82 0
-1 92 25 -68 -7 41 9 -93 -80 88 0
-1 92 -25 49 -7 -6 -22 -28 -74 46 90 0
1 -68 -93 -96 -67 8 -22 4 40 0
1 68 10 -84 -70 -86 -11 81 63 -34 -75 0
-1 -92 -37 68 84 76 -81 64 -65 15 -82 -10 0
-1 -92 -37 -68 -64 46 6 -2 70 62 -35 0
-1 92 25 68 -71 -38 6 -60 -41 -29 3 0
-1 92 -25 -49 47 8 77 -7 55 9 -42 0
1 -68 93 -97 -31 -49 -41 -94 16 -36 52 -87 -89 0
-1 -92 -37 68 -84 41 -85 -71 23 -74 7 30 0
1 68 10 84 47 70 55 -90 20 39 22 51 71 5 0
1 -68 93 -97 31 -69 86 -89 25 -70 0
-1 92 25 68 -71 38 -66 87 54 -5 81 -69 0
-1 -92 -37 -68 64 -18 89 5 13 -52 28 60 -73 0
1 68 10 -84 -70 86 -91 -54 -88 0
-1 92 -25 49 7 -55 -88 17 53 75 0
-1 -92 37 -14 53 19 -77 62 3 27 0
-1 -92 37 -14 -53 2 -18 49 36 -72 -15 -40 90 -91 0
1 68 -10 93 -94 -50 -14 96 -63 -21 75 0
-1 92 25 -68 -7 -41 -37 0
-1 -92 -37 -68 -64 46 6 2 62 -27 -18 0
1 68 10 84 47 70 55 90 -67 16 -42 77 -76 0
1 68 10 84 47 70 -55 76 -5 41 0
1 -68 -93 -96 67 89 76 97 0
-1 92 25 -68 -7 41 9 -93 -80 -88 -44 0
1 68 10 84 47 70 -55 -76 81 -46 0
1 -68 93 -97 -31 -49 41 82 71 0
-1 -92 37 14 31 -86 26 -11 43 -3 0
-1 -92 -37 68 -84 41 85 -86 -28 -40 -42 -6 0
-1 -92 37 -14 -53 -2 -10 24 45 0
-1 -92 -37 68 84 -76 24 17 60 -36 81 -85 0
-1 92 25 -68 -7 41 -9 -30 6 -67 33 32 37 53 0
-1 92 25 68 -71 -38 6 -60 -41 29 3 32 5 -76 47 0
-1 92 -25 49 -7 -6 22 37 -83 71 -20 89 0
-1 92 25 -68 7 -91 57 -66 -86 8 -35 0
-1 -92 -37 68 -84 41 85 -86 28 69 -14 -38 95 -10 0
-1 92 -25 -49 47 8 -77 -24 0
-1 92 25 68 -71 -38 6 -60 -41 29 3 -32 0
1 68 10 84 47 -70 0
1 -68 93 -97 31 -69 86 -89 25 70 13 0
1 -68 -93 96 -46 -85 58 0
1 68 10 84 47 70 55 -90 20 39 22 -51 0
1 -68 -93 96 46 72 -66 -2 24 65 80 -84 0
-1 -92 -37 68 -84 41 85 -86 28 69 14 80 -11 97 0
1 68 10 -84 70 87 97 -85 -20 -38 18 0
-1 -92 -37 -68 -64 46 6 2 62 27 -93 -50 13 0
-1 -92 37 -14 53 19 -77 -62 39 -59 0
-1 -92 -37 68 84 -76 24 -17 -70 -91 -54 -4 0
-1 92 -25 -49 -47 -85 -44 -36 -74 0
-1 92 25 68 -71 -38 -6 55 -74 13 -18 0
1 68 10 -84 70 -87 86 -41 -18 -13 -91 19 0
1 68 -10 93 -94 -50 -14 96 63 -41 -38 75 0
-1 -92 37 14 31 -86 -26 71 61 3 0
-1 -92 37 14 31 -86 -26 -71 -79 25 0
-1 -92 -37 -68 64 -18 -89 -29 66 44 0
-1 92 25 68 -71 -38 -6 55 -74 -13 84 62 0
-1 92 -25 -49 47 -8 -54 75 -6 0
-1 92 -25 49 7 -55 88 95 -56 23 0
-1 92 -25 49 7 55 93 0
1 68 10 84 47 70 55 -90 20 39 22 51 71 -5 0
1 68 -10 93 -94 -50 14 77 8 -17 -75 0
-1 -92 37 14 31 -86 26 11 47 0
-1 -92 37 -14 -53 -2 10 40 -51 0
1 68 -10 93 -94 -50 -14 96 -63 21 0
-1 92 25 68 71 48 34 -74 -5 0
-1 -92 37 -14 -53 -2 10 -40 -58 31 42 3 0
1 68 10 84 47 70 55 -90 -20 0
-1 92 25 68 71 -48 -13 36 -67 -91 -87 -43 0
1 -68 93 -97 -31 -49 41 -82 -30 -6 35 0
-1 92 -25 -49 47 8 77 7 -32 -71 23 -70 24 0
1 -68 -93 -96 67 -89 -36 90 -81 -8 0
1 68 10 -84 -70 -86 -11 81 -63 -92 0
-1 -92 -37 68 -84 41 85 -86 -28 40 -30 15 49 43 -22 0
1 68 10 -84 -70 -86 11 -36 48 -66 0
-1 92 25 68 71 48 34 -74 5 6 -93 67 0
-1 -92 -37 -68 64 -18 -89 29 24 86 76 -25 0
-1 92 25 68 -71 -38 6 -60 -41 29 3 32 -5 0
1 68 10 -84 -70 86 -91 54 -66 0
1 -68 93 -97 31 -69 -86 -90 -18 -10 30 0
1 -68 93 -97 -31 -49 41 82 -71 45 -89 -20 0
-1 -92 37 -14 -53 2 -18 49 36 -72 -15 -40 -90 0
1 68 10 84 -47 8 21 -74 -83 31 -5 -42 0
1 -68 -93 -96 67 89 -76 -35 57 28 47 -59 0
1 -68 93 97 -76 2 86 -94 0
-1 -92 -37 68 -84 41 85 86 -91 77 0
-1 -92 -37 68 -84 41 -85 -71 -23 82 -63 43 0
-1 92 -25 49 -7 -6 -22 -28 -74 -46 86 0
-1 -92 -37 68 -84 -41 9 -21 0
-1 92 25 68 -71 -38 6 -60 -41 -29 -3 0
1 68 10 84 -47 8 21 -74 83 93 0
-1 -92 37 -14 -53 -2 10 40 51 -5 -56 0
1 68 -10 93 -94 -50 14 -77 -5 -45 0
1 68 10 -84 70 87 97 85 0
1 68 10 -84 -70 -86 -11 81 63 34 0
-1 92 25 -68 7 91 -86 10 85 -87 0
-1 92 -25 -49 -47 85 -70 -66 0
1 68 10 84 47 70 55 90 67 0
-1 -92 -37 68 -84 41 85 -86 28 69 -14 38 74 0
1 68 -10 93 94 -48 -40 35 0
-1 92 25 -68 7 91 86 -96 -63 -20 88 0
1 68 -10 -93 22 26 -13 0
1 -68 93 -97 -31 -49 -41 -94 16 -36 -52 0
-1 92 25 68 -71 38 -66 -87 -94 -96 0
-1 -92 -37 68 -84 -41 -9 0
1 -68 93 -97 -31 -49 -41 94 -78 30 66 12 -69 0
-1 -92 -37 -68 64 -18 89 5 13 -52 -28 -58 -60 0
1 -68 -93 96 -46 85 95 0
-1 -92 37 -14 -53 2 18 39 72 81 29 0
-1 -92 37 -14 -53 -2 10 40 51 -5 56 0
-1 -92 -37 68 84 -76 24 17 -60 0
-1 -92 -37 68 -84 41 85 -86 28 69 -14 38 -74 61 -18 0
1 -68 -93 96 46 -72 85 0
-1 -92 -37 68 -84 41 85 -86 28 69 14 80 11 0
1 68 -10 93 -94 -50 14 77 -8 36 0
-1 92 25 -68 -7 41 9 -93 -80 -88 44 0
-1 92 25 -68 7 91 -86 -10 -11 83 0
-1 -92 -37 68 84 -76 24 17 60 -36 -81 0
-1 -92 37 14 31 -86 -26 -71 79 -56 -38 0
-1 92 25 68 71 -48 -13 36 67 0
-1 -92 37 -14 -53 2 -18 49 36 -72 -15 -40 90 91 0
-1 92 25 -68 -7 41 9 93 49 4 33 11 -66 0
-1 92 -25 -49 -47 85 70 80 0
-1 92 25 68 71 -48 13 94 16 0
1 68 10 84 47 70 55 90 -67 16 42 -44 0
1 68 10 -84 70 -87 86 -41 -18 13 0
-1 -92 -37 68 -84 41 85 86 91 -4 66 0
-1 -92 -37 68 -84 41 -85 -71 -23 -82 -96 0
1 68 -10 93 94 -48 40 -21 19 -29 0
1 -68 93 -97 -31 -49 -41 94 78 86 -73 0
-1 -92 -37 -68 64 -18 89 5 13 52 -17 7 0
-1 92 25 68 -71 38 -66 -87 94 -4 52 -11 0
-1 92 25 -68 -7 41 -9 -30 6 -67 33 -32 -58 0
-1 -92 -37 -68 -64 -46 15 -18 20 0
-1 -92 -37 68 84 76 81 89 -15 19 72 0
-1 92 25 68 71 -48 -13 -36 -42 73 0
-1 -92 -37 -68 64 -18 -89 29 24 -86 0
-1 -92 37 14 -31 -40 -6 78 -73 0
1 68 -10 93 -94 -50 -14 96 63 -41 -38 -75 0
-1 92 25 68 -71 -38 6 -60 41 -63 -52 -89 97 -51 0
-1 92 25 68 71 -48 13 94 -16 0
1 68 -10 93 94 48 -28 36 -25 -31 -46 0
1 68 10 84 -47 8 -21 -25 -39 -9 0
1 68 10 84 47 70 -55 -76 81 46 0
-1 -92 -37 68 84 76 81 89 -15 19 -72 0
1 -68 -93 -96 67 -89 36 71 -54 -5 -33 -20 0
1 68 10 84 -47 8 21 74 -32 0
-1 92 -25 49 -7 -6 -22 -28 -74 -46 -86 0
-1 92 25 -68 7 91 86 -96 -63 20 0
1 68 10 -84 70 -87 86 -41 -18 -13 -91 -19 0
1 68 -10 -93 -22 77 -18 51 0
-1 -92 -37 -68 64 18 -44 77 -88 48 -60 97 0
-1 -92 -37 -68 64 -18 89 5 13 52 -17 -7 0
-1 -92 -37 -68 -64 46 6 -2 -70 21 47 -54 0
1 -68 -93 -96 67 -89 -36 90 81 0
-1 -92 37 -14 -53 -2 10 -40 -58 31 42 -3 0
-1 92 25 68 71 48 -34 26 -91 66 0
1 -68 93 -97 -31 -49 -41 -94 16 36 -96 3 0
1 68 -10 93 -94 -50 14 77 8 17 0
1 -68 -93 96 -46 85 -95 0
-1 92 25 -68 7 91 86 96 -81 13 -73 0
-1 92 25 68 71 -48 -13 -36 -42 -73 -40 -67 -57 0
-1 92 -25 49 -7 -6 22 37 83 0
-1 92 -25 49 -7 -6 22 37 -83 71 -20 -89 0
-1 92 25 68 -71 38 66 0
-1 92 25 -68 7 91 86 96 81 -65 83 0
-1 92 25 -68 -7 41 -9 -30 6 -67 33 -32 58 0
-1 -92 37 -14 -53 -2 10 -40 -58 -31 -51 0
-1 -92 37 14 31 -86 -26 -71 79 56 0
1 -68 93 -97 -31 -49 -41 94 -78 30 66 12 69 0
-1 92 -25 -49 -47 -85 44 -9 -6 0
1 -68 93 -97 31 -69 -86 -90 -18 10 54 -52 14 0
-1 -92 37 -14 -53 -2 10 -40 58 0
1 -68 -93 -96 -67 8 -22 4 -40 0
-1 92 25 68 -71 -38 6 -60 41 -63 -52 -89 -97 -53 -34 0
-1 92 -25 49 -7 -6 -22 -28 74 -39 79 0
1 -68 93 97 -76 -2 -82 89 0
1 -68 -93 -96 -67 8 22 -12 0
-1 92 25 -68 -7 41 -9 -30 6 -67 -33 -83 0
-1 -92 37 -14 -53 -2 -10 -24 8 76 0
1 68 10 -84 70 -87 -86 -54 15 34 0
-1 92 25 -68 -7 41 9 93 49 4 -33 0
1 68 10 -84 -70 -86 -11 -81 0
-1 -92 -37 68 -84 41 -85 -71 23 -74 -7 0
1 -68 -93 96 46 72 66 13 -30 0
-1 92 25 68 71 48 34 74 0
-1 92 25 -68 7 -91 57 66 49 0
-1 -92 -37 -68 64 18 44 90 0
-1 -92 -37 68 -84 41 85 -86 -28 40 -30 15 -49 -22 0
-1 92 25 68 -71 -38 6 -60 -41 29 -3 7 0
-1 92 -25 49 -7 -6 -22 28 -95 77 -54 0
1 -68 -93 -96 -67 -8 0
1 -68 93 -97 31 -69 86 -89 25 70 -13 4 0
-1 -92 -37 -68 -64 46 6 -2 70 -62 53 -11 0
-1 92 -25 -49 -47 -85 -44 36 28 0
1 68 -10 93 94 -48 40 -21 -19 -97 0
-1 -92 37 14 31 -86 -26 71 -61 73 0
-1 92 -25 49 7 55 -93 15 60 -48 0
-1 92 25 -68 7 91 86 -96 63 -19 -41 0
1 68 -10 93 -94 50 -26 84 0
1 -68 93 -97 -31 -49 41 -82 -30 -6 -35 0
1 68 -10 93 -94 -50 14 77 8 -17 75 37 0
-1 92 25 68 -71 38 -66 -87 94 -4 -52 -34 0
-1 92 25 -68 7 91 86 96 -81 13 73 -23 0
-1 92 25 68 -71 -38 -6 55 74 47 18 0
-1 92 25 68 -71 -38 6 -60 41 -63 -52 -89 97 51 0
-1 -92 37 -14 -53 2 -18 -49 -20 0
1 -68 93 -97 31 -69 -86 90 32 0
1 68 10 84 47 70 55 90 -67 16 42 44 0
1 68 10 -84 70 -87 -86 54 81 64 0
1 -68 -93 96 46 72 -66 -2 -24 -88 0
1 -68 93 -97 31 -69 86 -89 -25 0
-1 92 -25 49 -7 -6 -22 -28 74 -39 -79 0
-1 -92 37 -14 -53 -2 10 -40 -58 31 -42 0
-1 -92 -37 68 -84 41 -85 -71 -23 82 63 65 -66 0
-1 -92 37 -14 -53 2 -18 49 -36 41 0
-1 -92 -37 68 -84 41 85 86 91 4 33 0
1 -68 93 -97 31 -69 86 89 65 -66 0
-1 92 25 68 -71 -38 6 -60 -41 29 -3 -7 0
-1 92 -25 49 7 -55 88 95 -56 -23 69 0
-1 -92 -37 68 84 76 81 -89 0
1 -68 93 -97 -31 49 43 29 0
1 68 10 84 -47 -8 -38 81 -52 0
1 -68 93 -97 31 -69 -86 -90 -18 10 54 -52 -14 0
-1 92 -25 -49 47 8 77 7 -32 -71 -23 -34 0
-1 92 -25 -49 47 8 77 7 -32 71 0
-1 92 25 68 -71 -38 6 -60 -41 29 3 32 5 -76 -47 0
1 -68 93 -97 31 -69 -86 -90 -18 10 54 52 0
-1 -92 -37 -68 64 -18 89 -5 -35 0
-1 92 25 68 71 -48 -13 36 -67 91 0
-1 -92 -37 -68 64 -18 89 5 13 -52 -28 58 0
-1 -92 -37 68 -84 41 85 -86 -28 40 -30 -15 0
1 68 10 -84 70 -87 86 41 58 -91 -62 0
1 -68 93 97 76 -55 0
1 68 10 -84 70 -87 86 41 -58 0
-1 -92 37 -14 -53 -2 10 -40 -58 -31 51 0
1 68 -10 -93 22 -26 -82 38 0
-1 92 -25 -49 47 8 -77 24 -30 0
-1 -92 -37 -68 -64 46 6 2 62 -27 18 0
-1 92 25 68 -71 -38 -6 55 74 -47 0
1 -68 -93 96 46 -72 -85 78 0
-1 92 -25 -49 -47 -85 44 9 0
1 68 -10 -93 22 -26 -82 -38 85 -51 0
1 -68 -93 96 46 72 -66 2 -64 -52 0
1 -68 93 -97 31 69 -4 -88 47 -32 -7 -73 0
1 68 10 84 47 70 55 90 -67 16 -42 -77 25 24 0
-1 -92 -37 68 -84 41 85 -86 -28 40 30 0
-1 -92 -37 68 -84 41 85 86 -91 -77 -57 0
-1 -92 37 14 -31 40 3 0
-1 -92 37 -14 -53 2 18 39 72 -81 -13 40 0
-1 -92 37 14 31 -86 26 -11 -43 0
-1 -92 37 14 -31 -40 -6 -78 -24 16 0
-1 -92 -37 68 -84 41 -85 -71 23 74 0
1 -68 93 97 -76 2 -86 16 0
1 68 10 -84 -70 -86 11 36 8 -16 0
-1 92 25 -68 7 -91 -57 65 96 14 0
-1 -92 -37 -68 -64 46 6 -2 -70 -21 55 0
-1 -92 37 -14 -53 -2 -10 24 -45 0
-1 92 25 -68 7 -91 57 66 -49 -59 -81 0
1 68 -10 -93 22 -26 82 13 -94 -37 0
-1 -92 -37 68 -84 41 85 -86 -28 -40 42 0
1 68 -10 93 94 48 -28 36 -25 -31 46 0
-1 92 25 68 -71 -38 -6 55 -74 13 18 0
-1 -92 37 14 -31 -40 6 0
-1 92 -25 49 -7 -6 -22 -28 74 39 0
-1 92 -25 -49 -47 85 70 -80 0
-1 92 -25 49 7 -55 88 -95 0
-1 92 -25 49 7 -55 -88 17 -53 -28 0
-1 92 -25 49 -7 6 19 -46 0
-1 92 25 -68 -7 41 9 93 49 -4 0
1 68 -10 93 -94 -50 14 -77 5 87 0
-1 92 -25 49 7 55 -93 -15 0
-1 -92 37 -14 -53 2 18 39 72 -81 13 0
-1 -92 37 14 31 -86 26 11 -47 0
-1 92 25 68 -71 -38 6 -60 -41 29 3 32 5 76 0
1 -68 -93 -96 -67 8 -22 -4 -36 0
-1 -92 -37 68 -84 41 85 -86 28 -69 0
-1 -92 37 14 -31 -40 -6 -78 -24 -16 0
-1 -92 -37 -68 64 -18 -89 29 -24 2 -5 50 0
-1 -92 -37 -68 -64 46 6 -2 70 -62 -53 0
-1 92 25 68 71 -48 -13 36 -67 -91 -87 43 0
-1 -92 -37 -68 64 -18 -89 29 24 86 76 25 0
-1 -92 -37 -68 -64 46 -6 0
-1 -92 37 -14 -53 2 18 39 -72 -58 3 60 0
1 68 10 84 -47 8 -21 -25 -39 9 -23 -40 -94 0
1 -68 93 -97 -31 -49 41 -82 -30 6 0
-1 -92 37 -14 -53 -2 -10 -24 8 -76 62 0
1 -68 93 -97 31 69 -4 -88 47 32 5 0
1 68 10 84 47 70 55 90 -67 16 -42 77 76 0
-1 92 -25 49 7 55 -93 15 -60 0
-1 -92 -37 68 84 -76 24 17 60 -36 81 85 4 -95 0
-1 -92 -37 -68 64 -18 89 5 13 -52 28 -60 0
-1 -92 -37 -68 64 -18 89 5 -13 0
1 68 -10 93 -94 50 -26 -84 0
1 68 10 -84 70 87 97 -85 -20 38 0
-1 -92 -37 68 -84 41 85 -86 28 69 -14 -38 -95 21 -62 0
-1 -92 37 -14 53 19 77 0
1 -68 93 -97 31 -69 -86 -90 18 40 0
-1 92 -25 49 -7 -6 -22 28 -95 -77 0
1 68 -10 93 94 48 -28 36 25 -64 0
-1 92 -25 -49 -47 -85 -44 36 -28 0
-1 92 25 68 -71 38 -66 87 54 -5 81 69 0
1 68 -10 93 94 -48 40 -21 19 29 -57 0
1 68 -10 93 -94 -50 14 77 8 -17 75 -37 0
-1 -92 -37 68 84 76 -81 64 -65 15 82 0
1 -68 93 -97 -31 -49 41 -82 30 52 0
1 68 10 -84 70 -87 86 -41 18 -76 -91 0
-1 92 -25 49 -7 -6 22 -37 -44 0
-1 -92 37 14 31 86 -77 -89 21 0
-1 92 25 -68 7 -91 -57 65 96 -14 0
1 68 10 -84 70 -87 86 -41 -18 -13 91 0
1 68 -10 -93 22 -26 -82 -38 85 51 0
-1 -92 -37 68 84 -76 -24 0
-1 -92 -37 68 84 -76 24 -17 -70 -91 -54 4 0
-1 92 25 68 -71 38 -66 87 54 -5 -81 -28 61 72 0
1 -68 -93 -96 67 -89 36 71 54 -70 0
-1 -92 -37 68 -84 41 85 -86 28 69 14 80 -11 -97 0
1 68 -10 93 -94 50 26 -51 0
1 68 10 84 47 70 -55 76 -5 -41 57 0
1 68 10 -84 -70 -86 -11 81 -63 92 0
1 68 -10 -93 -22 77 18 2 49 0
1 68 10 84 -47 8 21 74 32 0
1 68 -10 93 -94 -50 14 -77 5 -87 -24 34 0
-1 -92 -37 -68 64 -18 -89 29 24 86 -76 77 66 0
-1 92 -25 49 7 -55 -88 17 53 -75 0
-1 92 25 68 -71 38 -66 87 54 -5 -81 -28 61 -72 0
-1 -92 37 14 31 86 77 -48 -84 0
-1 -92 -37 68 -84 41 85 -86 -28 -40 -42 6 0
1 -68 93 97 -76 -2 -82 -89 0
1 -68 93 -97 -31 49 -43 46 94 0
-1 -92 -37 68 -84 41 85 -86 28 69 -14 38 -74 61 18 0
1 -68 -93 -96 67 89 -76 35 -21 0
1 -68 -93 96 46 72 66 -13 0
1 68 10 84 -47 8 -21 25 61 37 0
-1 -92 -37 68 -84 -41 9 21 85 0
-1 92 25 -68 -7 41 -9 30 61 0
1 68 10 -84 70 87 97 -85 20 0
1 -68 93 -97 -31 -49 41 82 -71 45 -89 20 0
1 -68 93 97 -76 -2 82 37 0
1 -68 -93 96 46 72 66 13 30 0
-1 92 25 68 71 48 -34 26 91 0
1 68 10 84 47 70 55 90 -67 -16 -51 0
-1 -92 37 14 -31 40 -3 0
1 68 -10 -93 22 -26 82 -13 0
-1 -92 37 -14 -53 2 18 -39 0
1 -68 93 -97 31 69 -4 -88 47 32 -5 0
-1 -92 37 14 31 86 77 48 0
-1 92 25 68 -71 38 -66 87 54 5 20 -74 0
1 -68 -93 -96 67 -89 36 71 54 70 48 0
1 -68 93 -97 -31 -49 -41 -94 16 -36 52 87 0
-1 -92 37 -14 -53 -2 10 40 51 5 0
1 -68 -93 -96 67 89 -76 -35 57 28 47 59 -71 0
1 68 10 -84 70 -87 -86 54 -81 0
1 68 -10 -93 -22 77 -18 -51 28 0
-1 -92 37 14 31 -86 -26 71 61 -3 0
-1 92 25 68 -71 -38 6 60 -3 -22 0
1 -68 93 -97 -31 -49 -41 -94 16 36 -96 -3 57 0
