c NeuroCodeBench 2.0 CNF formula with verdict Unsat
p cnf 25 81
1 -8 9 -6 3 17 12 0
1 -8 9 -6 3 -17 10 0
1 8 16 11 7 3 10 -6 0
-1 -2 -12 -22 17 0
1 -8 9 -6 -3 -11 -18 0
1 8 16 11 7 -3 -4 19 0
-1 -2 -12 22 -5 9 0
1 -8 9 6 -17 2 -24 0
-1 2 10 -3 -6 13 -4 -16 0
1 8 16 -11 14 5 12 0
1 -8 9 -6 3 -17 -10 -23 0
1 8 16 -11 14 -5 13 -18 -10 0
-1 -2 -12 22 5 -10 -16 15 0
-1 -2 -12 22 -5 -9 -23 -18 14 0
1 -8 9 6 17 0
-1 -2 -12 -22 -17 23 0
1 8 16 -11 -14 -24 0
-1 2 10 -3 -6 13 -4 16 0
1 8 16 11 7 -3 4 0
1 -8 -9 -14 12 13 0
-1 -2 12 -22 -14 -21 0
-1 -2 -12 22 5 -10 16 0
1 8 16 -11 -14 24 0
-1 2 -10 9 -22 7 0
-1 -2 12 -22 14 0
-1 2 -10 9 22 16 0
-1 -2 -12 22 5 10 0
-1 2 10 -3 6 -18 22 16 0
-1 -2 -12 22 5 -10 -16 -15 0
1 -8 -9 -14 -12 -23 5 0
1 8 16 11 7 3 -10 0
1 -8 9 6 -17 -2 -4 -25 22 0
1 -8 9 -6 -3 -11 18 22 12 0
1 -8 9 6 -17 -2 -4 25 0
-1 2 -10 9 22 -16 0
-1 2 -10 9 -22 -7 0
1 8 16 -11 14 -5 -13 -19 0
1 -8 9 -6 3 17 -12 0
-1 -2 -12 22 -5 -9 -23 18 0
-1 -2 -12 -22 -17 -23 0
-1 2 10 -3 6 -18 22 -16 0
-1 -2 -12 22 -5 -9 -23 -18 -14 0
1 8 16 -11 14 -5 13 -18 10 0
1 8 -16 -19 0
1 -8 9 6 -17 -2 -4 -25 -22 0
-1 2 10 -3 -6 -13 -22 -8 0
-1 -2 -12 22 -5 -9 23 -4 0
1 -8 -9 -14 12 -13 0
1 -8 9 6 -17 2 24 13 0
1 -8 -9 14 0
1 -8 -9 -14 -12 23 0
1 8 16 11 7 -3 -4 -19 0
1 8 16 11 -7 23 0
1 8 16 11 -7 -23 0
-1 -2 12 22 16 -24 0
1 -8 9 6 -17 -2 4 0
1 8 16 -11 14 -5 13 18 0
1 -8 9 -6 -3 11 -15 0
-1 2 -10 -9 0
1 -8 -9 -14 -12 -23 -5 0
-1 2 10 3 0
-1 -2 12 22 16 24 0
-1 2 10 -3 -6 -13 -22 8 0
-1 -2 12 -22 -14 21 0
-1 -2 -12 22 -5 -9 23 4 8 0
1 8 16 11 7 3 10 6 0
1 -8 9 -6 -3 11 15 0
-1 2 10 -3 -6 -13 22 0
1 8 16 -11 14 5 -12 -9 0
-1 2 10 -3 -6 13 4 0
1 -8 9 -6 3 -17 -10 23 0
1 8 16 -11 14 5 -12 9 0
1 8 16 -11 14 -5 -13 19 0
-1 -2 -12 22 -5 -9 23 4 -8 0
1 -8 9 -6 -3 -11 18 -22 0
1 8 -16 19 0
1 -8 9 -6 -3 -11 18 22 -12 0
-1 2 10 -3 6 18 0
-1 -2 12 22 -16 0
1 -8 9 6 -17 2 24 -13 0
-1 2 10 -3 6 -18 -22 0
