c NeuroCodeBench 2.0 CNF formula with verdict Unsat
p cnf 67 162
1 -44 23 -25 -66 -52 -16 32 0
1 -44 -23 -62 -45 -9 -25 -65 40 0
1 -44 23 -25 66 -65 54 -17 -49 0
1 44 63 37 65 13 46 36 -59 18 0
1 -44 -23 -62 -45 -9 -25 -65 -40 30 0
1 -44 23 -25 66 -65 54 17 16 31 0
1 -44 23 -25 -66 52 22 -24 -7 0
1 44 63 37 65 13 -46 40 -6 -31 17 0
1 -44 -23 62 -6 21 -22 -26 39 0
1 -44 -23 -62 45 8 67 31 -39 0
1 -44 -23 62 -6 -21 -31 19 38 -4 0
1 44 63 37 65 -13 -34 54 22 0
-1 58 -47 41 -53 -31 -52 4 -15 -19 0
1 44 63 37 -65 -9 -11 0
1 44 -63 -3 39 0
1 -44 23 -25 66 -65 54 17 16 -31 0
1 -44 -23 62 -6 -21 -31 19 -38 0
1 -44 23 -25 -66 52 -22 -37 43 -5 0
1 -44 -23 62 -6 21 22 19 -58 0
1 -44 -23 -62 -45 9 -65 -21 63 -26 -53 0
1 -44 23 -25 -66 -52 16 59 0
1 -44 -23 62 -6 21 22 -19 0
1 -44 23 25 55 36 45 31 0
-1 -58 29 53 18 60 15 0
-1 -58 29 53 18 -60 0
1 -44 23 -25 66 -65 54 17 -16 0
1 44 63 37 65 13 -46 40 -6 31 0
1 -44 -23 62 -6 21 -22 -26 -39 -37 0
-1 58 47 -49 -64 -23 0
1 -44 -23 -62 45 8 -67 0
1 -44 23 -25 -66 -52 -16 -32 -46 0
1 -44 23 -25 66 -65 54 -17 49 0
1 -44 -23 -62 45 -8 48 -35 0
-1 58 -47 41 -53 -31 52 0
-1 58 -47 41 -53 31 -33 27 0
-1 -58 29 53 -18 -26 0
1 44 -63 -3 -39 0
-1 -58 -29 -3 -50 -41 0
1 44 -63 3 -5 0
-1 58 -47 41 53 0
-1 -58 -29 -3 -50 41 0
1 -44 -23 62 6 12 4 37 48 67 -13 0
-1 58 -47 -41 -35 0
1 -44 23 -25 -66 -52 16 -59 -41 0
1 -44 23 -25 -66 52 22 -24 7 60 0
1 44 63 37 -65 9 -57 0
1 -44 -23 62 -6 -21 31 39 0
1 44 63 37 65 13 -46 -40 24 -36 0
1 44 63 37 65 13 -46 40 6 0
1 -44 -23 -62 -45 -9 -25 65 -2 26 -28 0
1 -44 -23 62 -6 -21 -31 -19 0
1 -44 -23 62 6 12 4 -37 0
-1 -58 29 -53 64 -8 -4 -34 -49 0
1 -44 23 25 -55 -35 3 0
1 -44 -23 -62 -45 -9 25 0
1 -44 23 -25 66 65 -11 0
1 -44 -23 62 -6 21 22 19 58 0
-1 -58 29 53 18 60 -15 0
1 44 63 37 -65 -9 11 60 0
1 -44 23 25 55 -36 0
1 -44 -23 -62 -45 9 65 -19 0
1 -44 23 25 55 36 -45 34 -48 -42 0
1 44 63 37 65 -13 -34 54 -22 29 0
1 -44 -23 62 6 -12 28 0
-1 -58 -29 -3 50 -5 0
1 -44 -23 -62 -45 -9 -25 -65 -40 -30 0
1 -44 -23 62 6 -12 -28 56 0
1 44 63 37 65 13 -46 -40 -24 -32 0
1 44 63 37 65 13 -46 -40 -24 32 0
1 -44 -23 -62 45 -8 -48 0
1 -44 -23 62 -6 -21 31 -39 0
-1 -58 29 -53 -64 23 0
1 -44 -23 62 -6 21 -22 26 0
-1 -58 -29 3 33 -40 0
1 44 63 37 -65 9 57 0
-1 -58 29 53 -18 26 0
-1 -58 29 -53 -64 -23 0
1 -44 23 25 55 36 -45 -34 0
-1 58 -47 41 -53 -31 -52 4 -15 19 0
1 44 63 -37 59 0
-1 58 47 49 -15 0
-1 58 -47 41 -53 31 33 0
1 -44 23 25 55 36 45 -31 -41 0
1 -44 23 25 -55 35 0
-1 -58 -29 3 33 40 62 67 0
1 -44 -23 62 6 12 -4 -61 -24 0
1 -44 -23 62 6 12 4 37 -48 0
1 -44 23 25 55 36 45 -31 41 0
1 -44 23 -25 66 65 11 0
-1 -58 29 -53 64 -8 -4 -34 49 0
1 -44 23 -25 -66 -52 16 -59 41 0
-1 58 -47 -41 35 -67 0
-1 -58 -29 3 -33 -50 -5 24 0
1 44 63 37 65 13 46 36 59 0
-1 58 -47 41 -53 -31 -52 -4 0
1 -44 -23 62 6 12 -4 -61 24 0
1 -44 -23 62 -6 21 -22 -26 -39 37 0
1 -44 -23 -62 -45 9 -65 21 0
1 -44 -23 62 6 -12 -28 -56 0
1 -44 23 -25 -66 52 -22 37 -34 0
1 -44 23 -25 -66 52 22 -24 7 -60 0
1 -44 -23 -62 45 -8 48 35 40 0
-1 -58 -29 -3 50 5 24 0
-1 58 47 49 15 -40 -57 -12 0
1 -44 -23 62 -6 -21 -31 19 38 4 0
-1 58 47 -49 64 0
1 44 63 37 65 -13 -34 54 -22 -29 0
1 44 63 -37 -59 15 0
-1 -58 -29 3 -33 50 62 0
-1 -58 -29 3 -33 -50 5 0
1 -44 23 25 55 36 -45 34 48 0
-1 -58 29 -53 64 -8 -4 34 63 0
1 -44 -23 -62 45 -8 48 35 -40 0
1 -44 -23 62 6 12 -4 61 0
-1 -58 29 -53 64 -8 4 0
1 44 63 37 -65 -9 11 -60 0
-1 58 -47 41 -53 -31 -52 4 15 0
1 -44 -23 -62 -45 -9 -25 65 -2 26 28 0
1 -44 23 -25 -66 52 22 24 0
-1 58 47 49 15 40 0
1 44 63 37 65 13 46 -36 0
-1 -58 29 -53 64 -8 -4 34 -63 0
1 -44 -23 -62 -45 9 65 19 0
1 -44 23 -25 -66 52 -22 -37 -43 0
-1 -58 -29 3 33 40 -62 0
-1 -58 -29 3 -33 -50 -5 -24 0
1 -44 23 25 55 36 -45 34 -48 42 0
1 -44 23 -25 -66 52 -22 37 34 0
1 44 63 37 65 -13 34 48 0
1 -44 23 -25 -66 52 -22 -37 43 5 0
-1 -58 29 -53 64 8 -41 0
-1 -58 -29 3 -33 50 -62 0
-1 58 47 49 15 -40 57 0
1 44 63 37 65 13 -46 40 -6 -31 -17 0
-1 -58 -29 -3 50 5 -24 0
1 -44 23 25 -55 -35 -3 0
1 -44 -23 -62 -45 -9 -25 65 2 0
-1 -58 29 -53 64 8 41 0
-1 58 -47 -41 35 67 40 0
1 44 63 -37 -59 -15 0
1 -44 -23 -62 -45 9 -65 -21 -63 -24 0
1 -44 23 -25 66 -65 -54 0
1 -44 -23 62 6 12 4 37 48 67 13 0
1 44 63 37 65 -13 -34 -54 0
-1 58 47 -49 -64 23 0
-1 58 -47 41 -53 31 -33 -27 0
1 -44 23 -25 -66 -52 -16 -32 46 0
1 -44 -23 -62 45 8 67 31 39 0
1 44 63 37 65 13 -46 -40 24 36 0
1 44 63 37 65 -13 34 -48 0
-1 58 -47 -41 35 67 -40 0
-1 58 47 49 15 -40 -57 12 0
1 -44 -23 -62 -45 -9 -25 65 -2 -26 0
1 -44 -23 -62 -45 9 -65 -21 63 26 0
1 -44 -23 -62 45 8 67 -31 0
1 44 -63 3 5 0
1 -44 -23 62 6 12 4 37 48 -67 0
-1 -58 -29 3 33 40 62 -67 -64 0
1 -44 -23 -62 -45 9 -65 -21 63 -26 53 0
1 44 63 37 65 13 46 36 -59 -18 0
1 -44 -23 -62 -45 9 -65 -21 -63 24 0
-1 -58 -29 3 33 40 62 -67 64 0
