c NeuroCodeBench 2.0 CNF formula with verdict Unsat
p cnf 76 284
-1 -73 -67 -6 -60 7 71 -38 -23 -58 0
1 72 66 36 3 74 -4 -42 59 34 0
1 72 -66 14 62 -21 26 28 0
1 72 66 -36 39 0
-1 73 46 41 19 -24 0
1 -72 62 -14 71 -5 -61 -32 -30 0
-1 -73 67 33 -29 18 -38 0
1 -72 -62 -41 -26 -45 -48 -35 50 0
1 72 -66 -14 -36 37 12 16 13 -49 67 68 0
1 -72 -62 41 -46 29 67 0
1 -72 -62 -41 -26 -45 48 -44 -11 0
-1 73 46 -41 71 -38 -60 0
-1 73 -46 -4 -51 -42 -47 -13 -68 58 0
1 -72 -62 -41 -26 -45 48 44 -9 19 0
-1 73 -46 4 -72 71 -42 7 11 0
-1 -73 -67 6 46 55 76 -60 47 -35 44 0
1 -72 -62 41 -46 -29 -27 73 -75 -9 0
-1 73 -46 4 72 -44 18 31 -62 0
1 -72 -62 41 -46 29 -67 -10 0
1 72 66 36 -3 31 52 21 -2 44 -4 0
1 -72 -62 -41 -26 45 8 -25 11 0
-1 73 46 41 -19 -76 39 0
1 -72 -62 41 -46 -29 -27 73 -75 9 57 20 0
1 72 -66 -14 -36 37 12 16 -13 0
-1 73 -46 4 -72 71 42 -48 0
-1 -73 -67 -6 -60 7 71 38 0
1 72 -66 14 62 21 -50 18 63 -39 0
1 72 -66 -14 36 -15 -57 -60 -38 -52 -56 0
1 72 -66 -14 36 -15 57 41 32 0
1 -72 62 -14 -71 -57 -20 -26 0
-1 73 46 41 -19 76 0
1 -72 62 -14 71 -5 61 65 19 9 0
1 72 66 36 3 -74 -45 61 0
-1 73 -46 4 72 44 -12 -53 -20 69 6 -28 0
1 -72 -62 -41 26 58 51 -29 -3 0
1 -72 -62 -41 -26 45 8 25 0
-1 73 -46 4 72 44 12 -63 24 0
-1 73 -46 4 -72 71 -42 7 -11 27 0
-1 73 -46 4 72 -44 -18 -56 57 0
-1 73 46 -41 -71 63 0
1 72 -66 -14 36 -15 -57 60 62 -53 0
1 72 -66 -14 36 -15 -57 60 -62 -73 16 0
1 -72 62 -14 71 -5 61 65 19 -9 -47 0
1 72 -66 -14 36 -15 -57 -60 -38 52 45 -31 -28 0
-1 -73 -67 6 -46 60 12 0
-1 -73 -67 -6 -60 7 -71 0
-1 73 -46 4 -72 -71 -16 -69 -41 31 17 0
1 -72 -62 41 -46 -29 27 0
1 -72 -62 41 46 -15 70 0
1 -72 -62 41 -46 -29 -27 -73 -11 71 0
1 -72 62 -14 -71 57 66 -58 -53 50 0
-1 -73 67 33 29 41 -59 0
1 72 -66 -14 -36 -37 -35 -54 19 0
-1 73 -46 4 72 44 -12 -53 -20 -69 0
1 -72 62 -14 71 -5 61 -65 -2 0
1 -72 -62 41 -46 -29 -27 -73 -11 -71 14 -38 0
1 72 66 36 -3 31 52 21 2 63 0
-1 73 -46 4 -72 -71 -16 -69 -41 31 -17 0
1 72 66 36 3 74 -4 -42 -59 0
-1 73 46 -41 -71 -63 0
1 72 -66 -14 -36 -37 35 53 0
1 72 -66 14 62 -21 -26 6 0
-1 73 46 41 -19 -76 -39 0
1 -72 -62 -41 -26 -45 -48 35 -31 0
1 72 -66 -14 36 -15 -57 -60 -38 52 -45 -68 0
1 72 -66 -14 36 -15 -57 60 -62 -73 -16 -70 -42 0
-1 -73 -67 -6 -60 7 71 -38 -23 58 0
-1 73 -46 4 72 -44 -18 -56 -57 0
-1 73 -46 4 72 44 -12 53 -33 0
1 72 -66 -14 -36 37 12 -16 23 0
1 72 66 -36 -39 18 -14 -20 -61 -49 -75 0
1 -72 62 -14 71 -5 61 65 -19 0
1 72 66 36 -3 31 52 21 2 -63 0
1 72 -66 -14 36 -15 -57 60 62 53 -48 0
1 -72 -62 -41 -26 45 8 -25 -11 12 0
1 -72 -62 41 -46 -29 -27 73 -75 9 -57 51 -26 0
-1 -73 -67 -6 60 64 65 0
1 -72 62 -14 71 -5 -61 -32 30 54 0
-1 -73 -67 6 -46 -60 0
1 72 -66 -14 36 15 -32 -62 -4 -67 0
-1 73 -46 -4 -51 -42 -47 13 44 0
1 72 -66 -14 36 15 32 -71 0
-1 73 -46 4 -72 71 42 48 3 66 0
1 72 -66 14 62 21 -50 18 -63 0
1 72 -66 -14 36 15 32 71 -20 -3 -58 0
-1 -73 -67 6 46 -55 19 16 0
1 -72 62 14 51 39 26 -4 29 0
-1 -73 -67 6 46 55 76 -60 47 35 66 0
-1 -73 -67 -6 60 64 -65 -75 33 0
1 72 -66 -14 36 -15 -57 -60 -38 -52 56 -43 0
-1 73 -46 4 -72 -71 16 -17 -27 -45 0
1 72 -66 -14 -36 37 12 16 13 49 0
-1 73 -46 -4 -51 -42 -47 -13 68 -3 0
1 -72 -62 -41 26 58 -51 0
-1 -73 -67 6 46 55 -76 39 47 -10 0
1 72 66 36 -3 31 52 -21 0
1 72 -66 -14 36 -15 -57 60 -62 -73 -16 -70 42 0
-1 73 -46 4 72 44 -12 53 33 0
1 -72 -62 41 -46 -29 -27 73 -75 9 -57 -51 0
1 72 -66 -14 36 -15 -57 60 62 53 48 28 0
1 -72 62 -14 71 -5 61 -65 2 0
1 72 -66 -14 36 15 -32 -62 4 0
1 -72 62 -14 -71 -57 -20 26 0
-1 -73 -67 -6 60 -64 74 0
1 -72 62 -14 -71 57 66 58 0
-1 -73 67 -33 -42 0
1 -72 -62 41 -46 29 -67 10 -12 0
1 72 66 36 3 -74 -45 -61 0
1 72 66 36 -3 -31 0
1 -72 -62 41 46 -15 -70 0
-1 -73 -67 -6 60 64 -65 75 -12 24 0
1 72 -66 -14 36 -15 -57 60 -62 -73 -16 70 0
1 72 66 36 3 -74 45 61 0
1 -72 62 14 51 -39 55 0
1 72 -66 14 62 21 50 -54 0
1 72 -66 14 62 21 50 54 -60 0
1 72 -66 -14 36 -15 -57 -60 -38 52 45 31 0
1 -72 62 14 51 -39 -55 0
1 72 66 36 -3 31 -52 15 0
1 72 66 -36 -39 18 14 -57 0
1 72 -66 -14 -36 37 12 16 13 -49 67 -68 0
1 -72 -62 -41 26 58 51 29 0
1 -72 62 14 51 39 -26 0
-1 -73 -67 6 46 55 -76 39 47 10 0
-1 -73 -67 6 46 55 -76 -39 -8 0
-1 73 -46 4 -72 -71 16 -17 27 52 0
1 72 -66 -14 36 15 32 71 20 -49 0
1 72 -66 -14 36 -15 -57 -60 38 0
1 -72 -62 -41 -26 -45 48 -44 11 25 55 0
1 72 -66 -14 36 -15 -57 -60 -38 52 -45 68 71 0
1 72 -66 -14 -36 -37 35 -53 64 0
1 72 66 -36 -39 18 -14 -20 -61 -49 75 0
-1 -73 67 -33 42 0
-1 73 -46 4 72 44 12 63 0
1 -72 62 14 51 39 26 4 0
1 -72 62 -14 71 -5 -61 32 0
-1 -73 67 33 29 -41 -9 -64 0
-1 -73 -67 6 46 -55 19 -16 -75 56 0
1 72 -66 -14 -36 37 -12 10 -41 0
1 -72 62 -14 -71 57 -66 35 0
-1 -73 67 33 29 -41 -9 64 0
-1 73 -46 4 72 -44 -18 56 28 -57 0
1 72 -66 -14 36 -15 -57 -60 -38 -52 56 43 0
1 -72 -62 41 -46 -29 -27 73 75 0
1 72 -66 -14 -36 37 -12 -10 0
-1 -73 -67 6 46 55 76 -60 47 -35 -44 0
-1 73 -46 4 72 44 12 -63 -24 -32 0
1 -72 -62 41 -46 -29 -27 73 -75 9 -57 51 26 0
-1 73 -46 4 72 44 12 -63 -24 32 0
-1 73 -46 4 -72 -71 -16 -69 41 30 0
-1 73 -46 4 72 44 -12 -53 -20 69 6 28 0
-1 73 -46 4 -72 71 -42 -7 0
1 72 -66 -14 -36 37 12 -16 -23 0
1 -72 62 -14 71 5 4 46 0
1 72 -66 -14 36 15 -32 -62 -4 67 0
1 -72 -62 41 46 15 0
1 72 -66 -14 36 15 32 71 -20 -3 58 0
1 72 66 36 3 74 -4 -42 59 -34 0
-1 -73 -67 6 46 55 76 60 8 -64 0
1 72 -66 14 -62 0
1 72 66 -36 -39 -18 47 8 0
-1 -73 -67 6 46 55 -76 39 -47 0
-1 -73 -67 6 46 55 76 60 8 64 0
1 -72 -62 41 -46 -29 -27 -73 11 5 0
1 72 66 -36 -39 18 14 57 0
1 72 66 -36 -39 18 -14 20 0
-1 -73 -67 -6 60 64 -65 75 -12 -24 0
1 72 66 -36 -39 18 -14 -20 -61 49 0
1 72 -66 14 62 -21 26 -28 0
1 72 -66 -14 36 -15 -57 -60 -38 52 -45 68 -71 0
-1 73 -46 4 72 -44 -18 56 -28 -42 0
-1 73 -46 -4 51 36 39 0
-1 73 -46 4 -72 71 42 48 -3 28 0
-1 73 -46 -4 -51 -42 47 -50 -33 0
1 -72 -62 41 -46 -29 -27 73 -75 9 57 -20 0
-1 73 -46 4 72 -44 -18 56 -28 42 -68 -34 0
-1 -73 -67 6 -46 60 -12 0
1 72 66 -36 -39 -18 47 -8 0
-1 -73 -67 6 46 55 76 -60 -47 0
1 72 66 36 -3 31 -52 -15 0
1 -72 -62 -41 26 58 51 -29 3 0
-1 -73 -67 6 46 55 -76 -39 8 0
1 -72 62 -14 71 -5 -61 -32 30 -54 0
1 72 66 36 -3 31 52 21 -2 44 4 0
1 72 -66 -14 36 -15 57 -41 -16 0
-1 73 -46 4 72 44 -12 -53 20 7 0
-1 73 -46 4 72 -44 -18 56 28 57 0
1 72 -66 -14 36 15 32 71 20 49 0
-1 -73 -67 6 46 -55 19 -16 -75 -56 0
1 -72 -62 -41 -26 -45 48 -44 11 -25 0
-1 -73 67 33 -29 -18 0
1 -72 -62 41 -46 -29 -27 -73 -11 -71 14 38 0
1 -72 62 14 51 39 26 -4 -29 54 0
-1 73 -46 4 -72 71 42 48 3 -66 -43 0
-1 73 -46 4 72 -44 18 -31 0
-1 -73 -67 -6 -60 7 71 -38 23 0
-1 73 46 -41 71 -38 60 0
1 72 -66 -14 -36 -37 35 -53 -64 0
1 -72 62 -14 -71 -57 20 0
-1 73 -46 -4 51 -36 0
1 72 66 36 3 -74 45 -61 -34 0
1 72 -66 14 62 -21 -26 -6 0
1 -72 -62 -41 -26 -45 -48 -35 -50 0
1 72 -66 -14 -36 37 12 16 13 -49 -67 0
1 -72 -62 -41 -26 -45 48 -44 11 25 -55 0
-1 -73 -67 -6 -60 -7 65 -34 0
-1 -73 -67 -6 -60 -7 -65 0
1 -72 62 -14 -71 57 66 -58 53 0
1 72 -66 -14 36 -15 57 41 -32 24 0
1 -72 -62 -41 -26 45 8 -25 -11 -12 0
-1 73 -46 -4 -51 -42 -47 13 -44 0
1 -72 -62 -41 -26 45 -8 0
-1 -73 -67 6 46 55 76 60 -8 0
-1 73 -46 -4 51 36 -39 0
-1 73 46 -41 71 38 0
-1 -73 67 33 29 41 59 0
-1 73 -46 -4 -51 -42 47 50 0
1 72 -66 -14 -36 37 -12 10 41 0
1 -72 62 14 -51 50 0
1 -72 62 14 51 39 26 -4 -29 -54 0
1 72 -66 -14 36 -15 57 -41 16 0
-1 73 -46 4 -72 71 42 48 -3 -28 7 0
-1 -73 67 33 -29 18 38 0
-1 73 -46 -4 -51 -42 -47 -13 -68 -58 0
1 72 -66 -14 -36 -37 -35 -54 -19 0
-1 73 -46 4 72 -44 -18 56 -28 42 -68 34 0
-1 73 -46 4 72 44 -12 -53 20 -7 0
1 72 -66 -14 36 15 32 71 -20 3 -42 0
1 72 66 -36 -39 18 -14 -20 61 0
-1 73 -46 4 -72 71 -42 7 -11 -27 0
-1 73 46 41 19 24 0
-1 73 -46 4 72 -44 -18 56 -28 42 68 0
1 72 -66 14 62 21 50 54 60 0
1 -72 62 14 -51 -50 -25 0
1 72 -66 -14 36 -15 -57 -60 -38 52 45 -31 28 0
1 -72 62 -14 71 5 4 -46 0
-1 73 -46 4 -72 -71 -16 -69 -41 -31 0
1 72 -66 14 62 21 -50 -18 0
-1 -73 -67 -6 60 64 -65 75 12 0
1 72 66 -36 -39 -18 -47 0
-1 73 -46 -4 -51 -42 -47 -13 68 3 0
-1 73 -46 4 72 44 -12 -53 -20 69 -6 0
1 72 -66 -14 -36 -37 -35 54 0
-1 -73 -67 6 46 55 76 -60 47 35 -66 0
1 -72 62 -14 -71 57 66 -58 -53 -50 0
-1 73 -46 4 -72 -71 16 17 0
1 -72 -62 -41 -26 -45 -48 35 31 0
1 -72 -62 41 -46 29 -67 10 12 0
1 72 66 36 3 -74 45 -61 34 0
-1 -73 67 33 29 -41 9 0
1 72 66 36 3 74 -4 42 0
-1 73 -46 4 72 -44 18 31 62 0
1 72 -66 -14 36 -15 -57 60 -62 73 -2 -32 0
1 72 -66 -14 36 -15 -57 60 -62 73 -2 32 0
1 -72 -62 41 -46 -29 -27 -73 11 -5 0
-1 73 -46 4 -72 71 42 48 3 -66 43 0
-1 -73 -67 6 46 -55 -19 0
1 72 66 36 3 74 4 0
1 72 -66 -14 36 15 -32 62 0
1 -72 -62 -41 -26 -45 48 44 9 0
-1 -73 -67 -6 -60 -7 65 34 0
1 72 -66 -14 36 15 32 71 -20 3 42 0
-1 -73 -67 6 46 -55 19 -16 75 0
1 -72 -62 -41 -26 -45 48 44 -9 -19 0
-1 73 -46 4 -72 -71 16 -17 -27 45 0
1 72 -66 -14 36 -15 -57 60 -62 73 2 0
1 72 -66 -14 36 -15 57 41 -32 -24 0
-1 73 -46 4 -72 71 42 48 -3 -28 -7 0
-1 73 -46 -4 -51 42 0
1 -72 -62 -41 26 -58 0
1 -72 62 -14 71 -5 61 65 19 -9 47 0
1 72 -66 -14 36 -15 -57 60 62 53 48 -28 0
1 72 -66 14 62 21 -50 18 63 39 0
1 72 66 36 -3 31 52 21 -2 -44 0
-1 73 -46 4 -72 -71 -16 -69 41 -30 0
-1 73 -46 4 -72 -71 -16 69 0
-1 -73 -67 -6 60 64 -65 -75 -33 0
1 -72 -62 41 -46 -29 -27 -73 -11 -71 -14 0
1 -72 62 -14 -71 57 -66 -35 0
-1 73 -46 -4 -51 -42 47 -50 33 0
-1 73 -46 4 -72 -71 16 -17 27 -52 0
-1 -73 -67 -6 60 -64 -74 0
1 -72 62 14 -51 -50 25 0
1 -72 62 -14 71 5 -4 0
