c NeuroCodeBench 2.0 CNF formula with verdict Unsat
p cnf 11 45
1 -8 6 -2 3 0
-1 -3 -4 -9 -11 -7 -2 0
1 -8 6 2 -5 0
-1 -3 4 -10 -8 -9 -11 5 2 0
-1 -3 4 10 5 0
-1 -3 -4 -9 11 6 -7 0
-1 -3 4 -10 -8 9 2 -6 0
-1 3 -2 -9 4 0
-1 -3 -4 -9 11 6 7 -8 0
1 8 -10 0
1 -8 -6 -4 10 0
-1 -3 4 -10 8 0
-1 -3 4 -10 -8 -9 -11 -5 0
-1 3 -2 -9 -4 -6 0
-1 3 -2 9 -6 0
-1 3 -2 -9 -4 6 0
-1 3 -2 9 6 0
-1 -3 4 -10 -8 -9 -11 5 -2 0
1 -8 -6 4 2 -10 0
-1 -3 -4 -9 11 -6 5 -2 8 0
-1 -3 4 -10 -8 9 -2 11 5 -7 0
-1 -3 -4 9 -6 0
-1 3 2 11 0
-1 -3 4 -10 -8 9 -2 -11 0
-1 -3 4 -10 -8 9 2 6 -7 0
-1 -3 -4 9 6 0
-1 -3 4 10 -5 2 0
1 -8 -6 4 -2 0
1 8 10 0
-1 -3 -4 -9 -11 -7 2 0
-1 -3 4 -10 -8 9 -2 11 -5 0
-1 -3 -4 -9 -11 7 0
-1 -3 -4 -9 11 -6 5 2 0
-1 -3 4 -10 -8 -9 11 0
1 -8 6 2 5 0
-1 3 2 -11 0
1 -8 -6 -4 -10 0
-1 -3 -4 -9 11 -6 5 -2 -8 0
1 -8 -6 4 2 10 0
-1 -3 -4 -9 11 6 7 8 0
-1 -3 4 -10 -8 9 -2 11 5 7 0
-1 -3 4 10 -5 -2 0
-1 -3 -4 -9 11 -6 -5 0
-1 -3 4 -10 -8 9 2 6 7 0
1 -8 6 -2 -3 0
