c NeuroCodeBench 2.0 CNF formula with verdict Unsat
p cnf 83 666
-1 -81 41 11 -7 -33 45 -49 82 -12 0
-1 81 32 -75 65 58 2 31 50 66 -28 -18 -49 0
1 -42 -47 -40 -54 34 -11 0
1 -42 -47 40 77 12 65 6 -48 -14 -26 18 31 0
1 -42 47 -78 -5 53 6 -82 65 -60 30 0
1 -42 -47 40 77 12 65 6 -48 14 75 -28 0
-1 81 32 75 -6 76 72 -19 58 -12 17 20 -39 0
-1 81 32 -75 65 -58 -80 0
-1 -81 41 -11 -15 68 -60 58 0
1 -42 -47 40 77 12 65 6 -48 -14 -26 -18 0
1 -42 47 78 -38 -62 35 -65 0
-1 81 32 75 6 23 45 -47 73 -41 -79 0
1 42 68 30 21 -27 -24 7 -54 -56 0
1 -42 47 -78 -5 -53 58 -6 -44 59 17 0
-1 -81 41 -11 -15 -68 61 17 -7 -25 -60 -63 0
1 42 68 30 21 -27 -24 -7 19 -37 0
1 -42 -47 -40 54 -79 -63 41 80 -16 66 23 0
1 -42 47 -78 5 36 -35 -10 -29 -63 0
-1 -81 41 11 -7 -33 -45 -63 -78 27 70 0
-1 -81 -41 -8 39 -13 -78 -29 30 40 52 0
1 -42 47 -78 5 36 -35 10 -41 56 0
1 -42 -47 40 77 12 -65 73 -19 -3 53 0
-1 -81 -41 -8 39 -13 78 17 61 27 0
-1 81 32 -75 65 58 -2 76 55 -68 -61 0
1 -42 -47 -40 54 -79 -63 -41 -12 4 0
-1 -81 41 11 -7 -33 -45 -63 78 -16 0
1 42 68 30 21 -27 -24 7 -54 56 0
1 -42 47 78 -38 -62 35 65 0
1 42 68 -30 -48 -25 -44 70 59 -67 57 21 -81 0
1 -42 47 78 38 -76 -52 -2 0
-1 81 32 75 6 -23 -15 37 7 27 -48 -17 0
1 -42 -47 40 -77 -8 52 65 -25 -44 0
1 -42 47 -78 5 -36 -52 27 -82 68 45 3 0
1 -42 47 -78 -5 53 6 -82 65 -60 -30 10 -59 0
1 42 68 -30 -48 25 83 38 -23 0
1 -42 -47 40 77 12 65 -6 30 69 -11 14 0
1 -42 47 -78 -5 -53 -58 49 68 0
-1 -81 41 -11 -15 -68 -61 -21 -14 -57 -34 -53 12 -80 0
-1 -81 41 11 7 -52 70 -6 -59 -26 63 0
1 -42 47 -78 5 -36 -52 27 82 -70 17 -20 0
-1 -81 41 -11 -15 -68 -61 -21 -14 57 7 -58 -42 0
1 42 -68 -48 -52 -38 53 0
-1 -81 -41 -8 39 13 -36 -61 -33 52 27 0
-1 81 32 -75 65 58 2 31 50 66 -28 -18 49 0
-1 -81 41 11 -7 -33 45 -49 -82 5 0
-1 -81 -41 -8 39 -13 78 17 -61 51 0
1 -42 47 -78 5 -36 52 54 -33 0
-1 81 -32 -14 63 82 -66 -22 28 -53 0
-1 81 32 75 6 23 45 -47 -73 -22 0
-1 81 -32 14 -49 -15 -12 29 13 0
-1 -81 41 11 7 52 -83 51 0
1 -42 -47 40 77 12 65 6 -48 14 -75 20 -13 30 0
-1 81 32 75 6 23 -45 -21 0
-1 -81 41 -11 15 33 35 -44 -55 20 0
-1 -81 41 11 -7 -33 45 -49 -82 -5 42 61 -8 0
-1 -81 41 11 7 -52 70 -6 -59 -26 -63 0
-1 81 -32 14 49 -24 -8 -65 48 0
1 -42 -47 40 77 12 65 6 -48 14 -75 20 13 -80 0
-1 81 32 75 6 -23 15 11 -69 -53 30 0
-1 81 -32 -14 63 -82 -37 0
-1 -81 -41 -8 -39 55 -61 6 0
-1 -81 -41 -8 39 -13 -78 -29 30 -40 0
-1 -81 41 11 -7 -33 -45 -63 -78 27 -70 0
-1 -81 -41 8 -9 58 60 -36 0
-1 -81 -41 -8 -39 55 -61 -6 12 -11 62 22 0
1 -42 47 -78 -5 -53 58 6 34 7 -62 0
-1 81 32 75 6 23 45 47 -50 -74 -68 54 0
-1 -81 41 -11 -15 -68 61 17 7 -25 55 57 27 77 0
-1 81 -32 14 -49 15 -71 0
1 -42 47 -78 5 36 -35 -10 29 -3 71 76 0
1 -42 -47 40 77 12 -65 73 -19 3 63 0
-1 -81 41 -11 15 -33 45 -61 0
1 -42 47 -78 5 -36 -52 27 -82 -68 0
1 42 68 30 -21 74 47 69 -65 -20 0
1 -42 -47 40 77 12 -65 73 19 21 34 0
-1 81 32 -75 65 58 2 -31 -9 -78 -44 11 0
-1 -81 41 -11 -15 -68 61 17 -7 25 21 0
1 -42 -47 40 77 12 -65 -73 -44 0
-1 -81 41 11 -7 -33 45 -49 82 12 -21 0
-1 -81 41 11 -7 -33 -45 63 80 60 -12 -24 47 0
1 42 68 30 21 27 46 -7 19 -65 52 -25 72 0
1 -42 -47 40 77 12 -65 73 -19 3 -63 0
-1 -81 41 11 7 52 83 15 -27 25 0
-1 81 -32 -14 63 82 -66 -22 -28 37 0
-1 -81 -41 -8 39 13 -36 -61 -33 -52 0
1 42 68 -30 -48 -25 -44 70 59 -67 -57 0
-1 -81 -41 -8 39 13 36 60 76 0
1 -42 47 -78 -5 53 -6 -35 -58 43 0
-1 81 32 75 -6 76 -72 28 25 -42 0
-1 -81 41 -11 -15 -68 -61 -21 -14 -57 34 3 0
1 -42 -47 40 77 12 65 -6 30 69 -11 -14 0
1 42 68 30 21 27 46 -7 19 -65 52 -25 -72 0
-1 81 -32 14 49 -24 8 72 0
-1 -81 41 11 -7 -33 -45 -63 -78 -27 0
-1 -81 -41 -8 -39 55 -61 -6 12 11 59 0
-1 -81 41 -11 15 33 -35 -68 -2 0
-1 81 -32 14 49 24 10 -83 -38 0
1 -42 -47 -40 54 79 21 -36 52 -24 0
-1 -81 41 -11 -15 -68 -61 -21 -14 -57 -34 -53 -12 0
1 -42 47 -78 -5 -53 58 6 34 7 62 41 -55 0
-1 -81 41 11 7 -52 -70 71 -25 20 0
-1 81 -32 14 49 -24 8 -72 0
-1 -81 41 -11 15 33 -35 68 16 0
-1 -81 41 11 7 -52 70 -6 -59 26 -80 -47 0
-1 81 32 -75 65 58 -2 -76 -68 11 83 71 0
1 -42 47 -78 -5 53 6 -82 -65 7 2 68 -39 0
1 -42 47 -78 5 -36 52 -54 75 -64 22 0
1 -42 47 -78 -5 -53 -58 49 -68 0
-1 81 32 75 -6 76 72 -19 58 12 42 4 0
1 -42 -47 -40 54 79 21 -36 52 24 45 29 0
1 -42 47 -78 -5 -53 58 6 -34 0
1 42 -68 -48 52 36 24 0
-1 81 32 -75 65 58 -2 76 -55 31 0
1 -42 47 78 38 -76 52 7 15 -32 -23 0
-1 -81 41 11 7 -52 70 -6 -59 26 -80 47 0
1 42 68 30 -21 -74 19 47 -2 0
1 42 68 30 21 -27 24 -47 -58 59 0
-1 -81 41 -11 15 33 35 44 42 -25 0
1 42 68 -30 -48 25 -83 78 0
-1 -81 -41 -8 39 13 36 -60 -37 3 34 0
-1 81 32 -75 65 58 -2 -76 68 -54 21 -34 -17 0
-1 81 32 -75 65 58 2 -31 -9 -78 -44 -11 54 -51 0
1 42 -68 48 62 -44 -29 52 -39 0
1 -42 47 -78 5 -36 -52 -27 80 0
1 -42 47 -78 5 -36 -52 27 -82 68 45 -3 0
1 -42 -47 40 -77 -8 52 -65 -51 0
-1 -81 41 -11 -15 -68 61 17 7 25 -14 0
-1 -81 41 -11 15 33 -35 -68 2 0
-1 -81 41 -11 15 -33 -45 17 0
-1 81 32 75 -6 76 72 19 -3 70 40 29 0
-1 -81 41 11 -7 -33 -45 63 80 -60 50 -22 0
-1 -81 41 11 -7 33 53 -12 -4 38 0
1 -42 47 -78 -5 53 6 -82 65 -60 -30 -10 -63 16 0
-1 81 32 75 6 -23 -15 -37 -43 0
-1 81 32 -75 65 58 -2 -76 -68 -11 -34 0
1 42 68 30 -21 74 47 69 65 0
1 -42 -47 40 77 12 65 6 -48 14 75 28 0
-1 -81 41 11 7 52 -83 -51 -9 21 0
1 -42 -47 40 -77 -8 52 65 -25 44 0
-1 81 32 75 -6 -76 -41 0
1 42 -68 48 62 -44 29 71 0
-1 -81 41 -11 -15 -68 61 17 7 -25 55 57 27 -77 0
-1 81 -32 -14 63 82 -66 -22 28 53 -47 0
-1 81 32 -75 65 58 -2 -76 -68 11 83 -71 14 0
1 -42 47 78 38 76 8 60 -28 -71 0
-1 -81 41 11 7 52 83 -15 80 55 22 -76 0
-1 -81 41 -11 -15 -68 -61 -21 -14 57 7 -58 42 45 59 0
1 42 68 30 21 -27 -24 -7 19 37 0
1 -42 -47 -40 54 -79 -63 41 -80 -34 0
1 42 68 30 -21 74 -47 -40 -19 -69 49 -4 0
1 42 68 -30 -48 -25 -44 70 59 -67 57 -21 19 0
1 42 -68 48 62 44 -63 -39 41 0
-1 -81 -41 8 -9 58 -60 14 0
-1 -81 41 -11 -15 -68 61 17 -7 25 -21 0
-1 -81 41 11 7 52 83 15 27 43 39 67 8 0
-1 81 32 -75 65 58 2 31 50 -66 6 59 0
1 -42 47 -78 -5 -53 58 -6 -44 59 -17 0
-1 -81 -41 -8 39 -13 -78 -29 -30 0
1 -42 -47 -40 54 79 21 -36 -52 -46 48 0
-1 -81 41 11 7 -52 70 -6 -59 26 80 0
-1 81 -32 14 -49 -15 12 -23 -19 22 0
-1 -81 -41 -8 -39 -55 -63 50 -80 77 -3 0
1 -42 -47 -40 54 79 21 -36 52 24 -45 -8 -83 0
-1 81 32 75 -6 76 72 -19 58 -12 17 20 39 0
-1 -81 41 11 7 52 83 15 -27 -25 -68 -62 0
-1 -81 -41 -8 -39 55 -61 -6 12 11 -59 0
1 42 -68 48 62 -44 -29 -52 -67 78 0
-1 -81 41 11 -7 33 -53 16 78 -36 0
1 -42 -47 40 77 12 65 6 -48 14 -75 -20 0
-1 -81 -41 -8 39 13 -36 -61 33 16 -57 27 0
1 42 68 30 21 27 -46 -13 0
-1 81 32 75 6 -23 -15 -37 43 -26 76 -39 0
-1 81 32 -75 65 58 2 31 50 -66 -6 0
1 42 68 30 -21 -74 19 -47 -16 -13 0
1 -42 47 -78 -5 53 6 -82 -65 7 2 -68 41 0
1 42 68 30 21 -27 24 -47 58 80 0
-1 -81 41 -11 -15 -68 -61 -21 -14 -57 -34 53 -45 0
-1 -81 41 11 7 52 83 -15 80 55 22 76 0
1 -42 -47 -40 54 -79 -63 41 80 16 0
-1 81 32 -75 65 58 -2 -76 -68 11 83 -71 -14 0
-1 81 -32 -14 63 82 -66 -22 -28 -37 0
1 42 68 -30 -48 -25 -44 70 -59 -28 0
-1 81 32 -75 65 58 2 -31 -9 -78 -44 -11 54 51 0
-1 81 32 75 6 -23 15 11 -69 53 0
1 42 -68 48 62 44 63 -22 0
1 -42 -47 40 -77 -8 52 -65 51 0
-1 81 32 75 -6 76 72 19 -3 70 -40 0
1 -42 -47 -40 54 -79 -63 41 -80 34 -2 0
1 -42 -47 40 77 12 65 -6 30 -69 -82 0
-1 -81 -41 -8 39 13 36 -60 -37 -3 7 -34 0
1 -42 -47 40 -77 -8 -52 -69 63 0
-1 81 32 75 6 -23 -15 37 -7 36 0
1 -42 47 -78 -5 53 -6 -35 -58 -43 -15 0
-1 -81 41 11 7 52 -83 -51 -9 -21 0
-1 -81 -41 8 -9 58 -60 -14 26 0
1 -42 47 -78 -5 -53 -58 -49 -62 -83 -81 0
-1 81 -32 -14 63 -82 37 -60 -13 -2 0
-1 81 32 -75 65 58 2 -31 9 12 0
-1 81 -32 14 49 24 10 83 52 57 0
1 42 -68 48 62 -44 -29 -52 67 16 17 0
1 -42 -47 40 -77 -8 -52 69 49 -71 0
1 42 68 -30 -48 25 83 -38 21 -45 0
-1 81 32 -75 65 58 2 -31 -9 -78 44 -54 0
-1 -81 41 11 -7 -33 -45 63 80 60 -12 24 0
1 -42 -47 40 -77 8 19 -45 0
1 42 68 -30 -48 -25 -44 70 59 67 49 -58 0
-1 81 -32 -14 -63 -59 67 12 -46 0
1 42 -68 -48 52 -36 78 -14 47 0
1 -42 -47 40 -77 -8 -52 69 -49 -43 36 -68 0
-1 81 32 -75 -65 29 -50 0
1 42 -68 -48 -52 -38 -53 -2 0
-1 81 32 75 -6 76 -72 28 25 42 50 0
-1 81 32 75 -6 76 72 -19 58 -12 17 -20 0
1 -42 47 -78 5 -36 52 -54 -75 -19 -8 0
1 -42 47 78 38 -76 52 -7 0
1 -42 -47 -40 54 -79 -63 -41 12 -83 0
1 -42 47 -78 -5 -53 58 6 34 7 62 41 55 0
-1 -81 41 -11 -15 -68 -61 -21 -14 -57 -34 53 45 3 -58 -20 0
-1 -81 -41 -8 -39 -55 -63 -50 -51 0
-1 -81 41 11 -7 -33 -45 -63 78 16 0
1 42 68 30 -21 -74 19 -47 16 44 66 14 0
1 -42 47 -78 5 36 -35 10 -41 -56 0
-1 81 32 75 -6 76 72 -19 58 -12 -17 23 0
1 -42 47 -78 -5 -53 58 -6 -44 -59 0
1 42 68 30 -21 74 -47 40 38 49 0
-1 -81 41 11 7 52 83 15 27 -43 -22 0
-1 81 32 -75 65 58 2 -31 9 -12 20 4 -67 -62 0
1 42 -68 48 62 44 -63 39 -37 -21 0
-1 -81 41 11 7 52 83 15 -27 -25 -68 62 -43 0
1 42 68 -30 -48 -25 -44 70 59 -67 57 21 81 0
1 -42 47 78 38 -76 52 7 15 32 48 60 0
-1 -81 41 11 -7 33 -53 -16 0
1 -42 -47 -40 54 79 21 -36 -52 46 -37 0
-1 -81 -41 -8 -39 55 -61 -6 -12 0
-1 81 -32 14 49 -24 -8 65 73 -55 0
-1 -81 41 11 7 -52 70 6 0
1 42 -68 -48 -52 -38 -53 2 0
1 42 -68 48 62 -44 29 -71 -15 0
1 -42 -47 40 -77 -8 52 65 25 0
1 -42 47 -78 -5 53 6 -82 -65 7 2 68 39 0
1 -42 47 78 -38 62 64 -82 0
-1 81 -32 14 49 24 10 83 52 -57 20 0
-1 -81 41 -11 -15 -68 -61 -21 -14 57 7 58 0
-1 -81 -41 -8 39 -13 78 17 -61 -51 29 0
1 -42 -47 -40 -54 34 11 0
-1 -81 41 11 -7 -33 -45 63 80 60 12 0
1 -42 47 -78 -5 53 6 -82 -65 7 -2 36 0
1 42 -68 48 -62 -3 77 0
1 -42 47 -78 -5 53 6 -82 65 -60 -30 10 59 64 33 0
-1 81 32 75 6 23 45 47 50 71 0
1 42 68 -30 -48 -25 -44 70 59 67 49 58 0
-1 81 -32 14 49 -24 -8 65 -73 3 0
1 42 -68 48 -62 3 -29 0
1 -42 -47 -40 54 -79 63 51 56 53 -14 36 0
-1 -81 41 -11 -15 -68 61 17 7 -25 55 57 -27 52 0
1 -42 47 -78 -5 53 6 -82 65 -60 -30 10 59 -64 0
-1 -81 41 11 7 -52 70 -6 59 0
1 42 -68 -48 -52 38 32 -8 0
-1 -81 41 -11 -15 68 60 0
1 -42 -47 -40 54 -79 63 51 56 53 14 0
-1 81 32 -75 65 58 -2 -76 68 -54 -21 0
1 42 -68 48 62 -44 -29 52 39 0
-1 81 -32 -14 -63 59 50 -41 52 16 0
1 42 -68 48 -62 -3 -77 35 -27 0
1 -42 47 -78 5 -36 -52 -27 -80 0
1 42 -68 -48 52 36 -24 0
1 42 68 30 21 -27 -24 -7 -19 0
-1 81 32 75 -6 76 -72 -28 -56 0
-1 81 -32 -14 63 82 66 0
1 -42 -47 40 77 12 -65 73 -19 -3 -53 52 0
1 42 68 30 21 -27 24 47 -29 40 0
-1 -81 41 11 -7 33 53 -12 -4 -38 26 0
-1 81 32 -75 -65 29 50 44 8 0
-1 81 32 -75 -65 -29 51 50 -62 0
1 42 68 30 -21 -74 19 -47 16 44 66 -14 0
-1 81 32 75 -6 76 72 -19 58 -12 -17 -23 0
-1 -81 41 -11 15 -33 -45 -17 52 0
1 -42 47 -78 5 36 -35 10 41 0
1 -42 47 78 38 -76 -52 2 0
1 -42 47 78 38 -76 52 7 15 -32 23 0
-1 81 32 75 -6 76 -72 -28 56 0
1 -42 -47 40 -77 -8 -52 -69 -63 -51 0
1 -42 -47 40 77 12 65 6 -48 -14 -26 18 -31 68 0
-1 -81 -41 -8 39 -13 -78 -29 30 40 -52 0
1 -42 47 78 -38 62 -64 -40 -53 0
-1 -81 41 11 -7 -33 45 -49 -82 -5 42 -61 0
-1 81 32 -75 65 58 2 -31 -9 78 61 60 0
1 42 68 -30 48 -56 67 0
1 -42 -47 40 77 12 -65 73 19 -21 0
1 42 -68 48 62 -44 -29 -52 67 -16 0
-1 -81 41 11 -7 -33 -45 63 80 60 -12 -24 -47 0
-1 -81 41 -11 -15 -68 61 17 7 25 14 0
-1 81 -32 -14 -63 59 50 -41 52 -16 0
1 42 68 30 21 -27 24 47 29 0
-1 -81 -41 -8 -39 -55 -63 -50 51 0
-1 -81 41 -11 15 33 35 44 -42 0
-1 81 32 -75 65 58 -2 76 -55 -31 0
-1 -81 41 11 7 52 83 -15 80 55 -22 0
1 -42 47 -78 5 -36 -52 27 82 -70 17 20 0
1 -42 47 -78 -5 53 -6 35 28 0
-1 81 32 75 6 23 45 47 -50 -74 -68 -54 0
1 42 68 -30 -48 -25 -44 70 -59 28 0
1 -42 47 78 38 76 8 60 -28 71 -25 0
1 -42 47 -78 5 -36 -52 27 82 70 56 57 0
-1 -81 41 -11 -15 -68 -61 -21 -14 57 7 -58 42 -45 0
1 42 -68 48 62 44 -63 39 37 -6 0
-1 -81 -41 -8 39 13 -36 -61 33 -16 0
-1 -81 -41 -8 -39 -55 -63 50 80 -51 0
1 -42 47 -78 -5 -53 58 -6 44 -15 0
-1 81 32 -75 65 58 2 31 50 66 -28 18 0
1 42 68 30 -21 74 47 -69 24 0
-1 -81 -41 -8 -39 -55 63 -74 42 -27 35 0
-1 -81 -41 -8 -39 -55 -63 50 -80 -77 0
-1 -81 -41 8 -9 -58 27 51 0
1 -42 47 -78 -5 -53 -58 -49 62 0
-1 -81 41 -11 15 33 35 44 42 25 0
1 -42 -47 40 77 12 -65 73 -19 -3 -53 -52 0
1 -42 47 78 38 76 -8 0
-1 81 32 75 6 -23 -15 -37 43 -26 76 39 0
1 -42 -47 40 -77 -8 -52 -69 -63 51 19 0
1 -42 47 -78 -5 53 6 -82 -65 -7 0
1 -42 47 78 38 76 8 -60 0
-1 -81 -41 -8 -39 -55 63 -74 -42 -2 0
1 -42 -47 -40 54 79 21 -36 52 24 45 -29 0
1 42 68 -30 -48 -25 -44 70 59 67 -49 0
-1 81 -32 -14 -63 -59 67 -12 0
1 42 68 30 -21 74 47 69 -65 20 0
1 42 68 30 -21 -74 -19 0
-1 -81 41 -11 -15 -68 -61 -21 -14 -57 -34 53 45 3 58 0
1 -42 -47 40 -77 8 -19 7 54 0
1 -42 47 -78 5 36 -35 -10 29 -3 -71 68 0
-1 -81 41 -11 -15 -68 61 17 7 -25 -55 50 0
-1 -81 41 11 -7 -33 -45 63 80 -60 -50 0
-1 -81 41 -11 -15 -68 61 17 -7 -25 60 0
1 -42 47 -78 5 -36 52 -54 75 64 73 0
-1 81 32 -75 65 58 -2 -76 68 -54 21 34 -57 0
-1 81 32 75 6 23 45 -47 -73 22 0
-1 81 -32 -14 63 -82 37 -60 13 0
1 42 68 30 -21 74 -47 40 38 -49 -33 0
-1 -81 -41 8 -9 58 -60 -14 -26 0
-1 81 32 75 -6 76 72 19 -3 70 40 -29 0
-1 81 -32 -14 -63 -59 67 12 46 0
1 -42 47 -78 -5 53 -6 -35 58 0
-1 81 32 75 -6 76 72 -19 -58 0
-1 81 32 75 6 -23 -15 37 -7 -36 -73 0
1 -42 47 -78 -5 -53 58 6 34 7 62 -41 0
-1 81 32 -75 65 58 2 -31 9 -12 20 4 67 0
1 -42 47 -78 -5 -53 58 6 34 -7 29 0
-1 -81 41 11 7 52 83 15 -27 -25 68 0
-1 81 32 -75 65 58 2 -31 9 -12 20 -4 -8 0
-1 81 -32 14 -49 -15 12 -23 -19 -22 0
1 42 68 30 21 27 46 -7 19 65 0
-1 -81 -41 -8 -39 -55 63 -74 -42 2 0
1 -42 -47 40 77 12 65 6 -48 -14 -26 18 -31 -68 0
-1 -81 -41 -8 39 13 -36 61 -60 0
-1 -81 41 11 -7 33 -53 16 -78 0
-1 81 32 75 6 -23 -15 -37 43 26 0
1 -42 -47 40 77 12 65 6 -48 -14 26 0
1 42 68 30 -21 -74 19 47 2 0
1 42 68 30 -21 74 -47 40 -38 17 0
-1 -81 41 -11 -15 -68 -61 -21 -14 -57 -34 -53 12 80 0
-1 -81 -41 -8 -39 -55 63 74 45 0
1 -42 -47 -40 54 79 21 -36 -52 46 37 0
-1 -81 41 11 7 -52 -70 71 25 0
-1 -81 -41 -8 -39 -55 -63 50 80 51 0
-1 81 32 -75 65 58 -2 76 55 68 0
1 42 68 30 -21 -74 19 -47 16 -44 -18 0
-1 -81 41 -11 -15 -68 61 17 7 -25 55 -57 0
1 -42 -47 -40 -54 -34 23 -33 -74 0
-1 -81 41 -11 -15 -68 -61 -21 14 0
-1 81 32 75 -6 76 72 19 3 56 -59 48 0
1 42 68 30 -21 -74 19 -47 16 -44 18 0
-1 -81 41 -11 -15 -68 -61 -21 -14 -57 34 -3 10 0
1 -42 -47 40 77 12 65 6 48 79 46 -78 0
1 42 -68 48 62 44 -63 39 -37 21 0
1 42 68 -30 48 -56 -67 45 0
1 -42 -47 40 77 12 65 6 -48 14 -75 20 13 80 0
1 -42 47 78 -38 62 -64 -40 53 0
-1 81 32 -75 65 58 2 31 50 66 28 0
1 -42 -47 -40 -54 -34 -23 0
-1 -81 41 11 7 52 83 15 27 43 -39 0
-1 -81 41 11 7 52 83 15 27 43 39 -67 0
-1 -81 41 11 -7 -33 45 -49 -82 -5 42 61 8 0
1 -42 -47 40 -77 8 -19 -7 0
1 -42 -47 -40 -54 -34 23 -33 74 0
1 -42 47 -78 -5 -53 -58 -49 -62 83 0
-1 81 32 -75 65 58 -2 -76 68 -54 21 34 57 -9 40 0
1 42 68 30 -21 74 -47 40 38 -49 33 0
1 -42 -47 40 77 -12 53 -44 0
1 -42 47 -78 -5 53 -6 35 -28 0
-1 -81 -41 -8 39 13 36 -60 37 0
1 42 68 30 21 -27 24 -47 -58 -59 0
-1 -81 -41 -8 39 13 36 -60 -37 -3 7 34 0
1 -42 -47 -40 54 79 21 -36 52 24 -45 -8 83 0
1 -42 -47 40 77 12 65 -6 -30 0
-1 -81 41 11 -7 33 53 -12 -4 -38 -26 0
-1 -81 41 11 -7 -33 -45 63 80 -60 50 22 0
-1 -81 41 -11 15 33 35 -44 55 65 0
-1 81 32 -75 -65 -29 51 -50 46 0
-1 81 32 75 -6 76 72 19 -3 -70 0
1 -42 -47 40 77 12 -65 -73 44 -4 0
-1 -81 -41 -8 39 13 -36 -61 33 16 -57 -27 0
1 42 -68 -48 52 -36 78 14 0
1 -42 47 -78 -5 53 6 -82 65 -60 -30 10 59 64 -33 0
1 42 68 30 -21 74 -47 -40 -19 -69 49 4 0
1 -42 47 -78 -5 -53 -58 -49 -62 -83 81 0
-1 -81 41 11 7 -52 -70 -71 0
-1 81 -32 -14 -63 -59 -67 0
-1 81 32 -75 65 58 -2 -76 68 -54 21 34 57 9 0
-1 -81 41 -11 -15 -68 -61 -21 -14 57 7 -58 42 45 -59 0
-1 -81 -41 -8 39 13 36 -60 -37 -3 -7 0
1 42 -68 -48 52 -36 78 -14 -47 0
1 -42 -47 40 -77 -8 -52 -69 -63 51 -19 0
-1 81 32 75 6 23 45 47 -50 -74 68 0
-1 81 32 75 -6 76 -72 28 -25 -9 0
-1 -81 41 11 -7 -33 45 -49 -82 -5 -42 0
-1 -81 -41 -8 39 13 -36 61 60 -73 2 -67 -32 0
-1 81 -32 -14 -63 59 -50 28 0
-1 -81 -41 -8 39 13 -36 61 60 73 0
1 42 -68 -48 -52 38 -32 54 0
-1 81 -32 -14 63 -82 37 60 0
1 -42 -47 -40 54 -79 63 -51 -53 0
1 -42 47 -78 5 -36 -52 27 82 70 -56 0
1 -42 47 -78 -5 53 6 -82 65 -60 -30 -10 63 0
1 42 68 30 21 27 46 -7 -19 5 0
1 -42 -47 -40 54 -79 -63 41 -80 34 2 0
1 42 -68 48 62 44 -63 -39 -41 0
-1 -81 -41 -8 -39 -55 63 -74 42 -27 -35 0
-1 -81 41 11 -7 33 53 -12 4 0
-1 81 32 -75 65 58 2 31 50 -66 6 -59 0
1 -42 -47 -40 54 -79 -63 -41 -12 -4 0
-1 81 -32 -14 63 82 -66 22 -58 0
1 -42 -47 -40 54 79 21 -36 52 24 -45 8 0
-1 81 32 75 6 -23 15 -11 0
1 42 68 30 21 27 -46 13 0
-1 81 32 -75 -65 -29 -51 -79 0
1 42 68 30 -21 -74 19 -47 -16 13 0
1 42 68 30 21 27 46 7 0
1 42 68 -30 -48 -25 -44 -70 0
-1 -81 -41 -8 39 -13 -78 29 0
1 -42 47 -78 5 -36 52 -54 75 64 -73 0
-1 81 32 -75 65 58 -2 -76 68 -54 21 -34 17 0
-1 81 32 75 -6 76 72 -19 58 12 -42 0
1 42 68 30 21 -27 24 47 -29 -40 0
-1 -81 41 -11 -15 -68 -61 -21 -14 57 -7 70 27 22 0
-1 81 32 -75 -65 -29 -51 79 72 0
-1 81 -32 -14 63 -82 37 -60 -13 2 0
1 -42 -47 -40 54 -79 63 51 -56 0
-1 81 32 -75 65 58 -2 76 55 -68 61 0
-1 81 -32 14 -49 -15 -12 29 -13 0
1 -42 -47 -40 54 -79 -63 -41 12 83 0
-1 81 -32 14 -49 -15 -12 -29 0
1 42 68 -30 -48 -25 -44 70 59 -67 57 -21 -19 0
1 42 68 30 -21 74 -47 -40 -19 69 0
-1 81 32 -75 -65 -29 -51 79 -72 0
1 42 68 -30 -48 25 83 -38 -21 0
1 -42 47 -78 -5 53 6 -82 -65 7 2 -68 -41 0
1 42 68 30 -21 74 47 -69 -24 0
1 -42 47 -78 5 -36 -52 27 -82 68 -45 0
1 42 -68 48 62 44 63 22 0
-1 -81 -41 -8 -39 55 -61 -6 12 -11 62 -22 0
-1 -81 41 -11 15 -33 45 61 -56 0
1 -42 47 78 -38 -62 -35 0
-1 -81 41 -11 -15 -68 -61 -21 -14 -57 -34 53 45 -3 0
1 42 68 30 -21 74 -47 -40 -19 -69 -49 7 0
-1 -81 41 -11 -15 -68 -61 -21 -14 -57 -34 53 45 3 -58 20 0
-1 -81 41 -11 -15 -68 61 17 -7 -25 -60 63 0
-1 -81 -41 -8 -39 -55 -63 50 -80 77 3 -14 0
1 -42 -47 -40 54 79 -21 0
-1 81 32 75 -6 76 72 19 3 -56 0
-1 -81 41 -11 -15 -68 -61 -21 -14 57 -7 -70 0
1 -42 47 78 38 76 8 60 28 74 0
1 -42 47 -78 5 36 -35 -10 -29 63 73 0
1 42 68 30 -21 74 -47 40 -38 -17 75 0
-1 -81 41 -11 15 -33 45 61 56 0
-1 -81 41 -11 -15 -68 -61 -21 -14 -57 34 -3 -10 0
-1 81 -32 -14 63 82 -66 22 58 0
-1 -81 -41 -8 -39 55 61 0
-1 -81 -41 -8 39 -13 78 17 61 -27 0
-1 -81 41 -11 15 33 35 -44 -55 -20 0
1 42 68 30 21 27 46 -7 -19 -5 0
1 -42 -47 40 77 -12 53 44 0
1 -42 47 -78 -5 53 6 -82 65 60 22 0
1 -42 47 -78 5 36 -35 -10 29 -3 71 -76 0
-1 81 32 -75 65 -58 80 77 0
1 42 -68 48 -62 -3 -77 35 27 0
1 -42 47 78 38 76 8 60 -28 71 25 0
-1 -81 -41 -8 39 13 -36 61 60 -73 -2 75 0
1 -42 47 -78 -5 53 6 -82 -65 7 -2 -36 0
1 -42 -47 -40 54 -79 63 51 56 53 -14 -36 0
1 -42 -47 40 77 -12 -53 0
1 42 68 30 -21 74 -47 -40 -19 -69 -49 -7 0
-1 -81 -41 -8 39 13 -36 -61 -33 52 -27 0
-1 -81 -41 -8 39 13 36 60 -76 0
1 42 68 -30 -48 25 -83 -78 0
-1 -81 -41 8 -9 -58 -27 0
-1 -81 41 11 7 52 83 15 27 43 39 67 -8 0
-1 -81 -41 8 -9 58 60 36 0
1 -42 47 -78 5 -36 52 -54 75 -64 -22 0
-1 81 32 75 6 -23 -15 37 7 -27 0
1 -42 47 -78 -5 53 -6 -35 -58 -43 15 0
-1 81 32 75 -6 76 -72 28 25 42 -50 0
1 42 -68 48 -62 3 29 0
-1 81 32 -75 65 58 -2 -76 68 54 -39 0
-1 81 -32 -14 -63 59 50 -41 -52 0
-1 81 32 75 -6 76 72 -19 58 12 42 -4 0
1 -42 -47 40 -77 -8 -52 69 -49 43 0
-1 -81 41 11 7 52 83 15 27 -43 22 0
-1 81 32 75 -6 -76 41 0
-1 -81 41 -11 -15 -68 61 17 7 -25 55 57 -27 -52 0
-1 81 -32 -14 -63 59 50 41 26 0
-1 -81 41 -11 -15 -68 -61 21 -55 0
1 42 -68 48 -62 -3 -77 -35 61 0
1 -42 -47 -40 54 -79 63 -51 53 0
-1 81 32 -75 -65 29 50 -44 0
-1 81 32 -75 65 58 2 -31 9 -12 -20 0
-1 81 -32 -14 -63 59 -50 -28 0
-1 -81 -41 -8 39 13 -36 61 60 -73 2 67 0
1 -42 -47 40 -77 -8 -52 69 49 71 0
-1 -81 41 11 7 -52 -70 71 -25 -20 0
1 42 68 30 21 -27 24 -47 58 -80 0
1 -42 -47 -40 54 -79 -63 41 80 -16 66 -23 0
-1 -81 41 -11 15 -33 -45 -17 -52 0
-1 -81 41 -11 15 33 35 -44 55 -65 -58 0
1 -42 -47 40 77 12 65 -6 30 -69 82 0
-1 81 32 -75 65 58 -2 -76 -68 -11 34 0
-1 -81 -41 -8 -39 -55 63 -74 42 27 0
-1 81 -32 14 -49 -15 12 23 19 0
-1 -81 -41 -8 39 -13 78 -17 0
-1 81 32 -75 -65 -29 51 -50 -46 72 0
1 -42 47 -78 5 -36 52 -54 -75 -19 8 0
1 -42 -47 -40 54 79 21 36 0
-1 81 32 -75 65 58 2 -31 9 -12 20 4 -67 62 0
1 42 -68 48 62 -44 -29 -52 -67 -78 0
1 -42 -47 40 77 12 -65 73 19 21 -34 0
-1 81 32 -75 65 -58 80 -77 0
1 42 -68 48 62 -44 29 -71 15 0
1 42 68 30 21 -27 -24 7 54 0
-1 81 32 75 6 23 45 -47 73 41 0
-1 81 -32 14 49 -24 -8 65 -73 -3 0
-1 -81 41 -11 -15 -68 -61 -21 -14 57 -7 70 -27 0
-1 81 32 -75 -65 -29 51 -50 -46 -72 0
1 -42 -47 40 -77 8 -19 7 -54 0
1 -42 -47 -40 54 -79 63 51 56 -53 0
1 -42 47 78 38 -76 52 7 -15 0
1 42 -68 48 62 -44 -29 -52 67 16 -17 0
-1 -81 41 11 -7 -33 45 49 0
1 -42 -47 40 77 12 65 -6 30 69 11 0
1 42 -68 48 -62 -3 -77 -35 -61 0
1 42 68 30 -21 -74 19 -47 16 44 -66 0
1 -42 47 -78 -5 53 6 82 0
-1 81 -32 14 49 24 10 -83 38 0
1 42 68 30 -21 74 -47 40 -38 -17 -75 0
-1 81 32 -75 65 58 -2 -76 68 -54 21 34 57 -9 -40 0
1 -42 47 -78 5 36 -35 -10 29 3 0
1 -42 47 -78 5 -36 52 54 33 0
1 -42 -47 40 77 12 65 6 48 79 -46 0
-1 -81 41 -11 -15 -68 61 -17 -50 12 0
-1 81 -32 14 -49 15 71 54 0
1 42 68 30 21 27 46 -7 19 -65 -52 0
-1 -81 41 -11 15 33 35 -44 55 -65 58 0
1 -42 47 78 38 76 8 60 28 -74 77 0
-1 81 32 75 6 -23 -15 37 7 27 48 0
1 42 68 -30 -48 -25 44 0
-1 81 32 75 6 -23 -15 37 7 27 -48 17 0
-1 -81 41 11 -7 33 53 12 21 0
-1 -81 -41 -8 39 13 -36 61 60 -73 -2 -75 0
1 42 -68 -48 52 -36 -78 0
-1 81 -32 14 49 -24 -8 65 73 55 0
-1 81 32 -75 -65 -29 51 50 62 0
-1 81 -32 14 49 -24 -8 -65 -48 0
-1 -81 41 -11 15 33 -35 68 -16 0
1 -42 -47 40 77 12 65 6 -48 14 -75 20 -13 -30 0
-1 81 -32 14 -49 15 71 -54 0
1 42 -68 -48 -52 38 32 8 0
-1 81 32 -75 65 58 -2 -76 -68 11 -83 0
1 -42 47 78 -38 62 -64 40 0
-1 -81 -41 -8 -39 -55 63 74 -45 0
-1 -81 -41 -8 39 13 -36 -61 33 16 57 0
-1 81 32 75 6 -23 15 11 -69 -53 -30 0
-1 -81 -41 -8 39 13 -36 61 60 -73 2 -67 32 0
-1 -81 -41 -8 39 13 36 -60 -37 3 -34 0
-1 -81 41 11 7 52 -83 -51 9 0
1 42 -68 48 62 44 -63 39 37 6 0
1 -42 47 -78 5 36 -35 -10 -29 63 -73 0
1 -42 47 78 -38 62 64 82 0
-1 -81 41 11 -7 -33 -45 63 -80 0
1 -42 47 -78 -5 -53 58 -6 44 15 0
1 -42 47 -78 -5 -53 58 6 34 -7 -29 21 0
-1 81 -32 -14 63 82 -66 -22 28 53 47 0
-1 81 32 75 6 23 45 47 -50 74 21 0
-1 -81 41 11 -7 33 -53 16 78 36 0
1 -42 -47 40 77 12 65 6 48 -79 0
1 -42 47 -78 5 36 -35 -10 29 -3 -71 -68 0
-1 -81 -41 8 -9 -58 27 -51 -60 0
1 -42 47 -78 5 -36 -52 27 82 70 56 -57 0
-1 81 -32 14 49 24 10 83 -52 0
1 42 68 -30 48 -56 -67 -45 0
1 42 68 -30 48 56 -36 27 -74 0
1 42 68 30 -21 74 -47 -40 19 0
-1 81 32 75 -6 76 72 19 3 56 59 -60 0
1 -42 47 -78 -5 53 6 -82 65 -60 -30 -10 -63 -16 0
-1 81 32 -75 65 58 2 -31 -9 -78 -44 -11 -54 0
-1 81 32 75 6 -23 -15 -37 43 -26 -76 -83 0
-1 -81 41 -11 -15 -68 61 17 7 -25 -55 -50 0
1 -42 47 -78 5 -36 52 -54 -75 19 0
1 -42 -47 40 -77 -8 -52 69 -49 -43 36 68 0
-1 81 -32 14 -49 -15 12 -23 19 0
-1 81 32 75 6 23 45 47 50 -71 0
-1 81 32 -75 -65 29 50 44 -8 0
1 42 68 30 21 27 46 -7 19 -65 52 25 0
1 -42 47 78 38 -76 52 7 15 32 -48 0
1 42 68 -30 48 56 -36 27 74 0
-1 -81 41 11 7 52 83 -15 80 -55 0
1 42 68 -30 48 56 36 0
1 -42 -47 -40 -54 -34 23 33 0
1 -42 -47 -40 54 -79 -63 41 80 -16 -66 0
-1 81 32 75 6 -23 -15 -37 43 -26 -76 83 0
1 -42 47 -78 5 -36 -52 27 82 -70 -17 0
-1 -81 41 -11 -15 -68 -61 -21 -14 57 -7 70 27 -22 0
-1 -81 -41 -8 -39 -55 -63 50 -80 77 3 14 0
-1 81 32 75 6 -23 15 11 69 -67 0
1 -42 47 78 38 -76 52 7 15 32 48 -60 0
-1 -81 -41 8 9 0
-1 81 32 75 -6 76 -72 28 -25 9 0
1 -42 47 78 38 76 8 60 28 -74 -77 0
-1 -81 41 -11 -15 -68 -61 21 55 0
-1 81 32 -75 65 58 2 -31 -9 78 -61 0
-1 81 -32 14 -49 -15 12 23 -19 0
-1 81 -32 -14 -63 59 50 41 -26 0
-1 81 32 -75 65 58 2 31 -50 0
-1 -81 41 -11 -15 -68 61 -17 -50 -12 0
-1 -81 41 -11 -15 68 -60 -58 0
1 42 -68 -48 -52 38 -32 -54 0
-1 81 32 75 6 23 -45 21 0
1 -42 -47 40 -77 -8 -52 69 -49 -43 -36 0
-1 -81 41 11 7 52 83 15 -27 -25 -68 62 43 0
1 42 68 -30 -48 25 83 -38 21 45 0
-1 81 32 -75 65 58 -2 -76 68 54 39 0
-1 -81 41 11 -7 33 53 12 -21 0
1 -42 -47 40 -77 8 19 45 0
-1 81 32 -75 65 58 2 -31 -9 -78 44 54 0
-1 81 32 75 6 23 45 -47 73 -41 79 0
1 -42 -47 40 77 12 65 6 48 79 46 78 0
1 42 68 -30 -48 25 83 38 23 0
1 -42 47 -78 -5 53 6 -82 65 60 -22 0
-1 -81 -41 -8 -39 55 -61 -6 12 -11 -62 0
-1 81 32 -75 65 58 2 -31 9 -12 20 -4 8 0
-1 -81 41 11 7 52 83 -15 -80 0
-1 -81 41 -11 -15 -68 61 -17 50 0
1 -42 -47 40 77 12 -65 -73 44 4 0
-1 -81 -41 8 -9 -58 27 -51 60 0
-1 81 32 -75 65 58 2 -31 -9 78 61 -60 0
-1 81 -32 14 49 24 -10 0
1 -42 47 -78 -5 -53 58 6 34 -7 -29 -21 0
-1 -81 -41 -8 39 -13 78 17 -61 -51 -29 0
1 -42 47 -78 5 36 35 0
-1 81 32 75 6 23 45 47 -50 74 -21 0
-1 81 32 75 -6 76 72 19 3 56 59 60 0
-1 -81 41 11 -7 -33 45 -49 82 12 21 0
-1 81 32 75 6 -23 -15 37 -7 -36 73 0
-1 81 -32 14 49 24 10 83 52 -57 -20 0
-1 81 32 75 6 -23 15 11 69 67 0
-1 81 32 75 -6 76 72 19 3 56 -59 -48 0
1 42 68 -30 48 56 -36 -27 0
1 -42 -47 -40 54 79 21 -36 -52 -46 -48 0
