c NeuroCodeBench 2.0 CNF formula with verdict Unsat
p cnf 8 41
1 5 6 8 -2 -3 0
1 5 6 8 -2 3 0
-1 -3 6 5 2 0
-1 -3 6 -5 4 -8 2 -7 0
-1 -3 -6 4 0
-1 3 4 -6 7 0
-1 -3 -6 -4 5 0
1 5 -6 -4 3 -2 8 0
1 -5 -8 -2 0
-1 -3 6 -5 -4 -2 0
1 5 -6 4 0
-1 -3 6 -5 4 8 -7 0
1 -5 8 3 0
1 5 6 8 2 0
-1 3 4 6 5 -2 8 0
1 -5 8 -3 0
1 5 -6 -4 -3 0
1 5 -6 -4 3 -2 -8 0
1 5 -6 -4 3 2 8 0
-1 3 4 6 5 -2 -8 7 0
-1 -3 6 -5 -4 2 -7 0
-1 3 -4 6 -2 0
-1 -3 -6 -4 -5 0
-1 -3 6 -5 4 -8 2 7 0
-1 3 -4 -6 -7 0
1 5 -6 -4 3 2 -8 0
-1 3 4 6 -5 0
-1 3 -4 6 2 8 0
-1 -3 6 -5 4 8 7 0
-1 3 4 -6 -7 0
1 5 6 -8 0
-1 -3 6 5 -2 -4 8 0
-1 3 4 6 5 2 0
-1 -3 6 -5 -4 2 7 0
-1 -3 6 5 -2 4 0
-1 -3 6 -5 4 -8 -2 0
1 -5 -8 2 0
-1 3 -4 6 2 -8 0
-1 3 4 6 5 -2 -8 -7 0
-1 3 -4 -6 7 0
-1 -3 6 5 -2 -4 -8 0
