c NeuroCodeBench 2.0 CNF formula with verdict Unsat
p cnf 96 673
1 2 33 14 -9 16 50 5 83 34 59 11 87 0
1 -2 85 -5 -60 49 -28 -79 20 0
-1 17 -60 11 83 10 53 21 0
-1 17 -60 11 -83 51 18 -10 0
-1 -17 -88 -41 -8 36 -9 -19 25 0
1 -2 85 -5 -60 49 -28 -79 -20 6 0
1 -2 -85 96 -15 -35 91 13 -84 54 19 0
1 2 -33 -38 58 43 -67 59 19 -25 42 0
-1 -17 88 11 12 2 -63 81 39 91 -79 0
-1 -17 88 -11 -77 -63 -80 47 -14 0
1 2 33 -14 67 77 -8 -57 -52 -85 0
1 2 -33 -38 -58 -13 67 23 74 0
-1 -17 -88 -41 8 -36 -83 95 -42 13 0
1 2 -33 -38 58 -43 88 46 -41 -45 0
1 -2 -85 -96 -73 -77 -5 51 -67 -29 0
-1 -17 88 11 -12 -22 -60 -3 55 44 57 73 19 38 0
1 2 33 -14 -67 26 76 -83 -18 -20 13 23 0
1 2 -33 -38 -58 -13 67 -23 34 0
-1 -17 88 -11 77 -45 -69 -33 55 -87 -65 -92 0
1 2 33 14 -9 -16 53 7 0
-1 -17 88 11 -12 -22 -60 -3 55 -44 74 -75 71 -28 0
1 2 33 14 -9 16 50 5 83 34 59 -11 0
1 -2 85 5 -47 -96 -45 -21 88 0
-1 -17 88 11 12 2 63 34 -57 86 0
1 2 -33 38 51 95 -23 48 74 63 -15 -4 -87 0
-1 17 -60 -11 -69 18 12 -14 -51 -59 0
1 2 33 -14 -67 -26 -73 31 32 -94 -64 0
1 -2 -85 -96 -73 77 16 -55 -74 -95 38 -70 0
-1 -17 -88 -41 8 -36 -83 95 42 16 84 0
-1 -17 88 11 -12 -22 60 -70 -56 14 -54 0
-1 17 -60 11 -83 -51 -49 16 -6 0
-1 -17 88 11 -12 -22 -60 -3 55 -44 -74 -40 77 10 -5 -35 72 0
1 2 33 -14 -67 -26 73 82 46 0
1 -2 85 5 47 8 -81 -45 75 29 0
-1 -17 -88 41 31 20 -45 -80 79 0
1 -2 -85 -96 -73 77 16 -55 74 0
1 2 -33 38 -51 -86 7 -50 59 4 0
-1 -17 -88 -41 8 -36 -83 -95 -23 -50 -19 0
1 -2 85 5 47 -8 16 68 4 -82 -69 -21 0
-1 -17 -88 -41 8 -36 83 -68 56 0
1 2 33 14 -9 -16 -53 -24 0
-1 -17 -88 -41 8 36 16 31 -24 -43 -10 5 0
-1 -17 -88 -41 -8 -36 -94 -32 0
1 2 -33 38 -51 -86 -7 50 -69 -73 -68 53 0
-1 -17 88 11 12 2 63 -34 8 39 0
-1 -17 -88 -41 8 -36 -83 -95 -23 50 -76 0
1 2 33 14 -9 -16 53 -7 0
1 2 -33 38 -51 -86 7 50 14 0
1 2 -33 38 -51 86 40 36 35 -82 0
1 2 33 -14 -67 -26 73 -82 57 6 0
1 -2 85 5 -47 96 -48 3 0
-1 17 60 74 31 -12 80 78 0
-1 -17 88 11 -12 -22 60 70 -50 0
1 -2 -85 96 15 41 59 0
1 -2 85 -5 -60 49 28 39 88 -71 61 0
-1 -17 -88 41 -31 -65 22 0
1 -2 85 5 -47 -96 -45 -21 -88 -7 -74 -10 0
-1 -17 -88 -41 8 -36 -83 95 42 16 -84 -46 0
1 2 -33 38 51 95 23 15 24 20 0
-1 -17 88 11 12 2 -63 81 39 -91 0
-1 -17 -88 -41 8 -36 -83 95 42 -16 65 -52 0
1 -2 85 -5 -60 49 28 -39 -77 36 68 0
-1 17 -60 11 -83 -51 49 -62 45 48 0
1 -2 85 5 47 -8 16 -68 -36 88 -87 0
-1 -17 -88 -41 -8 36 -9 -19 -25 -24 -96 0
-1 -17 88 11 -12 -22 60 70 50 3 -73 0
1 -2 -85 96 15 -41 45 83 55 -33 32 0
-1 -17 -88 41 31 20 -45 -80 -79 0
1 2 33 -14 -67 26 76 -83 -18 -20 13 -23 0
1 2 33 -14 67 -77 -3 25 -76 0
1 2 -33 38 51 95 -23 48 74 63 15 -21 11 64 8 0
-1 -17 88 11 12 -2 -25 -69 93 -53 0
-1 -17 -88 -41 8 36 -16 43 9 83 -53 -57 0
1 -2 85 -5 60 42 32 0
-1 17 -60 11 -83 51 18 10 6 88 0
-1 -17 88 11 -12 22 -96 37 6 -55 0
-1 17 60 -74 -25 -54 35 -88 0
1 2 -33 -38 58 43 67 32 84 51 28 0
1 2 -33 38 51 95 -23 48 74 63 15 21 12 0
-1 17 -60 11 83 -10 0
1 -2 85 5 47 -8 16 -68 36 19 -74 -44 -65 -84 0
-1 -17 88 -11 77 -45 69 50 0
1 2 -33 38 -51 -86 -7 50 69 9 22 0
1 2 33 14 -9 16 50 -5 21 -69 0
1 -2 85 -5 -60 49 -28 79 16 -26 0
-1 -17 88 11 12 -2 25 -42 -44 51 -3 0
-1 -17 88 11 -12 22 96 -90 -67 14 69 23 -73 76 75 21 0
-1 17 -60 11 -83 -51 49 62 -52 0
-1 -17 88 -11 77 45 -79 70 0
-1 -17 88 11 12 2 63 34 -57 -86 0
-1 17 -60 -11 -69 18 12 -14 -51 59 -32 0
-1 -17 -88 -41 -8 -36 94 -21 95 -43 -52 -91 0
-1 17 -60 11 83 10 53 -21 -2 -65 0
-1 -17 88 -11 77 -45 -69 33 28 -53 -46 0
-1 -17 -88 -41 -8 36 -9 19 -65 84 0
-1 -17 -88 -41 -8 -36 -94 32 -40 -45 0
1 -2 85 5 47 -8 16 -68 -36 -88 75 42 0
-1 -17 -88 41 31 -20 -26 -49 -12 15 0
-1 -17 -88 -41 -8 -36 -94 32 40 0
-1 17 60 -74 25 68 -83 0
1 -2 -85 -96 73 16 49 3 7 0
-1 -17 88 -11 77 -45 -69 33 28 53 93 0
1 -2 85 5 -47 -96 -45 21 -68 -91 65 41 0
-1 -17 88 11 -12 -22 60 -70 56 4 0
1 2 33 -14 -67 26 76 83 64 0
1 -2 -85 96 15 -41 -45 18 63 0
-1 -17 88 11 -12 -22 -60 -3 55 44 57 73 -19 0
-1 -17 88 11 12 -2 25 -42 44 33 0
1 -2 85 5 47 8 -81 -45 -75 -92 0
1 2 33 14 -9 16 50 5 -83 -39 8 -95 59 -46 0
1 -2 -85 96 -15 -35 91 13 -84 54 -19 0
-1 -17 88 11 12 2 63 34 57 20 75 14 0
-1 -17 88 -11 -77 -63 80 -64 50 30 0
-1 -17 -88 41 31 -20 -26 49 0
-1 17 -60 11 83 10 53 -21 -2 65 -61 0
1 -2 -85 96 15 -41 -45 18 -63 0
1 -2 85 5 47 -8 16 -68 36 19 74 0
-1 -17 -88 -41 -8 36 9 -48 -94 45 75 13 0
-1 -17 88 11 -12 -22 -60 -3 55 -44 -74 -40 77 -10 0
1 2 -33 -38 -58 13 95 0
1 -2 85 -5 -60 49 28 -39 -77 36 -68 0
-1 -17 88 -11 77 45 -79 -70 12 0
1 2 -33 38 51 95 23 15 -24 -26 0
1 -2 -85 96 -15 -35 -91 -26 0
1 2 33 14 -9 16 50 5 -83 -39 -8 27 86 0
-1 17 60 74 -31 -96 -94 0
1 2 33 -14 67 -77 -3 -25 -51 0
-1 -17 88 -11 77 -45 -69 -33 55 87 -12 -79 0
1 2 -33 38 51 -95 -85 -27 37 -83 0
1 2 33 14 9 83 -6 78 0
1 -2 85 5 47 -8 16 -68 -36 -88 75 -42 -81 79 0
1 2 -33 -38 58 43 67 32 -84 -20 92 35 -59 -88 0
-1 -17 -88 -41 8 36 -16 43 -9 -13 0
-1 -17 -88 -41 8 -36 -83 95 42 -16 -65 -24 0
-1 -17 -88 -41 8 36 16 31 -24 43 35 90 0
1 -2 -85 -96 73 -16 0
1 -2 -85 96 15 -41 45 83 -55 69 0
1 2 33 14 -9 16 -50 8 -30 46 0
-1 -17 88 -11 77 -45 -69 -33 55 -87 65 -43 0
-1 -17 88 11 -12 22 -96 -37 52 29 -90 -53 0
-1 -17 88 11 12 -2 25 42 81 0
1 2 -33 -38 58 43 -67 -59 40 -28 0
1 -2 -85 -96 -73 -77 5 18 40 59 0
1 2 33 14 -9 16 50 -5 21 69 25 -87 -15 82 0
-1 -17 88 11 -12 22 96 -90 -67 14 69 23 73 70 58 -52 0
-1 -17 88 11 12 -2 25 42 -81 0
-1 -17 88 -11 77 -45 69 -50 -8 -91 -33 67 -29 15 94 0
1 2 33 -14 -67 -26 -73 31 32 -94 64 0
1 -2 85 -5 -60 -49 -26 95 0
1 2 33 -14 -67 26 76 -83 18 42 0
-1 -17 88 11 -12 22 96 -90 -67 14 -69 0
-1 -17 88 11 -12 22 96 -90 -67 14 69 23 -73 76 75 -21 0
1 -2 -85 -96 -73 -77 -5 -51 -27 70 0
-1 -17 88 11 -12 22 96 -90 -67 14 69 23 -73 -76 -56 0
-1 -17 88 11 -12 -22 -60 -3 55 -44 -74 -40 77 10 5 41 0
-1 -17 88 11 12 -2 -25 -69 93 53 0
1 -2 -85 -96 73 16 49 -3 -21 -13 50 93 0
1 -2 85 5 -47 -96 -45 21 -68 91 38 0
1 2 -33 -38 58 43 67 32 -84 -20 92 35 59 0
1 2 -33 38 -51 -86 -7 50 69 -9 -31 59 -13 -88 0
-1 -17 88 11 12 2 63 34 57 20 75 -14 0
-1 -17 88 11 -12 -22 -60 3 0
1 2 -33 -38 58 43 67 32 84 -51 0
-1 17 60 74 -31 -96 94 16 0
1 -2 85 5 47 -8 16 -68 -36 -88 75 -42 -81 -79 0
1 -2 85 5 47 -8 16 -68 -36 -88 75 -42 81 0
1 2 -33 -38 58 -43 88 -46 -54 0
1 2 33 -14 -67 -26 -73 -31 -46 22 0
1 2 33 14 -9 16 50 5 83 34 59 11 -87 0
1 -2 85 5 47 -8 16 68 4 -82 -69 21 0
-1 -17 -88 -41 8 -36 -83 95 42 16 -84 46 0
1 -2 85 5 47 -8 16 68 4 82 -9 -53 0
-1 -17 -88 -41 -8 36 -9 19 -65 -84 0
-1 17 -60 11 -83 -51 -49 -16 -24 0
1 -2 85 -5 -60 49 28 39 88 71 84 0
-1 17 -60 -11 -69 -18 0
1 2 33 14 -9 16 -50 8 30 -25 0
1 2 -33 38 51 95 23 15 -24 26 35 0
-1 17 60 -74 25 68 83 45 0
1 2 33 14 -9 16 50 5 83 -34 46 3 0
1 -2 -85 -96 -73 77 -16 12 -64 0
-1 -17 88 11 12 -2 -25 69 0
1 2 -33 38 51 -95 -85 -27 -37 0
-1 -17 88 11 -12 -22 -60 -3 55 -44 -74 -40 -77 0
-1 -17 -88 -41 -8 36 -9 19 65 60 -29 57 0
-1 -17 -88 41 31 20 -45 80 -11 0
-1 17 60 -74 25 -68 81 0
1 -2 85 5 -47 96 -48 -3 -16 0
-1 -17 -88 41 31 20 45 54 0
-1 -17 88 11 -12 22 -96 37 6 55 0
-1 -17 -88 -41 -8 -36 94 -21 95 -43 -52 91 7 53 0
1 2 33 -14 67 -77 -3 -25 51 0
1 -2 -85 -96 -73 -77 -5 -51 -27 -70 0
-1 -17 88 -11 -77 -63 80 64 -78 0
1 2 33 14 -9 16 50 5 -83 -39 -8 -27 -42 -62 0
1 2 -33 38 51 95 23 -15 0
1 2 33 -14 -67 -26 -73 -31 46 0
-1 -17 88 11 -12 22 -96 -37 52 -29 -8 0
1 2 33 14 -9 16 50 5 -83 39 -10 59 0
-1 -17 88 -11 77 45 -79 -70 -12 0
-1 -17 88 -11 77 -45 -69 33 28 -53 46 0
-1 -17 -88 -41 8 -36 83 -68 -56 -19 0
1 2 -33 38 51 95 -23 48 74 63 -15 4 39 0
-1 -17 -88 -41 -8 -36 94 -21 95 43 0
-1 -17 -88 41 31 20 45 -54 0
1 -2 85 -5 -60 -49 -26 -95 0
-1 -17 88 11 -12 -22 60 -70 -56 14 54 38 0
1 -2 85 5 47 -8 16 -68 36 -19 0
1 2 -33 -38 58 43 -67 -59 -40 66 27 0
1 2 -33 -38 58 43 -67 59 19 25 -51 0
1 -2 85 -5 -60 -49 26 65 -54 57 0
1 -2 85 5 -47 96 48 35 0
-1 -17 88 -11 77 45 79 64 0
1 2 -33 38 51 95 -23 -48 -35 87 -15 0
-1 -17 -88 41 31 20 -45 80 11 0
-1 17 60 74 31 -12 80 -78 0
1 2 -33 38 -51 86 -40 -94 -41 -32 0
1 -2 -85 -96 73 16 49 -3 -21 -13 50 -93 -38 -56 0
1 2 33 14 -9 16 50 5 83 34 -59 -51 0
-1 -17 88 -11 77 -45 69 -50 -8 91 -2 0
-1 -17 -88 41 -31 -65 -22 -35 0
1 2 -33 -38 58 43 -67 -59 -40 -66 0
-1 -17 88 -11 -77 63 45 -94 -78 0
1 -2 -85 96 15 -41 45 -83 20 0
-1 -17 -88 41 31 -20 26 -86 0
1 2 33 14 -9 16 50 5 -83 -39 8 -95 59 46 0
1 2 -33 38 -51 -86 -7 50 -69 -73 -68 -53 61 0
1 -2 -85 96 -15 35 -48 0
1 -2 -85 -96 73 16 49 -3 -21 13 0
1 -2 -85 -96 73 16 49 -3 -21 -13 50 -93 -38 56 0
1 2 33 14 -9 16 50 5 -83 -39 8 -95 -59 0
-1 17 -60 11 83 10 53 -21 2 70 -24 0
1 2 -33 -38 58 -43 -88 40 -87 -68 0
-1 -17 88 11 -12 -22 -60 -3 -55 -76 0
-1 -17 88 -11 77 -45 -69 -33 -55 37 -49 -25 0
1 2 33 -14 -67 26 76 83 -64 25 -65 0
1 2 33 14 9 83 6 -87 73 31 0
-1 17 -60 11 -83 -51 49 62 52 -26 0
1 2 33 14 -9 16 50 5 -83 39 10 -8 -84 -20 0
1 2 -33 38 -51 -86 7 -50 -59 85 0
-1 17 -60 -11 -69 18 12 -14 -51 59 32 0
1 2 33 14 -9 16 -50 -8 29 0
-1 17 60 -74 -25 -54 35 88 0
1 -2 85 -5 -60 49 28 39 -88 90 0
1 -2 -85 96 -15 -35 91 -13 -62 0
-1 -17 88 -11 77 -45 69 -50 -8 91 2 0
1 2 -33 38 -51 86 40 -36 0
1 2 -33 -38 58 43 -67 -59 40 28 0
1 -2 85 5 47 8 -81 45 77 0
1 2 33 -14 -67 -26 73 -82 -57 0
-1 -17 88 -11 77 -45 -69 -33 55 -87 -65 92 0
-1 -17 88 11 12 -2 25 -42 44 -33 0
1 2 33 -14 -67 -26 73 -82 57 -6 61 0
1 -2 -85 -96 -73 77 16 -55 -74 -95 -38 0
-1 17 -60 -11 -69 18 -12 0
1 2 -33 38 -51 86 -40 -94 41 0
1 -2 -85 -96 -73 77 16 55 0
1 2 33 -14 -67 26 76 83 -64 25 65 0
-1 -17 -88 -41 8 36 -16 -43 21 49 0
1 2 33 14 -9 16 50 -5 21 69 25 -87 -15 -82 0
1 2 -33 38 -51 -86 7 50 -14 -56 0
1 2 -33 38 -51 -86 7 -50 -59 -85 -66 0
1 2 -33 38 -51 -86 -7 50 69 -9 -31 -59 0
-1 17 60 74 -31 96 0
1 2 33 14 9 83 6 87 -36 42 77 3 0
1 2 33 14 -9 16 50 -5 21 69 -25 0
1 2 -33 38 -51 -86 -7 50 -69 -73 -68 -53 -61 0
-1 -17 -88 -41 -8 36 -9 19 65 60 -29 -57 71 0
1 2 33 14 9 83 6 87 -36 42 -77 0
-1 -17 88 11 12 2 63 34 57 -20 0
1 -2 85 5 -47 -96 -45 21 68 -81 0
1 2 33 -14 67 77 -8 -57 -52 85 0
1 2 -33 -38 58 43 -67 59 19 25 51 0
1 2 -33 -38 -58 -13 67 -23 -34 0
1 -2 -85 -96 -73 77 16 -55 -74 95 72 0
1 2 -33 38 -51 -86 7 50 -14 56 0
-1 -17 -88 -41 -8 36 9 48 -67 21 -90 72 0
1 -2 -85 -96 73 16 -49 -51 0
-1 17 -60 -11 -69 18 12 14 0
1 2 -33 38 -51 86 -40 94 -11 0
-1 -17 88 11 -12 22 96 90 -3 0
-1 -17 88 -11 77 -45 -69 -33 -55 -37 54 0
1 2 33 -14 -67 -26 -73 31 -32 -4 0
-1 -17 88 -11 77 -45 -69 -33 55 87 12 0
1 2 33 14 -9 16 50 5 83 34 -59 51 0
1 -2 -85 -96 -73 77 16 -55 -74 95 -72 0
-1 17 60 -74 -25 54 57 0
1 2 33 14 -9 16 50 5 -83 -39 -8 -27 -42 62 0
-1 -17 -88 -41 -8 36 9 48 -67 21 -90 -72 0
-1 -17 -88 -41 8 -36 83 68 -20 0
-1 -17 -88 -41 8 36 16 -31 23 -57 0
1 -2 85 -5 -60 49 28 -39 77 0
-1 17 -60 11 -83 -51 -49 -16 24 19 0
-1 -17 -88 41 -31 65 33 -36 0
1 2 33 -14 -67 26 76 -83 18 -42 0
-1 17 -60 -11 69 -62 68 0
1 2 -33 38 51 95 23 15 -24 26 -35 0
-1 -17 -88 -41 8 -36 -83 -95 -23 50 76 0
1 -2 85 -5 -60 49 28 39 88 -71 -61 0
-1 -17 -88 -41 -8 36 9 48 -67 -21 74 0
-1 -17 -88 -41 8 36 16 31 -24 -43 -10 -5 0
-1 -17 -88 -41 8 36 16 31 24 0
-1 -17 88 11 -12 22 96 -90 -67 -14 0
-1 -17 88 -11 77 -45 -69 -33 55 87 -12 79 0
1 2 -33 -38 58 -43 88 -46 54 -60 0
1 -2 -85 96 -15 -35 91 13 84 0
1 -2 -85 -96 73 16 49 -3 -21 -13 50 -93 38 -86 0
1 2 -33 -38 58 43 67 32 -84 -20 92 35 -59 88 0
-1 -17 -88 -41 8 36 -16 -43 -21 24 0
-1 -17 88 -11 -77 -63 -80 -47 0
1 2 -33 38 -51 86 -40 94 11 0
-1 -17 88 -11 77 -45 69 -50 -8 -91 -33 -67 -86 0
1 2 33 14 -9 16 50 -5 21 69 25 87 0
1 2 -33 38 51 95 -23 -48 -35 -87 0
1 2 -33 38 51 -95 -85 27 -91 0
1 -2 85 5 47 8 -81 45 -77 0
1 -2 85 -5 -60 -49 26 65 54 91 -27 0
-1 17 -60 11 -83 -51 -49 16 6 0
-1 -17 88 -11 77 -45 69 -50 -8 -91 33 74 56 48 0
1 2 33 -14 67 -77 -3 25 76 0
1 -2 85 5 47 8 81 12 0
1 2 -33 -38 58 -43 -88 40 87 0
1 -2 85 -5 -60 49 28 39 -88 -90 59 0
1 2 33 -14 -67 26 -76 -65 0
-1 17 -60 11 -83 -51 49 62 52 26 0
-1 -17 88 11 12 -2 -25 -69 -93 0
-1 -17 88 -11 -77 63 45 94 -78 0
1 2 33 14 9 83 6 87 36 0
-1 -17 88 11 -12 -22 -60 -3 55 44 -57 0
-1 -17 -88 -41 -8 36 9 48 -67 -21 -74 -90 0
1 2 -33 -38 58 -43 88 -46 54 60 61 0
1 -2 85 5 -47 96 48 -35 0
-1 -17 -88 -41 -8 36 9 48 67 -46 -18 0
-1 -17 88 -11 77 -45 69 -50 -8 -91 -33 67 29 -71 0
1 2 33 14 -9 -16 -53 24 0
-1 -17 88 -11 77 -45 69 -50 -8 -91 -33 67 -29 15 -94 0
1 2 -33 38 51 95 -23 48 74 63 15 21 -12 22 94 0
1 2 33 -14 -67 26 76 83 -64 -25 49 0
1 -2 85 5 47 8 -81 -45 -75 92 0
1 2 33 -14 -67 26 -76 65 0
-1 -17 -88 -41 -8 36 9 48 67 -46 18 0
-1 -17 88 -11 -77 -63 80 -64 50 -30 70 0
-1 17 60 -74 -25 -54 -35 0
-1 -17 88 -11 77 -45 69 -50 -8 -91 33 -74 0
1 2 33 14 9 -83 82 -34 21 0
1 -2 -85 -96 73 16 -49 51 0
-1 17 60 -74 -25 54 -57 61 67 0
1 -2 85 5 47 -8 16 -68 -36 88 87 0
-1 -17 -88 -41 -8 -36 94 -21 -95 -49 0
1 2 33 14 9 83 6 87 -36 42 77 -3 0
-1 -17 -88 -41 -8 -36 94 21 -63 34 92 -62 0
1 -2 -85 96 -15 -35 -91 26 50 -34 0
-1 -17 88 -11 77 -45 -69 33 28 53 -93 -56 0
-1 -17 88 11 -12 22 96 -90 67 -93 92 0
1 2 -33 38 51 95 -23 48 -74 0
1 2 -33 38 51 -95 -85 -27 37 83 0
1 -2 -85 96 15 -41 -45 -18 0
1 -2 -85 96 15 41 -59 6 -73 7 0
1 -2 85 5 -47 -96 -45 21 -68 91 -38 0
-1 17 -60 -11 69 -62 -68 0
-1 -17 88 -11 77 -45 -69 33 28 53 -93 56 0
1 2 33 14 -9 16 -50 8 30 25 0
1 -2 85 5 47 -8 16 68 4 -82 69 50 0
1 2 33 14 -9 16 50 5 -83 -39 -8 -27 42 28 0
1 2 -33 38 -51 -86 -7 -50 4 -56 28 0
-1 -17 88 -11 77 -45 69 -50 8 80 -65 0
1 2 33 -14 -67 -26 -73 31 32 94 7 0
-1 -17 88 11 -12 -22 60 70 50 -3 0
1 -2 85 5 47 -8 16 -68 36 19 -74 -44 65 0
-1 -17 88 11 12 2 63 -34 -8 52 0
1 -2 85 5 -47 96 -48 -3 16 0
-1 -17 -88 41 31 -20 26 86 0
1 -2 85 -5 -60 49 -28 -79 -20 -6 0
-1 -17 88 -11 -77 -63 80 -64 50 -30 -70 0
1 -2 85 -5 -60 49 28 39 88 71 -84 -83 0
1 2 33 14 -9 16 50 5 -83 39 10 8 -32 0
-1 -17 -88 -41 -8 -36 94 -21 -95 49 0
-1 -17 88 -11 -77 -63 80 -64 -50 -13 0
1 2 -33 38 -51 86 -40 -94 -41 32 0
1 2 -33 38 -51 -86 7 -50 -59 -85 66 73 37 0
1 2 -33 38 -51 86 40 36 35 82 0
-1 -17 88 -11 77 -45 69 -50 8 80 65 0
1 2 -33 -38 58 43 67 32 -84 -20 -92 5 0
1 -2 85 5 -47 -96 -45 21 -68 -91 65 -41 0
-1 -17 88 -11 -77 63 -45 0
1 -2 -85 96 15 41 -59 6 -73 -7 0
1 2 -33 -38 58 43 67 32 -84 20 39 0
1 2 -33 -38 58 -43 -88 40 -87 68 0
1 2 -33 38 51 95 -23 48 74 63 15 -21 11 -64 0
-1 17 60 -74 -25 54 -57 61 -67 26 0
-1 -17 88 11 -12 22 96 -90 -67 14 69 23 73 70 -58 0
-1 -17 -88 -41 -8 -36 94 -21 95 -43 52 0
-1 -17 88 -11 77 -45 69 -50 -8 -91 33 74 -56 -55 0
-1 -17 -88 -41 -8 36 -9 19 65 -60 81 0
1 2 33 -14 -67 -26 -73 31 32 94 -7 0
-1 -17 88 11 -12 -22 60 70 50 3 73 0
1 -2 85 5 -47 -96 -45 -21 -88 -7 74 0
-1 17 -60 11 -83 -51 -49 -16 24 -19 0
1 -2 85 5 47 8 81 -12 0
-1 -17 -88 -41 8 36 -16 43 -9 13 0
-1 -17 -88 -41 -8 36 -9 19 65 -60 -81 0
1 2 -33 -38 58 43 67 32 -84 -20 92 -35 0
-1 -17 88 11 -12 -22 -60 -3 55 -44 74 -75 -71 0
-1 17 60 -74 25 68 83 -45 0
1 2 -33 38 51 95 -23 48 74 63 15 -21 11 64 -8 0
-1 17 -60 11 -83 51 18 10 -6 89 0
1 2 -33 38 51 95 -23 -48 -35 87 15 -37 0
-1 -17 -88 -41 8 -36 -83 95 -42 -13 0
1 2 -33 -38 -58 -13 -67 0
-1 -17 88 11 -12 -22 60 -70 -56 14 54 -38 0
-1 -17 88 -11 -77 63 45 94 78 12 0
1 2 -33 38 51 -95 -85 27 91 0
1 -2 -85 -96 -73 -77 5 18 40 -59 0
1 2 33 14 9 83 6 -87 73 -31 0
1 -2 85 -5 -60 49 -28 79 -16 -84 48 14 0
-1 -17 -88 -41 8 36 -16 43 9 83 -53 57 0
-1 -17 88 11 -12 -22 -60 -3 55 -44 -74 -40 77 10 -5 35 0
-1 -17 -88 -41 -8 36 9 -48 94 0
-1 -17 88 11 -12 22 -96 -37 52 29 90 0
-1 -17 88 11 12 2 -63 81 -39 -32 0
-1 -17 -88 -41 -8 36 9 -48 -94 -45 0
1 -2 85 5 -47 -96 -45 21 -68 -91 -65 0
1 -2 85 -5 -60 49 28 -39 -77 -36 0
-1 -17 -88 -41 -8 -36 94 21 -63 34 -92 0
1 2 -33 38 -51 -86 7 -50 59 -4 0
-1 -17 -88 -41 8 36 -16 -43 21 -49 0
-1 -17 88 -11 77 -45 -69 -33 -55 37 -49 25 0
1 -2 85 -5 -60 -49 26 65 54 -91 0
1 2 -33 -38 58 43 67 32 -84 -20 -92 -5 0
1 2 -33 38 -51 -86 7 -50 -59 -85 66 -73 0
1 2 33 -14 67 77 -8 -57 52 0
1 -2 85 5 47 8 -81 -45 75 -29 0
-1 -17 88 11 -12 22 -96 -37 52 29 -90 53 0
-1 17 -60 11 83 10 53 -21 2 -70 0
-1 -17 -88 -41 -8 -36 94 21 -63 34 92 62 0
-1 -17 -88 -41 8 36 16 -31 23 57 60 38 0
-1 -17 88 -11 77 -45 -69 -33 -55 37 49 0
1 2 -33 -38 58 -43 88 46 -41 45 0
-1 -17 -88 -41 -8 -36 94 21 63 0
-1 -17 -88 -41 -8 36 -9 -19 -25 24 26 0
1 -2 85 5 -47 -96 -45 -21 -88 7 0
-1 -17 88 11 12 -2 25 -42 -44 51 3 0
1 -2 -85 96 -15 -35 -91 26 -50 0
-1 -17 88 11 -12 -22 -60 -3 55 44 57 -73 0
1 2 33 -14 67 -77 3 0
1 -2 -85 -96 73 16 49 3 -7 -9 0
1 -2 85 5 -47 -96 45 0
-1 -17 -88 -41 -8 36 9 48 -67 21 90 0
-1 -17 88 11 -12 22 -96 -37 -52 0
1 2 -33 38 -51 -86 -7 -50 4 56 0
-1 17 -60 11 -83 -51 49 -62 -45 -34 0
1 2 -33 -38 58 -43 88 46 41 0
1 -2 -85 -96 73 16 49 -3 -21 -13 50 -93 38 86 0
-1 -17 -88 41 31 -20 -26 -49 -12 -15 0
1 2 33 14 9 -83 82 34 77 0
-1 -17 88 -11 77 -45 69 -50 -8 -91 -33 -67 86 0
-1 -17 -88 -41 8 36 -16 -43 -21 -24 0
1 -2 85 5 47 -8 -16 -4 0
1 2 33 14 -9 16 50 5 -83 -39 -8 -27 42 -28 0
-1 -17 -88 -41 8 -36 -83 95 42 -16 65 52 0
-1 -17 -88 -41 -8 36 9 48 67 46 -49 0
1 2 -33 38 -51 -86 -7 50 69 9 -22 0
1 2 -33 38 -51 -86 -7 -50 4 -56 -28 0
1 2 33 14 -9 16 50 5 83 -34 46 -3 0
1 2 -33 38 51 95 -23 48 74 63 15 -21 -11 0
1 2 33 14 -9 16 50 5 -83 39 10 -8 84 0
1 -2 -85 -96 -73 -77 -5 51 67 0
1 -2 -85 -96 -73 -77 -5 51 -67 29 0
1 2 33 -14 67 77 -8 57 -93 0
1 -2 85 -5 -60 49 -28 79 -16 -84 48 -14 0
-1 17 -60 -11 69 62 0
1 -2 85 5 -47 -96 -45 21 68 81 0
1 2 -33 38 51 95 23 15 24 -20 0
-1 -17 -88 -41 8 -36 -83 -95 23 -62 5 0
1 2 33 14 -9 16 -50 8 -30 -46 0
1 -2 85 5 47 -8 16 68 4 82 9 0
1 -2 85 5 47 -8 16 68 4 82 -9 53 0
-1 -17 -88 41 31 -20 -26 -49 12 0
-1 -17 -88 -41 8 36 16 31 -24 -43 10 0
1 -2 -85 96 15 41 -59 -6 0
-1 -17 88 -11 -77 -63 80 64 78 0
1 2 33 14 -9 16 50 5 -83 39 -10 -59 0
-1 17 60 -74 -25 54 -57 -61 7 0
1 2 -33 -38 58 43 67 32 -84 20 -39 24 0
1 2 -33 38 -51 -86 7 -50 -59 -85 66 73 -37 0
-1 -17 -88 41 -31 -65 -22 35 68 0
1 2 -33 38 -51 -86 -7 50 -69 73 0
-1 -17 -88 -41 8 -36 -83 -95 23 62 0
1 -2 -85 -96 73 16 49 3 -7 9 70 0
1 2 -33 -38 58 -43 -88 -40 15 0
-1 -17 -88 -41 -8 -36 94 -21 95 -43 -52 91 -7 0
-1 -17 88 -11 -77 63 45 94 78 -12 0
1 2 33 14 -9 16 50 5 -83 39 10 -8 -84 20 0
-1 -17 88 11 -12 -22 -60 -3 55 -44 -74 -40 77 10 -5 -35 -72 0
-1 -17 88 11 -12 -22 -60 -3 -55 76 0
-1 -17 88 11 -12 -22 -60 -3 55 44 57 73 19 -38 -67 0
-1 -17 88 11 -12 -22 -60 -3 55 -44 -74 40 -75 -86 0
-1 -17 -88 -41 -8 36 9 -48 -94 45 -75 0
1 2 33 -14 67 77 8 7 0
-1 -17 88 11 -12 -22 60 -70 56 -4 0
-1 -17 -88 41 -31 65 -33 -48 0
-1 17 60 74 31 12 -58 0
-1 17 60 -74 -25 54 -57 -61 -7 0
1 -2 85 5 47 -8 16 -68 36 19 -74 44 0
-1 -17 -88 -41 8 36 16 31 -24 43 -35 0
1 2 33 -14 -67 -26 73 -82 57 -6 -61 0
-1 -17 -88 -41 -8 36 9 48 67 46 49 0
1 -2 -85 96 15 -41 45 83 55 33 -12 -6 0
-1 -17 88 -11 -77 63 45 -94 78 0
1 2 -33 38 51 95 -23 48 74 -63 93 0
-1 -17 88 -11 77 -45 -69 -33 -55 -37 -54 0
1 2 33 14 9 83 -6 -78 0
-1 -17 88 -11 77 -45 69 -50 -8 -91 -33 67 -29 -15 -53 0
-1 -17 -88 41 -31 65 33 36 35 0
-1 -17 88 -11 77 -45 69 -50 -8 -91 33 74 -56 55 0
1 -2 85 -5 -60 49 -28 79 -16 84 0
1 2 33 -14 -67 26 76 83 -64 -25 -49 0
1 -2 -85 -96 -73 77 -16 12 64 0
-1 -17 -88 -41 -8 36 9 -48 -94 45 75 -13 0
1 -2 85 -5 -60 -49 26 65 -54 -57 0
-1 -17 88 11 -12 22 -96 -37 52 -29 8 0
-1 17 60 -74 -25 54 -57 61 -67 -26 0
1 2 -33 -38 58 43 -67 59 -19 0
1 -2 -85 96 15 -41 45 83 -55 -69 0
1 2 -33 38 51 95 -23 -48 -35 87 15 37 0
1 2 -33 38 51 95 -23 48 74 63 -15 -4 87 0
1 -2 -85 -96 73 16 49 -3 -21 -13 -50 0
1 -2 85 5 47 -8 -16 4 0
1 -2 -85 -96 73 16 49 3 -7 9 -70 0
1 2 33 -14 -67 26 76 -83 -18 -20 -13 0
-1 -17 88 11 -12 22 96 -90 -67 14 69 -23 0
-1 -17 -88 -41 -8 -36 -94 32 -40 45 0
-1 -17 -88 -41 8 36 16 -31 -23 0
1 2 33 14 9 -83 82 34 -77 0
1 2 33 -14 67 77 8 -7 0
1 2 33 14 9 83 6 87 -36 -42 0
-1 -17 -88 -41 8 -36 -83 -95 23 -62 -5 0
1 2 -33 38 51 -95 85 0
-1 17 -60 11 83 10 53 -21 -2 65 61 0
1 2 33 14 9 -83 82 -34 -21 -58 0
1 2 -33 38 51 95 -23 48 74 63 15 21 -12 22 -94 0
1 2 -33 38 -51 -86 -7 -50 -4 0
1 -2 -85 96 -15 -35 91 13 -84 -54 0
1 2 -33 38 51 95 -23 48 74 63 15 21 -12 -22 0
1 -2 85 -5 -60 -49 26 65 54 91 27 0
1 2 -33 38 -51 86 40 36 -35 0
-1 -17 -88 -41 8 -36 83 68 20 0
-1 17 -60 11 83 10 53 -21 2 70 24 0
1 -2 85 -5 60 -42 0
-1 -17 -88 -41 -8 36 9 48 -67 -21 -74 90 0
1 -2 85 -5 -60 49 -28 79 -16 -84 -48 0
-1 -17 88 11 -12 -22 -60 -3 55 44 57 73 19 -38 67 0
-1 17 60 74 31 12 58 0
1 -2 -85 96 15 -41 45 83 55 33 12 0
-1 -17 88 -11 77 45 79 -64 0
-1 -17 -88 41 -31 65 -33 48 -2 0
-1 17 -60 11 -83 51 18 10 -6 -89 0
-1 -17 -88 41 -31 -65 -22 35 -68 0
1 -2 85 5 47 -8 16 68 -4 0
-1 -17 88 -11 77 -45 -69 -33 55 -87 65 43 0
-1 -17 88 11 -12 -22 -60 -3 55 -44 -74 40 75 0
1 -2 -85 96 -15 -35 -91 26 50 34 0
-1 17 -60 -11 -69 18 12 -14 51 0
1 2 33 14 -9 16 50 5 -83 39 10 8 32 0
-1 -17 -88 -41 -8 -36 94 -21 95 -43 -52 91 7 -53 0
1 2 33 -14 -67 -26 -73 31 -32 4 0
-1 -17 88 11 -12 22 -96 37 -6 0
-1 17 -60 11 -83 51 18 10 6 -88 0
-1 -17 88 11 -12 22 96 -90 67 93 0
1 -2 85 5 47 -8 16 -68 -36 -88 -75 0
1 2 33 14 -9 16 50 -5 21 69 25 -87 15 0
1 2 33 14 9 -83 -82 0
1 -2 85 -5 -60 -49 26 -65 0
-1 -17 -88 -41 8 -36 83 -68 -56 19 0
1 -2 -85 96 -15 -35 91 -13 62 0
-1 -17 88 11 -12 22 96 -90 -67 14 69 23 73 -70 0
1 2 -33 38 51 95 -23 -48 35 0
-1 -17 88 11 -12 22 96 -90 -67 14 69 23 73 70 58 52 0
1 -2 85 -5 -60 49 28 39 -88 -90 -59 -11 0
1 -2 -85 96 15 -41 45 83 55 -33 -32 0
1 2 -33 -38 58 43 67 -32 0
1 2 33 -14 -67 -26 -73 -31 -46 -22 0
-1 -17 -88 -41 -8 36 -9 -19 -25 -24 96 0
-1 17 -60 11 83 10 -53 -35 0
1 -2 -85 -96 -73 -77 5 -18 0
-1 -17 88 11 12 2 63 -34 8 -39 0
1 -2 85 -5 60 42 -32 0
1 2 -33 38 51 95 -23 48 74 63 -15 4 -39 60 21 0
1 2 33 14 9 -83 82 -34 -21 58 0
-1 -17 -88 41 -31 65 -33 48 2 0
-1 17 -60 11 -83 51 -18 0
-1 -17 88 11 -12 -22 -60 -3 55 -44 74 75 0
1 2 33 -14 -67 -26 73 82 -46 0
-1 -17 88 -11 77 -45 -69 33 -28 -4 0
1 2 -33 38 -51 -86 -7 50 69 -9 -31 59 -13 88 -60 0
-1 -17 88 11 12 2 -63 -81 70 0
-1 -17 88 11 -12 22 96 -90 67 -93 -92 0
-1 -17 -88 -41 -8 36 -9 -19 -25 24 -26 0
-1 -17 -88 -41 8 36 16 -31 23 57 -60 0
-1 17 -60 11 -83 -51 49 -62 45 -48 0
1 -2 -85 -96 -73 -77 -5 -51 27 0
1 2 -33 -38 58 -43 88 -46 54 60 -61 0
-1 -17 -88 -41 -8 36 -9 19 65 60 29 0
1 -2 -85 96 -15 35 48 0
-1 -17 88 11 -12 -22 -60 -3 55 -44 74 -75 71 28 0
-1 -17 -88 -41 8 36 -16 43 9 83 53 0
1 2 -33 38 -51 -86 -7 50 69 -9 31 0
1 -2 -85 96 15 -41 45 83 55 33 -12 6 0
1 2 33 -14 -67 26 76 -83 -18 20 0
1 -2 85 -5 -60 49 28 39 -88 -90 -59 11 0
-1 -17 -88 -41 8 36 16 31 -24 43 35 -90 0
1 2 -33 38 51 95 -23 48 74 -63 -93 0
-1 17 60 74 31 -12 -80 0
-1 -17 88 11 12 2 -63 81 -39 32 0
-1 -17 88 -11 77 -45 69 -50 8 -80 0
-1 -17 -88 -41 8 -36 -83 -95 -23 -50 19 0
1 2 -33 38 -51 -86 -7 50 -69 -73 68 0
1 2 33 -14 67 77 -8 57 93 0
1 2 33 14 -9 16 50 5 83 -34 -46 0
-1 -17 88 -11 77 -45 69 -50 -8 -91 -33 67 -29 -15 53 0
1 -2 -85 -96 -73 77 -16 -12 0
1 -2 -85 -96 73 16 49 -3 21 0
-1 -17 88 11 12 2 63 34 57 20 -75 0
-1 -17 88 11 12 2 -63 -81 -70 0
1 -2 85 5 -47 -96 -45 -21 -88 -7 -74 10 0
1 -2 -85 -96 -73 -77 5 18 -40 0
1 2 -33 -38 58 43 -67 59 19 -25 -42 0
1 -2 85 -5 -60 49 28 39 88 71 -84 83 0
1 -2 85 -5 -60 49 -28 79 16 26 0
1 -2 -85 96 15 41 -59 6 73 0
-1 -17 88 11 -12 22 96 -90 -67 14 69 23 -73 76 -75 0
-1 -17 -88 -41 -8 36 -9 19 65 60 -29 -57 -71 0
-1 -17 88 11 -12 22 96 -90 -67 14 69 23 -73 -76 56 0
1 2 -33 -38 58 43 67 32 84 51 -28 0
-1 -17 88 -11 -77 -63 -80 47 14 0
-1 -17 88 11 12 2 63 -34 -8 -52 0
-1 -17 88 -11 77 -45 69 -50 -8 -91 33 74 56 -48 0
-1 -17 88 -11 77 -45 -69 33 -28 4 0
1 2 -33 -38 -58 13 -95 0
1 2 -33 -38 58 43 67 32 -84 20 -39 -24 0
1 2 -33 38 51 95 -23 48 74 63 -15 4 -39 -60 0
-1 -17 88 11 -12 -22 60 -70 -56 -14 0
-1 -17 -88 41 -31 65 33 36 -35 0
1 2 33 14 -9 16 50 5 -83 -39 -8 27 -86 0
1 2 33 14 -9 16 50 5 -83 -39 8 95 0
-1 17 60 74 -31 -96 94 -16 0
1 2 -33 38 51 95 -23 48 74 63 -15 4 -39 60 -21 0
-1 -17 -88 -41 8 -36 -83 95 42 -16 -65 24 0
-1 -17 88 11 12 2 -63 81 39 91 79 0
1 2 -33 38 -51 -86 -7 50 69 -9 -31 59 -13 88 60 0
1 2 -33 38 -51 -86 -7 50 69 -9 -31 59 13 0
1 -2 -85 96 15 -41 45 -83 -20 0
-1 -17 88 -11 77 -45 69 -50 -8 -91 -33 67 29 71 0
1 2 -33 -38 58 -43 -88 -40 -15 0
-1 17 60 -74 25 -68 -81 0
1 2 33 14 -9 16 50 -5 -21 0
-1 17 -60 11 83 10 -53 35 0
1 -2 85 5 47 -8 16 68 4 -82 69 -50 0
1 2 33 14 9 83 6 -87 -73 0
-1 -17 88 11 -12 -22 -60 -3 55 -44 -74 40 -75 86 0
-1 -17 -88 -41 8 36 16 -31 23 57 60 -38 0
-1 -17 88 11 -12 -22 -60 -3 55 -44 -74 -40 77 10 5 -41 0
1 -2 85 5 47 -8 16 -68 36 19 -74 -44 -65 84 0
-1 -17 -88 -41 -8 -36 94 21 -63 -34 0
1 2 -33 -38 58 43 -67 -59 -40 66 -27 0
1 -2 -85 -96 -73 77 16 -55 -74 -95 38 70 0
-1 -17 88 -11 -77 -63 80 -64 -50 13 0
-1 17 -60 11 -83 -51 49 -62 -45 34 0
-1 -17 88 11 -12 22 96 90 3 0
1 2 -33 -38 -58 -13 67 23 -74 0
1 2 33 14 -9 16 -50 -8 -29 0
-1 -17 88 11 12 -2 25 -42 -44 -51 0
-1 -17 -88 -41 8 36 -16 43 9 -83 0
