c NeuroCodeBench 2.0 CNF formula with verdict Unsat
p cnf 95 345
1 -9 55 -16 26 -85 20 93 0
1 9 -29 -54 21 -12 2 92 48 20 81 0
1 -9 -55 59 41 -27 24 -52 53 0
1 9 29 -84 92 -87 38 50 -18 -39 -55 0
1 -9 55 16 50 81 48 -47 31 0
-1 28 -4 60 20 72 26 71 45 -75 0
-1 -28 -77 -54 63 -72 82 0
1 9 29 84 25 43 -21 7 -76 64 -32 -5 87 0
1 -9 55 16 -50 -79 -22 -33 45 0
1 9 -29 -54 21 12 37 -83 -27 0
1 9 -29 -54 -21 83 -20 -65 -72 68 0
1 -9 -55 59 41 27 23 -92 57 30 53 0
1 9 29 84 25 43 -21 7 -76 64 -32 5 0
-1 -28 77 -31 -93 65 -61 41 0
1 9 29 84 25 -43 63 79 20 76 0
-1 -28 77 -31 93 19 0
1 9 -29 -54 21 -12 -2 49 -80 0
-1 28 -4 60 -20 -40 -42 89 0
1 9 -29 54 -42 -3 28 -47 0
-1 28 -4 -60 53 -76 68 78 -10 -79 0
1 9 29 84 -25 -85 71 69 -81 67 -44 0
1 9 29 -84 -92 -4 26 43 -14 -44 0
1 9 -29 -54 -21 83 20 -75 85 34 70 77 40 0
1 9 29 84 25 -43 -63 3 -66 0
1 9 -29 -54 -21 83 -20 65 45 0
1 9 -29 54 -42 3 -48 85 -52 0
1 -9 55 16 50 -81 -53 24 95 0
1 9 -29 -54 -21 83 -20 -65 72 -27 0
1 9 -29 -54 21 -12 2 92 48 -20 0
1 9 29 -84 92 87 -66 68 11 0
-1 28 -4 -60 -53 79 24 0
1 -9 55 -16 -26 -8 -10 0
1 -9 -55 -59 50 24 0
-1 28 -4 60 20 72 -26 50 0
1 -9 55 16 -50 -79 -22 -33 -45 -37 0
1 9 29 -84 92 87 -66 68 -11 15 0
1 9 29 84 25 -43 -63 -3 0
-1 -28 -77 54 -49 -92 18 -50 -23 91 0
1 -9 55 16 -50 79 5 82 -47 33 -24 0
1 -9 -55 59 41 27 23 92 -24 -90 76 0
1 9 -29 -54 -21 -83 -66 22 12 -44 -41 0
1 9 -29 -54 -21 -83 -66 -22 3 0
1 -9 -55 59 41 -27 -24 7 -11 0
1 -9 55 16 50 81 -48 -25 -95 0
1 9 29 -84 -92 -4 26 -43 45 -81 55 0
1 9 -29 -54 -21 -83 -66 22 12 44 -72 0
-1 28 4 -72 -68 -86 2 0
1 -9 55 -16 26 -85 20 -93 0
1 9 29 -84 92 -87 -38 18 -17 -61 -51 0
1 9 29 -84 92 87 -66 -68 53 93 14 16 0
1 9 29 84 25 43 -21 7 76 -70 -26 -62 -31 -42 14 0
1 9 29 -84 -92 4 66 26 -60 -20 0
1 -9 -55 59 -41 -36 85 -20 43 0
-1 28 -4 60 -20 -40 42 14 0
1 9 29 84 25 -43 63 79 -20 -94 -87 16 69 0
1 -9 55 -16 -26 -8 10 72 -37 0
1 9 29 84 -25 85 50 0
1 9 29 84 25 -43 63 -79 -17 -47 22 0
1 9 -29 -54 -21 83 20 -75 85 -34 0
1 9 29 -84 92 -87 38 -50 17 -45 0
-1 28 -4 -60 53 -76 68 -78 0
-1 -28 -77 54 -49 -92 18 -50 23 -82 0
1 -9 55 16 -50 79 -5 -75 0
1 9 29 84 25 43 -21 -7 -90 54 13 0
1 -9 55 16 50 81 -48 -25 95 38 0
-1 -28 -77 -54 63 -72 -82 0
1 9 29 84 25 43 -21 7 76 -70 -26 62 59 0
1 9 -29 54 -42 -3 -28 19 -65 38 0
1 9 29 -84 -92 4 66 -26 -65 0
1 9 29 -84 -92 -4 26 43 -14 44 0
1 9 -29 -54 -21 83 -20 65 -45 18 -42 0
1 9 29 84 25 -43 63 79 -20 -94 87 72 -66 0
1 9 -29 -54 -21 83 20 -75 -85 0
1 -9 -55 -59 -50 -93 -46 0
1 9 -29 -54 -21 83 20 -75 85 34 70 77 -40 25 0
1 9 29 -84 -92 4 66 -26 65 0
1 -9 -55 59 -41 36 22 3 0
1 -9 55 16 -50 79 5 82 -47 33 24 -86 0
1 -9 -55 59 41 -27 24 52 0
-1 28 -4 60 -20 40 -54 -38 -36 0
1 -9 55 16 -50 79 5 82 -47 -33 25 0
1 9 29 -84 92 -87 -38 18 -17 -61 51 0
1 -9 55 16 50 -81 53 -41 0
1 9 29 84 25 43 -21 7 -76 -64 22 0
-1 -28 -77 54 49 42 -53 6 0
-1 28 -4 60 20 72 26 -71 82 -41 -83 59 0
1 9 29 84 25 -43 63 79 -20 -94 87 -72 0
1 -9 55 16 50 81 -48 25 -92 52 0
-1 28 -4 60 -20 -40 -42 -89 0
1 9 29 84 -25 -85 71 -69 0
1 9 29 84 25 43 -21 7 76 70 71 0
1 -9 55 -16 26 -85 -20 0
1 9 29 -84 92 87 66 41 0
-1 -28 -77 54 -49 -92 18 -50 -23 -91 0
-1 -28 77 -31 93 -19 83 0
1 -9 55 16 -50 -79 -22 -33 -45 37 0
1 9 -29 -54 -21 83 20 -75 85 34 -70 0
1 -9 55 16 -50 -79 -22 33 81 0
-1 28 -4 60 20 72 26 -71 -82 44 2 -95 -47 0
1 9 29 -84 92 87 -66 68 -11 -15 62 0
1 9 -29 -54 -21 83 -20 65 -45 18 42 0
-1 28 4 -72 68 30 0
-1 28 -4 60 20 72 26 -71 -82 44 2 -95 47 0
-1 -28 -77 54 -49 92 9 0
1 9 -29 -54 21 -12 -2 -49 0
1 9 29 84 25 -43 63 79 -20 94 0
1 -9 55 16 -50 -79 22 0
1 -9 55 16 50 81 -48 25 92 0
-1 -28 -77 54 -49 -92 18 50 -69 0
1 9 29 -84 -92 -4 26 -43 -45 -54 0
1 9 29 84 25 43 -21 7 76 -70 -26 -62 -31 -42 -14 16 0
1 9 29 84 25 43 -21 -7 -90 -54 0
1 9 -29 54 -42 3 48 0
1 9 29 -84 -92 -4 -26 0
1 9 -29 54 42 -64 -23 -65 0
-1 -28 -77 -54 -63 0
-1 28 -4 -60 -53 79 -24 0
-1 28 -4 -60 53 -76 68 78 -10 79 0
1 -9 55 -16 -26 -8 10 72 37 0
1 9 29 84 25 43 -21 7 -76 64 -32 -5 -87 -41 0
1 9 -29 54 -42 3 -48 -85 0
1 9 -29 54 42 -64 -23 65 0
1 9 29 -84 -92 -4 26 -43 45 81 64 0
1 -9 55 -16 26 85 0
1 9 29 84 25 43 -21 7 76 -70 -26 -62 -31 -42 -14 -16 0
1 -9 -55 59 -41 36 -22 0
1 9 -29 -54 21 12 37 -83 27 0
1 9 -29 -54 -21 83 -20 -65 -72 -68 16 0
-1 28 -4 60 -20 40 -54 38 -5 22 0
1 9 29 84 25 -43 -63 3 66 72 0
1 9 29 84 25 43 -21 7 -76 -64 -22 -36 -83 0
1 9 -29 -54 -21 83 20 75 4 64 0
1 9 29 -84 -92 -4 26 43 14 73 0
1 9 29 -84 92 -87 -38 -18 55 67 88 0
1 9 29 84 25 -43 -63 3 66 -72 0
-1 28 4 -72 -68 86 0
1 9 -29 54 -42 -3 -28 -19 -8 0
1 9 -29 -54 -21 83 -20 -65 -72 -68 -16 0
1 9 29 -84 -92 4 66 26 60 0
1 9 29 -84 92 -87 38 -50 -17 0
1 9 -29 -54 -21 83 20 75 -4 -57 0
1 9 -29 -54 -21 83 -20 65 -45 -18 -2 0
1 -9 55 16 -50 79 5 -82 0
1 9 29 -84 92 -87 38 -50 17 45 -69 -46 0
1 9 29 84 25 43 -21 7 76 -70 26 0
1 9 -29 -54 -21 -83 -66 22 -12 0
1 9 29 -84 -92 4 -66 64 0
1 9 -29 -54 -21 -83 -66 22 12 44 72 -32 0
1 9 29 -84 92 -87 -38 -18 55 67 -88 0
-1 28 -4 60 20 72 26 -71 82 -41 83 0
1 9 29 -84 92 -87 38 50 -18 39 0
1 9 -29 -54 -21 -83 -66 -22 -3 -85 -11 0
1 -9 55 16 50 81 48 47 -82 62 -6 0
-1 28 4 72 62 52 0
1 9 29 84 25 -43 63 -79 -17 -47 -22 0
1 9 29 84 25 43 -21 7 -76 -64 -22 36 0
-1 28 -4 -60 -53 -79 3 0
1 -9 -55 59 -41 -36 85 20 0
1 9 -29 -54 -21 83 -20 65 -45 -18 2 0
1 9 -29 -54 -21 -83 66 -27 0
1 -9 -55 -59 -50 93 -22 0
1 -9 55 16 -50 79 5 82 -47 33 24 86 0
-1 -28 -77 -54 63 72 0
-1 28 -4 60 20 72 26 -71 -82 -44 40 0
1 9 -29 -54 21 -12 2 92 -48 61 0
-1 28 -4 -60 53 76 -24 0
1 9 -29 -54 -21 -83 -66 22 12 -44 41 -89 0
1 -9 -55 59 41 -27 -24 7 11 0
-1 28 -4 60 20 72 26 -71 82 41 0
1 -9 55 16 50 81 -48 -25 95 -38 0
1 9 29 84 25 43 -21 7 76 70 -71 0
-1 28 4 -72 68 -30 52 0
-1 28 -4 60 -20 40 -54 38 5 57 0
1 9 -29 -54 -21 83 20 -75 85 34 70 -77 0
1 -9 55 16 50 -81 53 41 0
1 9 -29 54 -42 -3 -28 19 -65 -38 0
1 9 29 84 25 -43 63 -79 17 0
1 9 29 -84 92 -87 38 50 -18 -39 55 0
1 9 29 -84 -92 4 66 26 -60 20 0
-1 28 -4 60 -20 40 -54 -38 36 -64 0
1 9 29 84 25 -43 63 79 -20 -94 -87 -16 -12 -93 0
1 -9 55 16 50 81 48 47 82 68 -63 -85 0
1 -9 -55 59 41 27 -23 0
1 9 29 -84 92 -87 -38 18 17 0
1 -9 -55 59 -41 -36 -85 -79 -23 0
1 -9 -55 59 -41 -36 85 -20 -43 0
1 9 29 84 -25 -85 71 69 -81 -67 0
1 9 29 84 25 43 -21 7 -76 64 -32 -5 -87 41 -22 0
1 9 29 -84 -92 -4 26 43 14 -73 0
-1 28 -4 60 20 72 26 71 45 75 0
1 -9 -55 59 -41 -36 -85 79 0
1 9 29 -84 92 87 -66 -68 53 93 -14 0
-1 28 -4 60 20 -72 -14 -27 0
1 9 29 84 -25 85 -50 -31 -48 45 0
1 -9 55 16 50 81 48 47 -82 -62 0
1 9 29 -84 92 -87 38 -50 17 45 -69 46 0
1 9 29 -84 92 -87 38 50 18 0
-1 -28 77 -31 -93 65 61 -86 64 -92 0
1 9 29 84 25 -43 63 79 -20 -94 -87 -16 12 0
1 9 29 -84 92 87 -66 -68 53 -93 -47 0
1 9 -29 54 42 -64 23 0
1 9 29 84 25 43 -21 7 76 -70 -26 62 -59 0
1 9 29 -84 92 87 -66 -68 53 -93 47 0
-1 -28 -77 54 49 42 53 0
1 9 -29 -54 21 -12 2 92 -48 -61 80 0
-1 28 4 -72 -68 -86 -2 70 0
1 -9 -55 59 41 -27 -24 -7 0
1 9 -29 54 -42 -3 -28 19 65 0
1 9 29 -84 -92 -4 26 -43 45 -81 -55 0
-1 28 -4 60 20 72 26 -71 -82 44 -2 0
-1 28 -4 60 -20 40 -54 38 -5 -22 0
1 -9 55 16 50 81 -48 25 -92 -52 0
1 9 -29 54 42 64 -7 -36 -35 -46 0
-1 28 -4 60 -20 40 54 0
1 9 29 84 25 -43 63 79 20 -76 0
1 9 29 -84 92 -87 -38 -18 -55 0
1 -9 -55 59 -41 36 22 -3 0
-1 28 -4 60 20 72 -26 -50 12 0
1 -9 55 16 50 -81 -53 -24 0
1 -9 55 16 50 81 48 47 82 -68 0
-1 -28 77 -31 -93 65 61 86 -58 -25 0
1 9 -29 -54 -21 -83 -66 22 12 44 72 32 0
1 -9 55 16 -50 79 -5 75 -91 0
-1 -28 -77 54 -49 -92 -18 79 25 0
1 -9 -55 -59 50 -24 16 0
-1 28 4 -72 -68 -86 -2 -70 0
-1 28 -4 60 20 72 26 -71 82 -41 -83 -59 0
1 -9 -55 59 41 27 23 92 24 0
-1 -28 77 -31 -93 65 61 -86 -64 14 0
1 9 29 84 25 43 -21 7 76 -70 -26 -62 -31 42 0
-1 -28 77 -31 -93 65 61 86 58 33 0
1 9 29 -84 92 -87 -38 -18 55 -67 21 0
1 9 29 -84 92 87 -66 -68 -53 40 0
1 -9 55 16 50 81 48 -47 -31 -39 0
-1 -28 -77 54 -49 -92 -18 79 -25 0
1 9 -29 54 -42 3 -48 85 52 0
1 9 -29 -54 21 -12 2 92 48 20 -81 0
1 9 29 -84 92 87 66 -41 0
1 -9 -55 -59 -50 -93 46 0
1 9 29 84 25 -43 63 79 -20 -94 -87 -16 -12 93 0
-1 28 -4 60 20 -72 14 0
1 -9 -55 59 41 27 23 -92 57 -30 0
1 9 29 84 25 -43 63 -79 -17 47 0
1 9 29 84 25 43 -21 7 -76 -64 -22 -36 83 0
-1 28 -4 60 20 72 26 -71 -82 -44 -40 0
1 -9 -55 59 41 27 23 92 -24 -90 -76 0
1 9 29 84 25 -43 63 79 -20 -94 -87 16 -69 0
1 9 -29 -54 -21 83 -20 -65 72 27 0
-1 -28 -77 54 -49 -92 18 50 69 0
1 9 29 84 25 43 21 -55 0
1 9 29 84 -25 85 -50 -31 48 0
1 9 -29 54 -42 -3 28 47 0
1 -9 -55 59 41 27 23 -92 -57 0
-1 -28 77 -31 -93 65 61 -86 -64 -14 0
1 9 29 84 25 -43 63 79 -20 -94 87 72 66 0
-1 28 -4 60 20 72 26 71 -45 0
1 9 29 84 25 43 -21 -7 -90 54 -13 0
1 9 -29 -54 -21 -83 66 27 0
-1 28 -4 60 20 72 -26 -50 -12 0
1 -9 -55 59 -41 -36 -85 -79 23 0
1 9 -29 54 42 64 -7 36 0
-1 -28 77 -31 -93 65 -61 -41 0
1 -9 55 -16 -26 -8 10 -72 0
1 9 -29 -54 -21 -83 -66 -22 -3 -85 11 0
-1 -28 77 31 63 0
1 9 29 -84 92 -87 -38 -18 55 -67 -21 0
-1 -28 -77 54 49 42 -53 -6 0
1 9 29 -84 92 -87 -38 18 -17 61 19 0
1 9 29 84 25 43 -21 -7 90 5 0
1 9 -29 -54 21 12 37 83 0
-1 -28 77 31 -63 0
-1 28 4 72 62 -52 0
1 -9 55 16 -50 79 -5 75 91 0
1 9 -29 54 42 64 -7 -36 -35 46 0
1 9 -29 -54 21 -12 2 92 -48 -61 -80 0
1 9 29 -84 92 87 -66 68 -11 -15 -62 0
-1 28 -4 60 -20 40 -54 -38 36 64 7 0
1 9 29 -84 -92 -4 26 -43 -45 54 70 0
1 9 -29 -54 21 -12 -2 49 80 0
1 9 29 -84 -92 -4 26 -43 45 81 -64 0
1 9 -29 -54 -21 -83 -66 -22 -3 85 0
1 9 29 -84 92 -87 38 -50 17 45 69 0
1 -9 55 16 50 -81 -53 24 -95 0
1 9 -29 54 42 64 7 0
1 -9 -55 -59 -50 93 22 0
1 9 29 -84 92 87 -66 -68 53 93 14 -16 0
-1 28 -4 60 -20 40 -54 38 5 -57 55 0
1 9 -29 -54 21 12 -37 3 0
1 -9 -55 59 41 -27 24 -52 -53 0
-1 28 -4 60 -20 40 -54 -38 36 64 -7 0
-1 28 -4 -60 53 -76 -68 0
1 9 -29 54 -42 -3 -28 -19 8 0
-1 28 -4 60 -20 40 -54 38 5 -57 -55 77 0
-1 28 4 -72 68 -30 -52 0
1 -9 55 16 50 81 48 47 -82 62 6 0
1 -9 -55 -59 50 -24 -16 -47 0
-1 28 -4 -60 53 -76 68 78 10 0
-1 28 4 72 -62 0
1 9 -29 -54 -21 83 20 75 4 -64 0
1 9 29 84 -25 -85 71 69 -81 67 44 0
-1 28 -4 -60 -53 -79 -3 0
1 -9 -55 -59 50 -24 -16 47 0
1 9 29 84 25 43 -21 -7 90 -5 0
-1 -28 -77 54 -49 -92 -18 -79 0
1 9 29 -84 -92 -4 26 -43 -45 54 -70 0
-1 -28 -77 54 49 -42 0
1 -9 55 16 -50 79 5 82 47 0
1 -9 55 -16 -26 8 0
1 9 29 84 -25 -85 -71 0
1 9 29 84 25 43 -21 7 -76 64 32 0
1 -9 -55 59 41 27 23 -92 57 30 -53 0
-1 28 -4 60 20 -72 -14 27 0
1 9 29 84 -25 85 -50 31 0
1 9 -29 54 42 64 -7 -36 35 0
-1 28 -4 60 -20 -40 42 -14 0
-1 -28 77 -31 -93 65 61 86 58 -33 0
1 9 29 84 25 43 -21 7 76 -70 -26 -62 31 0
1 -9 55 16 50 81 48 -47 -31 39 0
1 -9 55 16 50 81 48 47 82 68 -63 85 0
1 -9 55 16 50 81 48 47 82 68 63 72 0
1 9 29 -84 -92 4 -66 -64 0
1 9 29 84 25 43 21 55 0
1 9 29 84 -25 85 -50 -31 -48 -45 0
1 -9 55 16 50 81 48 47 82 68 63 -72 0
-1 -28 77 -31 -93 -65 0
-1 28 -4 -60 53 76 24 0
1 9 -29 -54 -21 83 20 -75 85 34 70 77 -40 -25 0
-1 -28 77 -31 93 -19 -83 0
-1 28 -4 60 20 72 26 -71 -82 44 2 95 0
1 9 -29 -54 -21 83 20 75 -4 57 0
1 9 29 84 -25 -85 71 69 81 0
1 -9 55 16 -50 79 5 82 -47 -33 -25 0
-1 -28 77 -31 -93 65 61 -86 64 92 0
1 9 -29 -54 21 -12 2 -92 0
-1 -28 77 -31 -93 65 61 86 -58 25 0
1 9 -29 -54 -21 -83 -66 22 12 -44 41 89 0
1 9 29 -84 92 87 -66 -68 -53 -40 0
1 9 29 84 25 43 -21 7 -76 64 -32 -5 -87 41 22 0
1 9 29 -84 92 -87 -38 18 -17 61 -19 0
-1 28 -4 60 -20 40 -54 38 5 -57 -55 -77 0
1 -9 55 16 -50 -79 -22 33 -81 0
-1 -28 -77 54 -49 92 -9 0
1 -9 -55 59 41 27 23 92 -24 90 0
1 9 -29 -54 21 12 -37 -3 0
-1 -28 -77 54 -49 -92 18 -50 23 82 0
