c NeuroCodeBench 2.0 CNF formula with verdict Unsat
p cnf 72 383
1 46 24 -8 -41 62 7 57 25 0
-1 15 46 -54 -23 18 11 -12 0
1 -46 67 14 -48 -31 -35 38 13 0
1 -46 67 14 -48 31 -25 -53 0
1 -46 -67 37 28 -17 -21 -39 -5 51 -38 0
-1 15 46 54 -33 -50 -36 -37 5 19 27 0
-1 -15 14 41 68 8 3 -57 -23 62 0
1 46 24 8 33 68 44 0
1 -46 -67 -37 -15 -52 40 -32 26 -25 0
1 -46 67 14 -48 -31 35 0
1 46 -24 -11 -43 66 34 35 -20 -2 0
-1 -15 14 -41 45 25 10 -51 68 -62 0
-1 15 46 54 -33 50 -58 37 0
1 46 -24 -11 43 26 50 6 67 -39 0
1 46 -24 -11 43 -26 14 13 -72 40 0
-1 15 -46 2 27 68 -58 -26 0
-1 15 46 -54 23 38 -12 -22 71 0
-1 -15 14 -41 -45 -2 38 46 4 35 60 0
-1 -15 -14 -18 -34 -25 0
-1 -15 14 -41 -45 -2 38 46 4 -35 51 62 0
1 46 24 8 -33 -9 2 70 -59 -57 -5 0
-1 -15 14 -41 -45 -2 38 -46 -66 0
1 46 24 8 -33 -9 -2 -34 -35 12 -31 0
1 -46 -67 -37 -15 52 -59 -22 18 0
-1 15 46 54 -33 -50 36 -28 53 0
1 46 -24 -11 43 -26 -14 -55 0
1 -46 -67 -37 15 -71 48 -59 56 0
-1 -15 14 -41 -45 2 13 -8 7 46 0
-1 -15 14 41 -68 -34 57 0
1 46 -24 -11 -43 66 -34 0
1 46 -24 11 58 37 22 -2 -7 -64 0
1 -46 -67 -37 15 71 -69 0
-1 -15 14 -41 -45 2 -13 39 -49 -22 0
1 46 24 -8 41 -54 -10 49 72 16 38 0
-1 -15 -14 18 20 0
1 -46 67 -14 -32 -69 -47 33 0
-1 -15 -14 18 -20 32 -48 0
1 -46 67 -14 -32 -69 47 -63 -66 0
1 46 24 8 -33 9 4 -26 72 23 7 64 0
1 -46 -67 -37 -15 -52 -40 -57 51 -31 0
1 46 24 -8 41 -54 10 -4 36 -61 0
1 46 24 8 -33 -9 2 -70 -51 -4 -63 -52 -62 0
-1 15 -46 -2 -32 -51 -39 0
1 -46 67 -14 -32 69 -49 -10 -34 0
-1 -15 -14 -18 -34 25 -53 24 -35 0
1 46 24 8 -33 9 4 26 -54 -25 0
-1 15 46 -54 23 38 -12 22 0
1 46 24 -8 -41 62 7 57 -25 -35 55 30 0
1 46 24 -8 41 -54 10 4 0
-1 -15 -14 -18 34 0
1 -46 -67 37 28 -17 -21 -39 5 -35 -7 52 0
1 46 24 8 33 -68 -19 23 -34 -31 0
1 46 24 -8 41 54 -57 0
1 -46 -67 -37 -15 52 59 0
-1 -15 14 -41 45 -25 -26 0
1 46 24 -8 -41 62 -7 -19 18 0
1 46 24 -8 41 -54 10 -4 -36 -23 32 0
-1 15 -46 2 -27 67 51 70 -17 0
1 -46 67 -14 -32 69 -49 10 -52 0
1 46 24 8 -33 -9 2 -70 51 -54 43 0
1 46 24 -8 41 -54 -10 -49 -17 -22 0
-1 15 -46 2 27 -68 0
-1 15 46 54 -33 -50 -36 -37 -5 -12 0
1 46 24 8 -33 -9 -2 34 30 27 0
1 46 -24 11 58 37 -22 6 0
-1 -15 14 -41 -45 -2 -38 40 22 67 39 0
1 -46 67 -14 -32 -69 -47 -33 -13 12 0
1 -46 67 -14 -32 -69 47 63 0
1 -46 -67 -37 15 71 69 31 0
1 46 -24 11 -58 -54 52 0
1 46 -24 -11 -43 -66 67 -37 0
-1 15 46 54 -33 -50 -36 37 -35 -4 0
-1 15 -46 2 27 68 -58 26 -71 0
1 46 -24 11 58 37 22 -2 7 -59 0
1 46 24 -8 41 -54 -10 -49 -17 22 31 66 0
1 -46 -67 37 28 -17 -21 -39 -5 -51 0
-1 15 46 54 -33 -50 36 -28 -53 66 21 22 0
1 -46 -67 37 28 -17 -21 -39 5 -35 7 0
-1 -15 14 -41 45 25 10 51 0
-1 15 46 -54 23 38 12 67 0
1 -46 -67 37 -28 15 26 0
-1 15 46 54 -33 -50 36 -28 -53 -66 27 0
1 46 -24 -11 43 -26 14 -13 45 -27 0
1 -46 -67 -37 -15 -52 40 32 -70 -28 -16 6 0
-1 -15 -14 -18 -34 25 -53 24 35 4 0
1 46 24 8 -33 9 -4 -47 -2 0
1 46 -24 11 -58 54 31 26 38 0
1 46 -24 -11 43 26 -50 -25 0
-1 -15 14 -41 -45 -2 38 46 4 -35 -51 0
1 46 24 8 33 -68 -19 23 34 0
-1 15 46 -54 -23 -18 0
-1 -15 14 -41 45 25 10 -51 -68 0
1 46 24 8 -33 -9 2 -70 -51 -4 -63 -52 62 0
1 46 24 8 -33 -9 2 -70 -51 -4 -63 52 0
1 46 -24 -11 43 26 50 6 67 39 0
-1 15 46 54 -33 -50 36 28 21 -8 -25 51 0
1 46 24 -8 -41 62 -7 -19 -18 -53 61 17 0
1 46 -24 11 58 37 22 2 42 25 0
1 46 -24 -11 43 -26 14 -13 -45 -61 -68 0
1 46 24 8 -33 9 -4 -47 2 0
1 46 24 -8 41 -54 -10 -49 -17 22 -31 0
-1 -15 14 41 68 8 -3 45 0
1 -46 -67 37 -28 -15 -49 54 0
-1 15 46 54 -33 -50 -36 37 -35 4 0
1 46 24 8 33 -68 19 -2 0
1 -46 -67 37 -28 -15 49 -63 70 0
1 -46 67 -14 -32 -69 -47 -33 -13 -12 0
1 -46 -67 37 -28 -15 -49 -54 24 -6 -55 0
1 46 -24 11 -58 54 -31 41 -53 0
1 -46 67 14 48 -38 -56 -70 -7 -40 0
1 46 24 8 -33 -9 2 -70 -51 4 -15 0
1 46 -24 11 58 -37 28 35 -65 0
1 46 -24 -11 43 -26 14 13 -72 -40 0
1 46 -24 -11 -43 66 34 35 20 -3 -32 0
1 -46 -67 37 28 -17 -21 39 -10 -34 0
1 46 -24 -11 -43 -66 -67 21 -19 0
1 -46 -67 -37 15 -71 48 -59 -56 9 62 0
1 -46 67 -14 -32 -69 -47 -33 13 0
1 -46 -67 -37 -15 -52 40 -32 26 25 0
1 46 -24 -11 -43 66 34 -35 0
-1 15 46 54 -33 -50 36 28 21 8 -6 -67 0
1 46 24 8 -33 -9 2 70 -59 57 -64 0
1 46 -24 11 58 -37 28 35 65 0
-1 15 -46 -2 -32 -51 39 0
1 46 24 8 33 -68 19 2 3 0
1 46 -24 -11 43 -26 -14 55 42 -20 0
1 46 -24 -11 -43 -66 -67 21 19 -53 -25 0
1 46 -24 11 -58 54 -31 -41 0
1 -46 67 14 48 -38 -56 -70 -7 40 -55 0
-1 15 46 54 -33 50 -58 -37 60 0
-1 -15 14 41 -68 34 -39 19 -26 0
-1 -15 14 41 68 8 3 -57 23 0
-1 -15 14 -41 45 25 -10 -64 -9 -46 0
1 46 -24 -11 -43 -66 -67 -21 15 0
-1 15 46 54 -33 -50 36 28 21 -8 -25 -51 4 0
1 -46 -67 -37 -15 -52 40 32 -70 -28 16 0
1 -46 -67 37 -28 -15 49 63 29 0
-1 -15 14 -41 45 25 -10 64 48 0
-1 15 -46 -2 -32 51 63 0
1 46 24 8 -33 9 4 26 54 25 -6 0
-1 15 -46 -2 32 22 0
1 -46 -67 37 28 -17 21 24 -6 0
1 46 -24 -11 -43 66 34 35 -20 2 0
1 46 24 8 33 68 -44 62 0
1 46 24 -8 41 -54 -10 49 72 16 -38 0
-1 15 -46 -2 -32 51 -63 0
1 46 -24 -11 -43 66 34 35 20 -3 32 -28 54 0
-1 15 46 54 -33 -50 36 28 21 8 -6 67 0
-1 15 46 54 33 -19 26 0
-1 15 46 54 -33 -50 -36 -37 5 -19 0
1 46 24 8 -33 9 4 26 -54 25 0
1 -46 67 -14 -32 69 -49 -10 34 0
1 46 24 -8 -41 -62 -31 -56 22 0
1 -46 -67 37 -28 15 -26 0
1 -46 -67 -37 15 -71 48 -59 -56 9 -62 -53 0
-1 -15 14 -41 -45 2 13 8 0
-1 15 46 -54 -23 18 -11 -9 -13 0
-1 -15 -14 18 -20 -32 0
-1 15 46 54 -33 -50 36 28 -21 -55 0
1 -46 67 -14 32 2 -15 50 52 0
1 -46 67 -14 32 2 -15 -50 41 0
1 46 24 -8 -41 62 7 -57 -56 0
-1 15 -46 2 -27 67 51 70 17 50 19 0
1 46 24 8 -33 -9 2 70 59 -72 -56 -25 -64 0
1 -46 -67 -37 15 71 69 -31 0
1 -46 67 -14 -32 69 49 40 0
1 46 24 8 -33 -9 -2 -34 35 17 0
1 -46 67 14 -48 31 -25 53 0
1 46 24 -8 -41 62 7 -57 56 0
1 -46 -67 37 -28 -15 -49 -54 24 -6 55 0
1 -46 67 -14 32 2 15 33 0
-1 15 46 54 -33 -50 -36 -37 -5 12 63 0
-1 15 46 54 -33 -50 36 -28 -53 66 21 -22 0
-1 -15 14 -41 -45 2 -13 39 -49 22 0
1 -46 -67 -37 -15 -52 -40 57 0
1 -46 67 -14 32 2 15 -33 52 0
-1 -15 14 -41 45 25 10 -51 68 62 0
-1 15 46 54 -33 -50 -36 -37 -5 12 -63 0
1 46 -24 -11 43 26 50 6 -67 0
1 -46 67 14 48 -38 -56 -70 7 0
1 46 24 8 -33 -9 -2 34 -30 0
1 46 24 8 -33 9 4 -26 72 23 -7 47 0
1 -46 67 -14 -32 69 49 -40 22 -71 0
1 -46 -67 37 28 -17 -21 -39 5 -35 -7 -52 0
1 46 -24 -11 43 26 -50 25 0
-1 -15 14 41 -68 -34 -57 0
1 46 24 8 -33 9 4 -26 72 -23 -28 0
-1 15 46 -54 23 -38 48 56 70 0
1 -46 -67 -37 -15 -52 40 32 70 0
-1 -15 14 -41 45 25 -10 -64 -9 46 0
-1 -15 14 41 -68 34 -39 19 26 45 0
-1 15 -46 2 -27 -67 5 37 0
1 46 -24 11 -58 54 31 26 -38 0
1 -46 -67 37 28 -17 -21 -39 5 35 0
1 46 -24 -11 43 -26 14 13 72 -47 0
1 -46 67 -14 32 -2 -64 -49 0
1 46 24 8 -33 -9 2 -70 51 -54 -43 0
-1 -15 14 -41 -45 -2 -38 -40 0
-1 -15 14 -41 45 25 -10 64 -48 23 0
-1 15 -46 2 -27 67 51 70 17 -50 0
1 46 -24 -11 43 -26 14 -13 45 27 0
1 -46 -67 -37 15 -71 48 -59 -56 9 -62 53 0
1 46 -24 -11 43 -26 14 13 72 47 0
1 46 24 8 -33 -9 2 -70 -51 -4 63 0
-1 15 46 -54 -23 18 -11 9 -48 55 5 0
1 -46 -67 37 28 -17 21 -24 0
1 46 -24 11 -58 -54 -52 0
-1 15 46 -54 23 38 -12 -22 -71 0
-1 -15 14 41 68 -8 -48 -34 0
1 46 -24 11 58 37 22 -2 -7 64 0
1 -46 -67 37 28 -17 -21 39 10 0
-1 15 46 54 33 -19 -26 0
1 46 24 8 -33 -9 2 -70 51 54 -29 0
1 -46 -67 -37 15 -71 -48 -54 0
-1 15 46 54 -33 -50 -36 37 35 0
-1 -15 14 -41 -45 -2 38 46 4 -35 51 -62 0
1 46 24 8 -33 9 4 -26 72 23 7 -64 0
-1 -15 14 41 68 -8 48 0
1 -46 67 -14 32 -2 -64 49 0
1 46 24 -8 -41 -62 31 0
-1 15 -46 2 -27 67 51 70 17 50 -19 0
1 -46 67 14 -48 -31 -35 38 -13 0
1 46 24 8 -33 -9 2 70 59 72 0
1 46 -24 -11 43 -26 14 -13 -45 61 0
1 -46 -67 37 -28 -15 -49 -54 -24 0
-1 -15 14 -41 -45 -2 38 46 -4 0
1 46 -24 -11 43 -26 -14 55 -42 0
-1 15 46 54 -33 -50 36 28 -21 55 0
-1 -15 14 41 68 8 -3 -45 0
-1 -15 14 -41 45 25 -10 64 -48 -23 0
-1 15 46 -54 23 -38 -48 0
-1 -15 -14 18 -20 32 48 0
1 46 24 8 -33 -9 2 70 59 -72 -56 25 0
1 -46 67 14 48 38 66 0
-1 15 46 -54 -23 18 -11 9 -48 -55 0
1 46 -24 -11 -43 -66 -67 21 19 -53 25 0
1 -46 67 -14 -32 -69 47 -63 66 0
1 46 24 8 -33 -9 2 70 59 -72 56 -58 0
1 46 -24 11 58 37 22 2 -42 0
1 -46 -67 -37 -15 -52 -40 -57 -51 0
-1 15 -46 -2 32 -22 0
1 -46 67 -14 -32 69 49 -40 -22 0
1 -46 -67 -37 15 -71 48 59 70 33 0
1 46 24 -8 41 -54 -10 -49 17 60 -65 0
1 46 -24 -11 -43 -66 -67 21 19 53 56 0
1 46 -24 -11 -43 66 34 35 20 3 0
1 46 24 -8 41 -54 -10 -49 -17 22 31 -66 0
1 -46 -67 37 -28 -15 49 -63 -70 0
-1 -15 14 41 -68 34 -39 -19 0
1 46 -24 -11 -43 -66 67 37 21 0
-1 -15 14 -41 -45 -2 38 -46 66 -23 0
1 46 24 -8 41 -54 10 -4 36 61 3 0
-1 15 -46 2 27 68 -58 26 71 0
1 46 24 -8 41 -54 10 -4 -36 23 0
-1 15 46 54 -33 -50 -36 -37 5 19 -27 0
1 46 24 -8 41 -54 -10 49 -72 -58 0
-1 15 -46 2 -27 -67 5 -37 0
1 46 24 -8 -41 -62 -31 -56 -22 0
1 46 24 -8 41 -54 -10 -49 17 60 65 0
1 -46 67 14 48 -38 -56 70 12 0
1 46 24 -8 41 54 57 0
1 46 24 -8 -41 62 -7 -19 -18 -53 -61 22 0
-1 -15 -14 -18 -34 25 53 0
-1 15 -46 2 -27 -67 -5 0
1 46 24 8 -33 9 4 -26 72 -23 28 0
1 -46 -67 37 28 -17 -21 -39 -5 51 38 0
1 46 24 8 -33 -9 2 70 59 -72 56 58 0
1 46 -24 -11 43 -26 -14 55 42 20 0
-1 15 -46 2 -27 67 -51 0
1 46 -24 11 58 -37 -28 0
1 46 -24 11 -58 54 31 -26 0
1 46 24 8 -33 9 4 26 54 25 6 72 0
1 46 24 8 -33 9 -4 47 0
1 -46 -67 -37 15 -71 -48 54 28 0
1 46 -24 11 58 37 -22 -6 0
1 46 -24 11 58 -37 28 -35 0
1 -46 -67 -37 -15 52 -59 -22 -18 0
1 46 -24 -11 -43 66 34 35 20 -3 32 -28 -54 0
1 46 24 8 -33 9 4 26 54 25 6 -72 0
-1 -15 14 -41 -45 -2 -38 40 -22 0
1 46 24 -8 -41 62 7 57 -25 35 -37 0
1 -46 67 14 48 -38 56 0
1 46 24 -8 41 -54 -10 49 72 -16 68 0
1 46 24 -8 41 -54 -10 49 -72 58 0
1 46 24 8 -33 -9 2 -70 -51 4 15 0
1 46 -24 11 -58 54 -31 41 53 0
1 -46 -67 -37 -15 -52 40 -32 -26 0
-1 -15 14 41 -68 34 39 0
1 -46 67 14 48 38 -66 0
1 -46 -67 -37 -15 -52 40 32 -70 28 0
1 46 24 8 33 -68 19 2 -3 0
-1 -15 14 -41 -45 2 -13 39 49 0
1 -46 67 -14 -32 69 -49 10 52 0
1 46 -24 -11 -43 -66 67 37 -21 0
1 46 24 -8 -41 62 -7 -19 -18 -53 61 -17 0
1 -46 -67 37 -28 -15 -49 -54 24 6 -65 0
1 -46 -67 -37 -15 -52 40 32 -70 -28 -16 -6 0
1 46 24 8 -33 -9 -2 -34 -35 12 31 0
1 -46 -67 -37 -15 52 -59 22 0
1 46 -24 11 58 37 22 -2 7 59 0
1 46 24 -8 41 -54 10 -4 36 61 -3 0
1 46 24 -8 -41 62 -7 19 0
-1 15 -46 2 27 68 58 0
1 -46 67 14 48 -38 -56 70 -12 0
1 -46 -67 37 -28 -15 -49 -54 24 6 65 0
1 46 24 8 -33 9 4 26 54 -25 0
1 -46 67 -14 32 -2 64 0
1 -46 67 -14 32 2 -15 50 -52 0
-1 15 -46 2 -27 67 51 -70 0
1 46 24 8 -33 9 4 -26 72 23 -7 -47 0
1 -46 -67 37 28 -17 21 24 6 0
1 -46 -67 -37 -15 -52 -40 -57 51 31 0
-1 -15 -14 -18 -34 25 -53 24 35 -4 0
1 46 24 8 -33 -9 2 70 -59 57 64 0
1 46 24 8 -33 -9 -2 34 30 -27 0
1 46 24 8 -33 -9 -2 -34 -35 -12 0
-1 15 46 -54 23 38 12 -67 0
1 46 24 -8 41 -54 -10 49 72 -16 -68 0
-1 15 46 -54 -23 18 -11 -9 13 19 0
1 -46 67 14 48 -38 -56 -70 -7 40 55 0
1 46 24 -8 41 -54 -10 -49 17 -60 0
-1 15 46 -54 -23 18 -11 9 48 0
1 46 -24 -11 43 -26 14 -13 -45 -61 68 0
-1 15 46 54 -33 -50 36 28 21 8 6 0
1 46 24 8 33 -68 -19 -23 0
-1 -15 14 -41 45 25 -10 -64 9 0
1 -46 -67 -37 15 -71 -48 54 -28 0
1 -46 67 -14 32 2 -15 -50 -41 0
-1 -15 14 -41 -45 2 13 -8 -7 0
-1 -15 14 41 68 8 3 -57 -23 -62 0
1 -46 67 -14 32 2 15 -33 -52 0
-1 -15 14 41 68 -8 -48 34 0
1 -46 -67 -37 15 -71 48 59 -70 -49 0
1 46 24 8 33 -68 -19 23 -34 31 0
-1 15 46 54 -33 50 58 0
-1 15 46 -54 -23 18 11 12 0
-1 -15 14 41 -68 34 -39 19 26 -45 0
1 -46 -67 -37 15 -71 48 59 70 -33 0
-1 -15 14 -41 -45 2 13 -8 7 -46 0
-1 15 46 54 -33 -50 36 -28 -53 -66 -27 0
1 -46 -67 37 28 17 0
1 46 -24 -11 -43 66 34 35 20 -3 32 28 0
-1 15 46 -54 23 -38 48 56 -70 0
-1 15 46 54 33 19 0
1 46 24 8 -33 9 4 -26 -72 0
-1 -15 -14 -18 -34 25 -53 -24 0
1 46 24 -8 41 -54 10 -4 -36 -23 -32 0
1 46 24 -8 -41 62 7 57 -25 35 37 0
1 46 -24 -11 -43 -66 -67 -21 -15 0
-1 -15 14 -41 -45 -2 38 -46 66 23 0
1 -46 -67 37 28 -17 -21 39 -10 34 0
1 46 24 -8 -41 62 -7 -19 -18 53 0
1 46 24 8 33 68 -44 -62 0
-1 15 46 54 -33 -50 36 28 21 -8 25 0
1 46 24 -8 -41 62 7 57 -25 -35 55 -30 0
-1 -15 14 41 68 8 3 57 0
1 -46 -67 -37 15 -71 48 59 -70 49 0
-1 15 46 54 -33 50 -58 -37 -60 0
-1 -15 14 -41 -45 -2 -38 40 22 -67 0
-1 -15 14 -41 -45 -2 38 46 4 35 -60 0
1 -46 -67 -37 15 -71 48 -59 -56 -9 0
1 46 -24 -11 43 26 50 -6 0
1 46 24 -8 -41 -62 -31 56 0
1 46 24 8 -33 -9 2 70 59 -72 -56 -25 64 0
1 -46 67 14 -48 -31 -35 -38 0
-1 15 46 54 -33 -50 36 -28 -53 66 -21 0
1 46 24 8 -33 -9 2 -70 51 54 29 0
1 46 -24 -11 -43 -66 -67 21 19 53 -56 0
-1 -15 14 -41 -45 -2 -38 40 22 67 -39 0
-1 -15 14 -41 45 -25 26 0
-1 15 46 -54 -23 18 -11 9 -48 55 -5 0
1 46 24 8 -33 -9 -2 -34 35 -17 0
1 46 24 -8 -41 62 -7 -19 -18 -53 -61 -22 0
-1 15 46 54 -33 -50 36 28 21 -8 -25 -51 -4 0
1 46 24 8 -33 -9 2 70 -59 -57 5 0
1 46 24 -8 -41 62 7 57 -25 -35 -55 0
-1 15 46 -54 23 -38 48 -56 0
1 -46 67 14 -48 31 25 0
1 46 -24 11 58 37 22 2 42 -25 0
1 -46 67 -14 -32 69 49 -40 22 71 0
-1 -15 14 -41 -45 2 -13 -39 0
-1 15 46 -54 -23 18 -11 -9 13 -19 0
1 -46 -67 37 -28 -15 49 63 -29 0
