c NeuroCodeBench 2.0 CNF formula with verdict Unsat
p cnf 16 54
-1 -6 -5 -4 -16 -8 -12 0
-1 6 10 -14 -4 0
-1 6 -10 3 15 4 -5 0
-1 6 -10 3 15 -4 11 12 -7 0
-1 -6 5 -16 -2 13 0
1 -16 8 11 0
1 -16 8 -11 -12 13 0
-1 -6 -5 4 10 9 0
-1 -6 -5 -4 -16 -8 12 0
1 16 -7 -15 0
-1 -6 -5 -4 16 8 0
1 -16 8 -11 12 4 0
1 -16 8 -11 -12 -13 -4 0
-1 -6 5 16 15 -14 0
-1 6 -10 3 15 -4 11 -12 -5 0
-1 6 -10 3 -15 0
-1 -6 5 -16 -2 -13 -4 -9 0
1 16 -7 15 0
-1 6 -10 3 15 4 5 8 2 -7 0
-1 -6 -5 4 -10 -13 0
1 -16 -8 2 3 -7 -12 0
-1 -6 5 -16 -2 -13 -4 9 0
-1 6 10 -14 4 0
-1 6 -10 3 15 4 5 -8 0
-1 6 -10 -3 8 0
-1 -6 -5 -4 16 -8 0
1 -16 -8 -2 -12 -10 0
-1 -6 5 -16 2 -9 0
-1 6 10 14 5 -9 0
1 -16 -8 2 3 -7 12 0
-1 6 -10 3 15 -4 11 12 7 0
-1 6 10 14 5 9 0
-1 6 -10 -3 -8 11 0
-1 -6 5 16 -15 0
1 -16 -8 -2 12 0
-1 -6 5 -16 2 9 0
1 -16 8 -11 -12 -13 4 0
-1 -6 5 -16 -2 -13 4 0
-1 6 -10 3 15 -4 11 -12 5 0
-1 -6 -5 -4 -16 8 0
-1 6 -10 3 15 -4 -11 0
-1 6 -10 3 15 4 5 8 2 7 0
-1 -6 5 16 15 14 0
1 -16 -8 2 3 7 0
1 -16 -8 2 -3 0
-1 6 10 14 -5 0
-1 6 -10 -3 -8 -11 0
-1 -6 -5 4 -10 13 0
1 -16 8 -11 12 -4 0
1 -16 -8 -2 -12 10 0
-1 6 -10 3 15 4 5 8 -2 0
1 16 7 -3 0
1 16 7 3 0
-1 -6 -5 4 10 -9 0
