c NeuroCodeBench 2.0 CNF formula with verdict Unsat
p cnf 99 762
-1 -99 23 -98 24 -47 93 -51 78 96 -3 -58 -38 0
1 -33 20 98 26 72 -47 -51 28 39 23 0
-1 99 75 62 98 55 -8 -34 74 13 -22 0
-1 -99 -23 67 -59 85 -27 86 -42 93 98 0
1 -33 -20 65 66 31 80 8 -49 83 0
1 -33 20 -98 -50 -97 -38 -74 -80 -55 -87 18 0
-1 -99 -23 67 -59 85 -27 86 -42 -93 -4 52 0
1 -33 -20 65 66 31 -80 -52 74 -28 -22 -50 44 0
1 -33 20 -98 -50 -97 -38 -74 -80 55 -67 -77 11 0
1 -33 -20 -65 37 -74 49 27 99 48 0
-1 -99 23 -98 24 -47 93 -51 -78 38 -57 68 0
1 -33 -20 -65 -37 94 -39 -60 -52 -47 0
-1 -99 23 -98 24 -47 -93 -53 80 -18 0
-1 -99 23 -98 24 47 -77 58 11 -62 -46 0
1 33 98 -87 -3 81 27 -28 -49 0
1 -33 20 98 -26 5 -3 -32 -53 -2 -13 0
-1 -99 -23 67 -59 85 27 77 -48 -41 0
1 33 -98 -88 61 40 0
-1 -99 -23 67 -59 85 27 -77 -84 -62 33 0
-1 -99 23 98 81 -40 -90 93 -54 41 2 0
1 33 98 -87 3 -97 74 45 17 0
-1 99 75 -62 -66 -69 17 52 3 -87 31 -47 -23 8 0
-1 99 75 -62 66 29 13 45 16 0
1 -33 -20 -65 -37 -94 13 52 51 0
-1 -99 -23 67 -59 85 27 77 48 0
-1 -99 23 -98 24 47 77 -55 67 -34 80 0
1 -33 -20 65 66 31 80 -8 -21 51 0
1 33 -98 88 48 -39 89 0
1 33 98 87 -26 80 -2 -54 23 -22 21 27 17 0
1 -33 -20 65 66 -31 8 -99 75 41 0
1 -33 20 98 -26 5 3 -99 82 -56 95 0
-1 99 75 -62 -66 -69 17 -52 70 59 -77 87 -27 0
1 -33 -20 -65 -37 -94 13 52 -51 -74 15 -21 0
1 -33 20 -98 -50 -97 38 54 -23 82 16 0
-1 -99 23 -98 24 47 77 -55 67 34 -4 -36 -52 -40 0
-1 -99 -23 67 -59 85 27 -77 84 0
-1 99 75 -62 66 29 -13 94 68 0
-1 -99 -23 -67 -65 -98 -37 15 -19 12 13 0
-1 99 -75 47 -63 71 -32 83 82 -39 0
-1 -99 23 -98 24 47 77 -55 67 34 -4 36 -71 45 0
-1 -99 23 -98 -24 84 -58 19 0
1 33 98 87 -26 80 -2 54 -34 67 -70 0
-1 -99 23 -98 24 -47 93 -51 -78 38 57 -20 -80 56 -3 -11 0
-1 -99 23 -98 24 -47 93 51 -90 70 84 31 0
1 -33 -20 65 66 -31 -8 62 0
-1 99 75 -62 -66 -69 17 -52 70 -59 16 -45 0
-1 -99 23 -98 24 -47 -93 53 30 -76 0
-1 99 -75 47 63 -64 -74 77 -12 73 0
-1 99 75 -62 66 29 13 45 -16 0
1 -33 -20 -65 37 -74 -49 25 -53 61 0
1 -33 20 98 26 72 47 -57 12 27 0
-1 99 75 -62 66 -29 8 -58 -40 -49 -74 0
1 -33 20 -98 50 -24 89 12 -59 0
-1 -99 23 -98 -24 -84 -62 -53 13 0
-1 -99 -23 67 -59 85 -27 86 -42 -93 -4 -52 0
1 -33 -20 -65 -37 -94 13 52 -51 74 93 10 91 0
1 33 98 -87 -3 81 27 -28 49 0
1 -33 20 -98 -50 -97 38 54 -23 82 -16 0
1 -33 -20 65 66 31 -80 52 -2 89 49 18 0
1 -33 -20 -65 -37 94 39 -25 -18 49 0
1 -33 -20 -65 37 74 2 51 -60 97 14 -68 0
-1 99 75 62 98 55 8 6 39 -58 0
1 -33 20 98 -26 5 -3 32 -95 68 25 -89 67 46 77 0
-1 -99 23 98 -81 -45 73 0
1 -33 20 98 26 72 47 57 0
-1 99 75 -62 66 -29 8 -58 40 -21 -25 57 0
-1 -99 -23 -67 -65 -98 -37 -15 -93 0
1 33 98 -87 3 97 86 -57 0
-1 -99 23 -98 24 47 77 -55 67 34 4 8 -2 0
-1 99 75 62 98 55 -8 -34 -74 45 72 0
-1 -99 23 -98 24 -47 93 -51 78 -96 22 0
-1 -99 23 98 81 -40 -90 -93 -48 26 33 0
1 33 -98 88 -48 4 -90 80 0
-1 99 75 -62 66 -29 8 -58 -40 -49 74 0
-1 -99 -23 67 -59 85 -27 -86 68 -51 0
-1 -99 -23 -67 65 -34 -35 7 0
-1 -99 23 -98 -24 84 -58 -19 40 -34 0
1 33 98 -87 3 97 -86 9 62 0
-1 99 -75 47 63 -64 74 3 85 -60 82 0
1 -33 -20 -65 -37 -94 13 -52 -81 67 91 -14 -21 0
-1 -99 -23 -67 65 34 22 51 32 56 -75 87 -42 0
1 -33 -20 65 66 -31 -8 -62 -7 -49 0
1 -33 20 98 -26 5 -3 32 -95 68 25 -89 67 -46 0
-1 -99 23 98 -81 45 -2 66 84 88 51 32 96 0
-1 -99 23 98 81 -40 90 77 -92 -85 -53 0
1 -33 -20 -65 37 74 -2 80 -24 -8 79 0
-1 -99 23 -98 24 47 77 -55 67 34 4 -8 -92 45 0
-1 99 -75 47 -63 -71 -89 -86 42 -13 39 0
-1 99 -75 47 63 -64 74 -3 -20 95 -87 54 0
1 -33 20 -98 -50 -97 -38 -74 -80 55 -67 77 0
-1 99 75 -62 66 -29 -8 48 72 0
-1 -99 -23 -67 65 34 22 -51 92 0
-1 -99 -23 67 -59 85 27 77 -48 41 15 0
-1 99 75 -62 66 29 13 -45 -59 0
-1 -99 -23 -67 -65 98 38 -84 -40 76 0
1 -33 20 98 -26 5 3 99 87 -42 0
-1 -99 -23 67 59 96 -2 -13 0
1 -33 20 98 26 -72 35 0
-1 99 -75 47 63 -64 -74 -77 -68 0
-1 -99 23 -98 24 -47 93 -51 -78 38 -57 -68 82 -52 0
1 -33 20 98 -26 5 3 -99 82 -56 -95 71 0
-1 -99 23 98 81 -40 -90 93 -54 -41 0
1 33 98 87 -26 80 2 -89 -71 21 0
-1 99 75 -62 66 -29 -8 -48 -52 -45 -33 0
-1 99 -75 47 -63 71 -32 -83 19 16 70 -76 0
-1 99 75 62 -98 79 -29 0
1 -33 -20 65 66 31 -80 52 -2 89 -49 0
1 33 98 87 -26 80 -2 -54 23 -22 -21 0
1 33 98 -87 -3 81 -27 94 0
-1 -99 -23 -67 65 34 22 51 32 -56 0
-1 99 -75 47 63 -64 74 -3 20 -68 0
-1 -99 -23 -67 65 -34 -35 -7 0
1 -33 -20 -65 -37 -94 -13 -75 32 74 -68 0
1 -33 -20 65 66 31 -80 52 2 24 0
1 -33 -20 65 66 31 -80 -52 74 -28 -22 -50 -44 93 0
-1 99 -75 47 63 -64 74 -3 -20 95 -87 -54 0
-1 -99 23 98 81 -40 -90 -93 48 0
1 -33 -20 -65 -37 94 -39 60 -98 -47 -80 -36 14 19 88 54 0
1 -33 -20 -65 -37 -94 13 -52 -81 -67 -54 30 0
1 -33 20 98 -26 5 -3 -32 -53 2 -58 0
1 33 98 87 -26 80 2 89 21 97 -14 36 12 0
-1 99 -75 47 63 -64 74 -3 -20 -95 26 0
-1 99 -75 47 -63 71 -32 -83 19 16 70 76 46 0
-1 99 75 -62 -66 -69 -17 -97 64 70 -28 0
1 -33 20 98 -26 5 3 -99 -82 0
1 -33 20 98 -26 5 3 -99 82 56 38 0
1 -33 -20 -65 37 74 -2 -80 16 0
-1 -99 23 -98 24 -47 93 -51 -78 38 57 -20 80 0
1 -33 20 -98 50 24 16 37 -57 0
-1 99 75 -62 -66 69 -4 -29 0
1 -33 20 98 26 72 47 -57 12 -27 92 0
1 -33 -20 -65 -37 94 -39 -60 -52 47 -92 0
-1 -99 -23 67 -59 -85 -70 37 0
1 -33 20 98 26 72 -47 -51 -28 35 0
1 -33 -20 65 -66 6 31 68 -81 86 85 78 0
1 -33 -20 65 -66 6 -31 72 14 51 0
1 33 98 87 -26 80 2 -89 -71 -21 -66 0
1 -33 -20 -65 -37 -94 -13 -75 32 -74 0
1 -33 -20 -65 -37 -94 13 -52 -81 67 91 -14 21 -40 -17 0
1 -33 -20 65 66 31 80 8 49 -39 0
1 -33 -20 -65 37 74 -2 80 -24 -8 -79 0
-1 99 75 -62 -66 -69 17 -52 -70 79 64 -25 0
1 -33 -20 65 -66 6 31 68 81 46 -21 0
1 -33 -20 -65 -37 94 -39 60 -98 -47 -80 -36 14 19 88 -54 0
1 -33 -20 -65 37 74 2 51 -60 -97 -81 82 0
-1 99 75 62 98 55 8 6 39 58 -78 0
-1 99 -75 47 63 -64 -74 77 12 0
1 -33 20 -98 -50 -97 -38 -74 -80 -55 87 -11 0
-1 99 -75 47 -63 71 32 -95 50 57 -38 -48 0
-1 -99 -23 -67 -65 -98 37 0
1 -33 20 98 -26 -5 80 18 85 0
-1 99 -75 47 -63 -71 89 -8 -42 54 -65 -55 13 0
-1 -99 23 98 81 -40 -90 93 54 0
-1 -99 23 -98 24 47 -77 -58 -57 26 70 0
1 -33 20 98 -26 5 -3 32 -95 68 25 -89 67 46 -77 0
-1 -99 -23 67 -59 85 -27 -86 -68 0
1 -33 -20 65 66 31 -80 -52 74 28 63 43 51 -69 19 -89 0
-1 -99 -23 67 59 -96 -14 -39 13 0
1 33 -98 88 48 39 -69 8 0
-1 99 75 -62 -66 -69 17 -52 70 59 77 43 0
-1 -99 23 98 -81 45 -2 66 84 88 -51 0
-1 -99 23 -98 24 47 77 55 -67 -28 -53 -91 0
1 33 98 -87 3 -97 -74 -39 54 -28 0
1 -33 20 98 -26 5 3 99 87 42 92 0
1 33 -98 -88 61 -40 96 16 7 0
1 -33 20 98 -26 -5 80 -18 21 77 0
1 33 -98 -88 -61 74 68 76 -85 0
-1 -99 23 -98 24 47 77 55 -67 -28 -53 91 68 -22 0
-1 -99 -23 67 -59 85 -27 -86 68 51 0
-1 99 75 -62 -66 -69 17 -52 -70 79 -64 -43 -80 0
-1 -99 23 -98 24 -47 93 -51 -78 38 57 20 0
1 -33 -20 -65 -37 94 39 -25 18 -56 74 -46 0
1 33 98 87 -26 80 2 89 21 97 14 41 0
1 33 -98 88 48 -39 -89 -53 0
-1 99 -75 47 -63 71 32 -95 50 -57 18 -23 0
1 -33 -20 -65 -37 94 -39 60 -98 -47 80 14 -2 0
1 -33 20 98 -26 5 -3 32 -95 -68 80 0
1 -33 -20 65 66 31 -80 -52 74 28 -63 -88 -54 0
-1 99 75 62 98 -55 79 18 84 77 0
1 -33 -20 -65 -37 94 -39 60 -98 -47 80 -14 25 0
-1 -99 23 -98 24 47 77 55 67 -28 22 -76 0
-1 99 75 62 98 55 -8 -34 -74 -45 2 0
-1 99 75 -62 66 -29 -8 -48 -52 -45 33 0
-1 -99 23 -98 24 47 -77 58 -11 48 8 0
1 -33 20 -98 -50 -97 -38 -74 -80 -55 87 11 0
-1 -99 23 -98 -24 84 -58 -19 -40 -78 0
1 -33 -20 65 66 31 -80 -52 74 28 -63 88 0
1 33 98 -87 3 -97 74 45 -17 0
-1 -99 23 -98 -24 -84 -62 53 0
-1 -99 23 -98 24 -47 93 51 90 0
1 33 98 87 26 28 0
-1 99 75 -62 -66 -69 -17 -97 64 -70 49 0
1 -33 -20 65 -66 -6 0
1 33 -98 -88 61 -40 96 16 -7 0
-1 -99 23 -98 24 47 -77 -58 -57 26 -70 0
-1 99 75 -62 -66 -69 17 -52 -70 -79 27 0
-1 -99 23 98 -81 45 -2 -66 -22 83 0
-1 -99 23 98 81 -40 90 77 -92 -85 53 -60 0
1 33 98 87 -26 80 -2 -54 23 -22 21 27 -17 0
-1 -99 23 -98 24 -47 -93 -53 80 18 60 -64 0
1 33 -98 88 -48 -4 0
1 33 98 87 -26 80 -2 -54 23 -22 21 -27 0
1 -33 -20 -65 -37 -94 13 52 -51 74 93 10 -91 0
-1 -99 23 -98 24 47 77 -55 67 34 4 -8 92 0
1 33 -98 -88 -61 74 -68 -14 15 93 0
1 -33 20 98 26 72 -47 -51 28 -39 -88 0
-1 99 -75 47 63 -64 -74 77 -12 -73 -66 68 0
-1 -99 -23 67 -59 85 27 -77 -84 -62 -33 0
1 -33 20 98 26 72 -47 -51 -28 -35 -21 -85 50 0
-1 99 -75 47 -63 71 -32 -83 19 16 -70 0
-1 -99 23 -98 24 47 77 55 -67 -28 53 0
-1 99 -75 47 -63 -71 89 8 94 48 33 43 0
1 -33 20 -98 50 -24 -89 -36 58 3 0
-1 -99 23 98 -81 -45 -73 0
1 33 98 87 -26 80 2 89 21 97 -14 36 -12 0
-1 -99 -23 67 -59 85 -27 86 42 -36 89 83 -97 0
-1 -99 -23 -67 -65 98 -38 52 72 0
-1 -99 -23 -67 -65 98 -38 -52 43 73 0
-1 99 75 -62 -66 -69 17 -52 70 59 -77 -87 -11 41 80 0
1 -33 -20 -65 -37 94 39 -25 18 -56 74 46 68 0
-1 99 75 -62 66 -29 8 -58 40 21 -13 0
-1 99 75 -62 66 -29 8 -58 -40 49 27 0
-1 99 -75 47 63 -64 74 3 -85 -22 0
1 -33 20 98 26 72 -47 -51 -28 -35 -21 85 8 0
1 -33 -20 65 -66 6 -31 -72 -9 0
1 33 98 87 -26 80 -2 -54 -23 0
-1 99 -75 47 63 -64 74 3 85 -60 -82 0
-1 -99 -23 -67 -65 98 -38 52 -72 0
1 33 98 -87 3 -97 -74 39 -88 0
-1 99 -75 47 -63 71 -32 83 82 39 -42 27 0
-1 -99 23 -98 24 -47 93 -51 -78 38 -57 -68 -82 -95 0
1 -33 -20 65 -66 6 -31 -72 9 14 0
1 -33 20 98 -26 5 -3 32 95 -23 0
-1 99 -75 47 -63 -71 89 -8 -42 54 65 57 3 0
-1 -99 -23 67 -59 -85 70 0
-1 99 -75 47 -63 -71 -89 86 -22 6 0
-1 99 75 -62 -66 -69 17 52 3 -87 31 47 0
-1 99 75 62 98 -55 79 18 84 -77 0
1 -33 20 -98 50 -24 -89 -36 -58 70 0
-1 -99 23 -98 24 -47 93 -51 -78 38 -57 -68 -82 95 -8 0
-1 -99 -23 -67 -65 -98 -37 -15 93 82 0
-1 -99 23 -98 24 47 77 -55 67 34 4 8 2 -81 76 0
-1 -99 -23 -67 -65 98 38 84 28 0
-1 99 75 -62 -66 -69 -17 -97 -64 0
-1 -99 23 98 81 -40 90 77 -92 85 -57 0
1 33 -98 88 -48 4 -90 -80 0
1 33 98 -87 -3 81 27 28 9 0
1 33 98 87 -26 80 2 89 21 -97 0
-1 99 75 -62 -66 -69 -17 -97 64 70 28 0
-1 99 -75 -47 -62 -10 -55 88 -20 -51 0
1 -33 20 98 -26 5 -3 32 -95 68 25 -89 -67 0
1 -33 -20 -65 -37 -94 13 -52 -81 67 -91 31 -51 0
-1 -99 23 98 -81 45 2 -13 6 34 -95 0
-1 -99 23 98 81 -40 -90 -93 -48 26 -33 0
1 -33 20 -98 50 -24 89 -12 0
-1 99 75 62 -98 79 29 3 0
-1 99 75 -62 66 29 13 -45 59 20 0
1 -33 -20 65 66 31 -80 -52 74 28 63 43 -51 -99 0
-1 -99 23 -98 24 47 -77 58 -11 -48 20 0
1 -33 20 98 -26 5 -3 -32 -53 2 58 22 0
-1 99 75 62 98 -55 79 -18 17 -25 -32 0
-1 -99 23 -98 24 -47 93 51 -90 70 84 -31 0
1 -33 -20 -65 -37 -94 13 -52 81 97 -75 -25 -4 0
1 -33 20 98 -26 -5 -80 84 86 54 -38 6 0
1 -33 -20 -65 -37 94 39 -25 18 -56 -74 59 -68 0
1 -33 20 98 -26 -5 -80 84 86 -54 -76 -92 0
-1 99 -75 47 63 -64 74 -3 -20 -95 -26 0
1 -33 -20 -65 37 74 2 51 -60 -97 -81 -82 0
1 -33 -20 -65 -37 -94 13 -52 81 97 -75 25 0
1 -33 -20 -65 -37 -94 13 -52 81 97 75 0
1 -33 -20 -65 -37 94 39 -25 -18 -49 0
1 -33 20 -98 50 24 16 37 57 -94 0
1 -33 -20 65 66 -31 8 99 -46 0
1 -33 -20 65 66 31 -80 -52 74 -28 22 -15 86 -94 7 0
1 -33 -20 -65 37 74 2 51 -60 -97 81 0
-1 99 -75 47 -63 -71 89 -8 -42 -54 0
-1 99 -75 47 -63 71 -32 -83 -19 0
1 33 98 -87 3 -97 -74 -39 54 28 0
1 -33 -20 -65 -37 -94 13 52 -51 74 -93 -4 0
-1 -99 23 98 81 40 -18 -2 0
1 -33 -20 -65 -37 94 -39 60 -98 47 -10 -95 0
1 -33 20 -98 50 -24 -89 -36 -58 -70 0
1 -33 -20 65 -66 6 -31 -72 9 -14 0
1 -33 20 98 -26 -5 80 -18 21 -77 53 0
1 -33 20 98 26 72 47 -57 -12 3 0
1 -33 -20 -65 -37 94 39 -25 18 -56 74 46 -68 0
1 -33 -20 65 -66 6 31 68 81 46 21 0
-1 -99 23 -98 24 -47 93 -51 78 -96 -22 0
1 33 -98 -88 -61 74 -68 -14 15 -93 0
-1 99 75 62 98 55 -8 34 28 0
1 -33 -20 -65 -37 -94 13 52 -51 -74 -15 11 0
-1 99 75 -62 -66 -69 17 -52 70 59 -77 87 27 0
-1 99 -75 47 63 64 -12 66 0
1 -33 -20 65 66 31 80 8 49 39 0
1 -33 -20 65 -66 6 -31 72 14 -51 0
-1 -99 -23 -67 65 34 22 51 -32 7 33 0
-1 99 75 -62 -66 -69 17 52 3 -87 -31 -51 0
-1 99 75 62 98 -55 79 18 -84 91 0
1 33 98 87 26 -28 0
-1 -99 23 98 -81 45 2 13 -11 0
1 -33 -20 -65 -37 94 -39 60 -98 -47 -80 -36 -14 0
1 -33 -20 -65 -37 -94 13 -52 81 -97 -78 -95 -38 6 84 0
1 -33 -20 65 66 31 -80 -52 74 -28 22 -15 86 -94 -7 0
-1 -99 23 98 -81 45 -2 66 84 88 51 -32 0
-1 99 75 -62 66 -29 8 -58 40 -21 25 71 0
1 -33 20 -98 -50 97 70 84 -78 0
1 -33 -20 -65 37 -74 49 -27 79 40 0
1 -33 -20 -65 37 74 -2 80 24 -14 78 0
-1 99 -75 47 -63 71 32 -95 50 57 -38 48 0
-1 -99 23 -98 24 47 77 -55 67 34 -4 36 -71 -45 0
-1 -99 23 -98 -24 84 -58 -19 40 34 0
-1 99 75 -62 66 -29 8 -58 40 -21 -25 -57 45 0
-1 -99 23 -98 -24 -84 62 -52 -65 -8 0
1 -33 -20 -65 -37 94 39 -25 18 56 -17 52 0
-1 -99 23 98 -81 45 -2 66 -84 -83 0
1 33 98 87 -26 80 -2 54 -34 -67 0
1 -33 -20 65 -66 6 31 -68 43 0
1 -33 -20 -65 -37 -94 13 -52 81 -97 78 0
1 -33 -20 65 -66 6 31 68 -81 86 85 -78 0
1 33 98 87 -26 80 2 -89 71 -83 0
1 -33 20 98 26 -72 -35 21 0
-1 99 75 62 98 55 -8 -34 74 13 22 0
1 -33 -20 -65 -37 -94 13 -52 81 97 -75 -25 4 0
-1 99 -75 -47 -62 -10 -55 88 -20 51 0
1 -33 -20 -65 -37 94 39 -25 18 56 17 68 0
1 33 98 87 -26 -80 0
-1 -99 23 -98 24 47 77 55 67 -28 -22 0
1 -33 -20 -65 -37 -94 13 -52 -81 67 -91 31 51 0
-1 -99 23 -98 24 -47 93 -51 -78 38 57 -20 -80 56 -3 11 0
-1 99 75 -62 -66 -69 17 -52 70 59 -77 -87 11 -22 96 0
-1 -99 23 -98 24 47 77 -55 67 34 -4 -36 52 -12 30 0
-1 99 75 -62 -66 -69 17 52 3 87 -28 0
1 -33 20 98 -26 5 -3 -32 -53 -2 13 0
1 -33 20 98 -26 5 -3 32 -95 -68 -80 0
1 -33 20 -98 50 24 -16 -32 -80 0
-1 -99 23 98 -81 45 2 13 11 0
1 33 98 -87 3 -97 -74 -39 -54 0
1 -33 20 -98 -50 -97 -38 74 8 12 0
-1 -99 -23 -67 65 34 -22 17 0
-1 99 75 -62 66 29 -13 -94 0
-1 -99 23 98 -81 45 -2 66 -84 83 0
1 33 -98 -88 -61 74 -68 14 0
-1 99 -75 -47 -62 -10 -55 -88 0
-1 99 -75 47 63 -64 -74 77 -12 -73 -66 -68 17 0
1 33 -98 -88 -61 74 68 76 85 -43 0
-1 -99 23 -98 24 47 -77 58 11 62 80 42 0
1 33 98 -87 3 -97 -74 39 88 10 0
1 -33 -20 -65 37 -74 -49 25 -53 -61 0
-1 99 75 62 -98 79 29 -3 0
-1 -99 -23 -67 -65 98 -38 -52 43 -73 0
-1 -99 -23 67 59 -96 14 -20 61 -57 0
-1 -99 23 -98 24 -47 -93 53 30 76 0
-1 99 -75 47 -63 71 32 -95 50 -57 -18 73 0
-1 99 -75 47 -63 -71 89 8 94 48 -33 0
1 -33 20 98 -26 5 3 -99 82 56 -38 0
-1 99 -75 47 -63 71 32 -95 50 -57 18 23 0
1 -33 -20 -65 37 -74 49 -27 -79 -25 0
-1 -99 23 -98 24 47 77 -55 67 34 4 -8 -92 -45 0
-1 -99 -23 -67 -65 98 38 84 -28 0
1 -33 -20 65 66 31 -80 -52 74 -28 22 -15 86 94 0
1 -33 20 -98 50 24 16 -37 0
-1 99 75 -62 66 29 -13 94 -68 0
-1 99 75 -62 -66 -69 17 -52 70 59 -77 -87 11 22 0
-1 99 -75 47 -63 -71 89 -8 42 28 0
1 -33 20 -98 -50 -97 -38 -74 80 0
1 33 98 87 -26 80 -2 54 34 0
1 -33 -20 65 -66 6 31 -68 -43 -98 0
-1 99 75 -62 -66 -69 17 -52 70 -59 -16 0
-1 99 75 -62 -66 -69 17 52 3 -87 -31 51 0
-1 99 75 62 98 -55 79 -18 -17 0
1 -33 -20 -65 -37 94 -39 -60 52 18 75 0
-1 -99 -23 67 -59 85 -27 86 42 36 0
-1 -99 -23 -67 -65 -98 -37 -15 93 -82 0
1 -33 -20 -65 37 74 -2 80 -24 8 91 0
1 -33 -20 65 66 -31 -8 -62 7 0
1 -33 20 98 26 72 47 -57 12 -27 -92 0
1 -33 -20 65 66 31 -80 52 2 -24 53 26 0
1 -33 -20 65 66 31 -80 52 2 -24 -53 17 0
1 -33 -20 -65 -37 -94 -13 -75 -32 81 0
1 -33 20 -98 -50 -97 -38 74 -8 0
-1 -99 23 98 81 -40 90 77 92 0
1 -33 -20 -65 -37 -94 13 -52 -81 67 91 14 77 0
-1 99 75 -62 -66 -69 -17 -97 64 -70 -49 -27 0
1 -33 -20 -65 -37 -94 -13 -75 -32 -81 0
-1 -99 23 -98 24 -47 93 -51 -78 38 57 -20 -80 -56 0
1 -33 -20 -65 37 74 -2 -80 -16 -40 -17 0
1 -33 20 -98 50 24 -16 32 62 -49 54 0
1 -33 -20 65 66 31 -80 -52 -74 -22 0
-1 99 75 -62 -66 -69 -17 97 -23 45 0
1 -33 -20 -65 -37 -94 13 -52 81 -97 -78 -95 -38 6 -84 0
-1 -99 23 -98 24 47 -77 58 11 -62 46 0
1 -33 -20 65 -66 6 31 68 -81 -86 7 0
-1 99 75 -62 -66 -69 -17 97 23 0
-1 -99 -23 67 -59 85 27 -77 -84 62 75 0
1 -33 -20 -65 -37 94 39 -25 18 56 17 -68 0
1 -33 20 98 26 72 -47 -51 28 -39 88 0
-1 99 75 62 98 55 -8 34 -28 0
1 -33 20 98 -26 -5 -80 84 86 54 38 0
1 33 98 -87 -3 -81 10 -37 0
1 -33 20 -98 -50 -97 -38 -74 -80 55 67 0
1 -33 20 98 26 -72 -35 -21 0
-1 99 75 -62 -66 -69 17 52 -3 -32 0
-1 -99 -23 67 59 96 -2 13 0
-1 -99 23 -98 -24 -84 62 52 -35 40 -16 86 0
-1 -99 23 -98 24 -47 -93 53 -30 0
-1 -99 23 -98 24 47 77 -55 67 34 -4 -36 52 -12 -30 0
-1 99 -75 -47 -62 10 -30 0
-1 99 -75 47 -63 -71 89 8 94 -48 0
-1 99 -75 47 -63 71 32 95 -79 0
1 -33 -20 65 66 31 -80 -52 74 28 63 43 51 -69 -19 68 0
-1 -99 -23 67 59 -96 14 20 22 0
-1 99 75 62 98 55 8 6 -39 0
1 -33 20 98 -26 5 -3 32 95 23 0
-1 -99 -23 67 -59 85 -27 86 42 -36 89 83 97 0
-1 99 75 62 98 -55 79 18 -84 -91 0
-1 -99 23 98 81 -40 -90 -93 -48 -26 0
-1 99 75 -62 -66 -69 17 52 3 -87 31 -47 -23 -8 0
-1 99 75 -62 -66 -69 -17 -97 64 -70 -49 27 77 0
-1 -99 23 -98 -24 -84 62 52 -35 -40 15 0
1 -33 -20 65 -66 6 31 68 -81 -86 -7 0
1 33 98 -87 3 97 -86 -9 0
-1 -99 23 98 81 40 -18 2 -93 -34 0
-1 -99 23 98 -81 45 2 -13 6 34 95 0
1 -33 20 98 -26 5 3 99 -87 86 0
-1 -99 23 -98 24 47 77 -55 67 -34 -80 0
-1 99 75 -62 -66 -69 17 -52 70 59 77 -43 0
1 -33 -20 -65 -37 94 -39 60 -98 -47 80 14 2 0
1 33 98 87 -26 80 2 89 21 97 -14 -36 0
-1 -99 23 -98 -24 -84 62 52 -35 40 16 0
1 33 -98 -88 -61 74 -68 -14 -15 0
1 33 98 87 -26 80 -2 -54 23 22 -70 0
-1 99 -75 47 63 64 12 0
1 -33 -20 -65 37 74 -2 -80 -16 -40 17 -83 0
-1 99 75 62 98 -55 79 -18 17 -25 32 0
1 -33 20 -98 -50 -97 38 -54 -37 60 -2 0
-1 99 75 -62 66 -29 -8 -48 52 -37 0
1 -33 -20 65 -66 6 31 68 -81 86 -85 0
-1 -99 23 -98 24 47 -77 -58 -57 -26 0
1 -33 -20 65 -66 6 31 -68 -43 98 0
1 -33 -20 65 66 31 -80 -52 74 28 63 -43 0
-1 -99 23 98 81 40 18 0
-1 99 75 -62 -66 -69 17 52 3 87 28 0
1 -33 20 -98 -50 97 -70 0
1 -33 -20 -65 -37 94 -39 60 -98 47 -10 95 0
1 -33 -20 -65 -37 -94 13 -52 -81 67 91 14 -77 0
-1 99 75 62 98 55 8 6 39 58 78 0
1 -33 -20 65 66 31 -80 -52 74 -28 22 15 0
1 33 98 -87 3 -97 -74 39 88 -10 0
-1 -99 -23 67 59 -96 14 -20 -61 -30 0
-1 -99 23 -98 24 47 77 55 67 -28 22 76 0
1 -33 20 98 -26 5 -3 -32 -53 2 58 -22 0
-1 -99 -23 -67 65 34 22 51 -32 7 -33 0
-1 -99 23 -98 24 47 77 55 -67 -28 -53 91 68 22 0
1 -33 -20 -65 -37 -94 13 52 -51 -74 -15 -11 24 0
1 -33 -20 65 66 31 -80 -52 74 -28 22 -15 -86 0
-1 99 -75 47 -63 -71 89 -8 -42 54 65 -57 35 40 -92 -46 0
-1 -99 23 -98 24 -47 93 -51 78 96 3 73 0
-1 -99 23 -98 -24 -84 62 52 -35 40 -16 -86 0
-1 -99 23 -98 24 47 77 55 -67 28 0
1 -33 -20 -65 37 -74 -49 25 53 0
-1 99 -75 47 -63 -71 -89 -86 -42 0
1 -33 20 -98 -50 -97 38 -54 -37 60 2 0
-1 99 -75 47 -63 71 32 -95 50 -57 -18 -73 0
1 33 98 -87 3 97 86 57 0
-1 99 75 -62 -66 -69 17 -52 -70 79 64 25 45 0
1 33 -98 -88 -61 -74 0
-1 99 -75 47 63 -64 74 -3 20 68 77 0
-1 99 -75 47 63 -64 -74 77 -12 -73 -66 -68 -17 0
1 -33 -20 65 66 -31 8 99 46 -18 0
1 33 -98 88 48 39 -69 -8 -42 0
-1 99 75 62 98 55 -8 -34 -74 -45 -2 22 0
-1 99 75 -62 -66 -69 -17 -97 64 -70 -49 27 -77 0
-1 99 -75 47 -63 -71 89 8 94 48 33 -43 0
-1 -99 -23 -67 -65 -98 -37 15 -19 12 -13 0
1 -33 -20 65 66 31 -80 -52 74 28 63 43 -51 99 0
-1 99 -75 47 -63 -71 89 -8 42 -28 -20 0
1 -33 -20 -65 37 74 2 -51 0
1 -33 20 98 -26 5 3 99 -87 -86 0
1 -33 -20 65 66 31 80 -8 21 -95 0
-1 99 -75 47 -63 71 32 -95 50 57 38 -51 0
-1 -99 -23 67 -59 85 27 -77 -84 62 -75 0
-1 -99 23 -98 24 -47 93 -51 -78 -38 0
1 -33 20 -98 50 -24 -89 36 0
-1 -99 23 -98 -24 84 -58 -19 -40 78 0
1 -33 -20 -65 37 74 -2 80 -24 8 -91 0
1 -33 20 98 -26 5 -3 32 -95 68 -25 -9 0
1 -33 20 -98 50 -24 89 12 59 0
-1 -99 -23 -67 65 34 22 51 32 56 75 0
-1 -99 23 98 81 -40 90 77 -92 -85 53 60 0
1 -33 -20 65 66 31 -80 -52 74 28 -63 -88 54 10 0
1 -33 -20 -65 -37 94 39 25 0
1 -33 20 98 -26 5 -3 32 -95 68 -25 9 0
1 -33 -20 -65 37 -74 49 -27 79 -40 0
1 -33 20 -98 -50 -97 38 54 23 -53 0
1 -33 -20 65 66 31 80 8 -49 -83 0
-1 -99 23 -98 24 47 77 -55 67 34 -4 -36 52 12 10 0
-1 99 -75 47 -63 -71 89 8 -94 0
1 -33 20 -98 50 24 -16 32 62 49 0
-1 99 -75 47 -63 71 32 95 79 61 0
1 -33 20 98 -26 5 3 -99 82 -56 -95 -71 0
-1 -99 23 -98 24 47 -77 58 11 62 80 -42 0
1 -33 -20 -65 37 -74 -49 -25 -60 0
-1 -99 23 -98 24 -47 -93 -53 -80 -56 0
1 33 -98 88 48 -39 -89 53 0
-1 99 75 -62 -66 -69 17 -52 70 59 -77 -87 11 -22 -96 0
-1 -99 23 -98 -24 -84 -62 -53 -13 0
1 -33 -20 -65 -37 94 -39 60 -98 -47 -80 -36 14 -19 0
1 -33 -20 -65 37 74 2 51 -60 97 14 68 0
-1 99 75 -62 -66 -69 17 -52 -70 79 -64 -43 80 0
1 -33 -20 -65 -37 -94 13 -52 81 -97 -78 -95 38 0
1 -33 -20 -65 -37 94 39 -25 18 -56 -74 -59 0
-1 -99 23 98 -81 45 -2 66 84 88 51 32 -96 0
-1 -99 -23 67 59 -96 14 -20 61 57 0
-1 99 75 -62 66 -29 8 -58 40 21 13 0
1 -33 20 98 26 72 -47 -51 -28 -35 -21 -85 -50 0
-1 -99 -23 -67 -65 -98 -37 15 -19 -12 0
1 -33 -20 65 66 31 -80 52 2 -24 53 -26 0
-1 99 -75 47 63 -64 74 3 -85 22 0
1 -33 20 98 -26 -5 -80 84 86 -54 76 0
1 -33 20 -98 -50 -97 -38 -74 -80 -55 -87 -18 0
-1 -99 23 -98 24 -47 -93 -53 -80 56 0
1 33 98 87 -26 80 -2 54 -34 67 70 0
1 -33 20 98 -26 -5 -80 84 86 -54 -76 92 0
1 -33 -20 -65 -37 94 -39 60 -98 47 10 -81 0
-1 99 75 -62 -66 -69 17 -52 70 59 -77 -87 -11 -41 0
1 -33 -20 -65 -37 94 -39 60 -98 -47 -80 -36 14 19 -88 0
-1 99 -75 -47 -62 -10 -55 88 20 0
1 33 98 87 -26 80 -2 -54 23 22 70 96 0
1 -33 -20 -65 37 74 -2 80 24 14 0
-1 -99 23 -98 24 -47 93 -51 78 96 -3 58 -16 0
-1 -99 23 -98 24 47 77 -55 67 34 4 8 2 81 0
1 -33 20 -98 50 -24 -89 -36 58 -3 0
-1 -99 23 -98 24 -47 93 -51 78 96 -3 -58 38 0
-1 -99 23 -98 24 47 -77 -58 57 -37 0
-1 99 -75 47 -63 -71 89 -8 -42 54 65 -57 -35 84 0
-1 99 -75 -47 62 0
1 -33 -20 -65 -37 94 -39 60 -98 -47 -80 36 0
1 -33 -20 -65 -37 -94 13 -52 -81 -67 -54 -30 77 0
1 -33 -20 -65 -37 -94 -13 75 -53 0
-1 99 75 -62 -66 -69 17 -52 70 -59 16 45 0
-1 99 -75 47 -63 71 32 95 79 -61 0
-1 99 -75 47 63 -64 74 -3 20 68 -77 0
-1 99 75 -62 -66 -69 17 -52 -70 79 -64 43 0
1 -33 -20 -65 37 74 2 51 -60 97 -14 0
1 33 98 87 -26 80 2 89 -21 0
1 -33 -20 -65 -37 -94 -13 -75 32 74 68 0
-1 -99 -23 -67 65 34 22 -51 -92 24 0
1 33 -98 88 48 39 -69 -8 42 0
-1 -99 -23 -67 65 -34 35 0
1 -33 -20 -65 -37 -94 13 -52 81 -97 -78 -95 -38 -6 0
1 -33 20 98 -26 -5 -80 84 -86 0
-1 -99 -23 -67 -65 98 38 -84 -40 -76 0
-1 99 -75 47 -63 -71 89 -8 -42 54 65 57 -3 0
1 33 -98 -88 -61 74 68 76 85 43 0
-1 -99 23 -98 24 -47 93 -51 -78 38 57 -20 -80 56 3 0
1 -33 -20 -65 37 -74 49 27 -99 98 0
1 33 98 87 -26 80 2 -89 -71 -21 66 96 0
1 -33 20 -98 50 24 16 37 57 94 0
-1 -99 23 -98 24 47 -77 58 -11 48 -8 0
1 33 98 -87 -3 81 -27 -94 0
-1 99 -75 47 -63 71 -32 83 -82 0
-1 99 -75 -47 -62 10 30 0
1 -33 20 98 -26 -5 80 -18 -21 0
-1 99 75 -62 66 -29 8 -58 40 -21 -25 -57 -45 0
1 -33 -20 65 66 31 -80 -52 74 28 63 43 51 69 0
-1 -99 23 -98 24 -47 -93 -53 80 18 60 64 0
-1 -99 23 -98 24 -47 93 -51 -78 38 -57 -68 82 52 0
-1 99 -75 47 -63 71 32 -95 50 57 38 51 0
1 -33 -20 -65 37 -74 49 -27 -79 25 0
-1 99 75 -62 66 -29 8 58 0
1 -33 20 98 -26 -5 -80 -84 61 0
-1 99 -75 47 63 -64 -74 -77 68 89 0
1 -33 -20 65 66 31 -80 52 -2 89 49 -18 0
-1 99 -75 47 63 -64 74 -3 -20 95 87 0
1 -33 20 -98 -50 -97 38 -54 37 0
-1 99 75 -62 66 -29 -8 -48 52 37 0
1 -33 -20 -65 -37 -94 13 -52 -81 67 91 -14 21 40 0
1 -33 -20 -65 -37 -94 13 52 -51 74 -93 4 0
1 -33 20 98 26 72 -47 -51 28 39 -23 0
-1 -99 23 -98 -24 84 58 0
1 33 98 87 -26 80 2 -89 71 83 0
-1 99 -75 47 -63 -71 89 -8 42 -28 20 79 0
-1 -99 23 -98 -24 -84 62 52 35 0
1 -33 -20 -65 37 -74 -49 -25 60 0
1 33 98 -87 -3 -81 -10 0
-1 99 -75 47 -63 -71 89 -8 -42 54 -65 -55 -13 0
-1 -99 -23 67 59 -96 -14 -39 -13 0
1 -33 -20 -65 37 74 -2 -80 -16 40 0
1 -33 20 -98 -50 -97 38 -54 -37 -60 0
-1 99 75 -62 -66 -69 17 52 -3 32 0
1 -33 -20 -65 -37 94 -39 -60 52 -18 0
-1 -99 -23 67 -59 85 -27 86 42 -36 89 -83 -2 0
1 -33 -20 -65 -37 94 39 -25 18 56 -17 -52 0
-1 -99 23 -98 24 47 77 -55 67 34 -4 -36 -52 40 0
1 -33 20 98 -26 -5 -80 84 86 54 -38 -6 12 0
1 -33 20 98 -26 -5 80 18 -85 0
1 -33 20 98 -26 5 -3 32 -95 68 25 89 0
1 -33 -20 65 66 -31 8 -99 75 -41 0
-1 99 -75 47 -63 -71 89 -8 -42 54 65 -57 35 40 -92 46 0
-1 -99 23 -98 24 -47 93 -51 78 96 3 -73 0
-1 -99 23 -98 -24 -84 62 52 -35 -40 -15 0
1 -33 20 98 26 72 -47 -51 -28 -35 -21 85 -8 0
-1 -99 23 -98 24 -47 93 -51 -78 38 -57 -68 -82 95 8 0
1 -33 -20 -65 37 -74 49 27 99 -48 0
-1 99 75 62 98 55 -8 -34 -74 45 -72 0
-1 -99 23 98 81 -40 90 -77 93 0
-1 -99 -23 67 -59 85 27 77 -48 41 -15 73 0
1 -33 20 -98 -50 -97 38 54 23 53 0
-1 99 75 -62 -66 -69 17 -52 70 59 -77 -87 -11 41 -80 0
-1 99 75 62 98 -55 79 -18 17 25 -42 0
-1 -99 -23 67 59 -96 -14 39 0
1 33 -98 -88 -61 74 68 -76 0
1 -33 20 98 26 72 47 -57 -12 -3 0
1 -33 -20 -65 -37 -94 13 -52 -81 -67 -54 -30 -77 0
-1 -99 -23 67 59 -96 14 -20 -61 30 0
1 -33 20 98 -26 -5 -80 -84 -61 0
1 33 98 -87 -3 -81 10 37 30 0
-1 99 -75 47 -63 -71 89 -8 42 -28 20 -79 0
1 -33 -20 65 66 31 -80 -52 74 28 -63 -88 54 -10 0
1 -33 -20 -65 -37 -94 13 -52 -81 -67 54 0
-1 -99 23 -98 24 47 -77 58 11 62 -80 0
-1 -99 -23 67 59 -96 14 20 -22 0
-1 99 75 -62 66 -29 -8 48 -72 0
-1 -99 23 -98 24 47 77 -55 67 34 -4 -36 52 12 -10 0
1 -33 20 -98 -50 97 70 84 78 0
-1 -99 -23 67 -59 85 -27 86 42 -36 89 -83 2 0
-1 99 75 62 -98 -79 19 0
-1 99 -75 47 63 -64 74 3 85 60 0
1 -33 -20 -65 -37 94 -39 -60 -52 47 92 0
-1 -99 23 -98 24 47 77 -55 -67 73 54 0
1 -33 -20 -65 -37 94 -39 60 98 0
-1 99 -75 47 63 64 -12 -66 0
-1 99 -75 47 -63 -71 89 -8 -42 54 65 -57 -35 -84 0
-1 99 -75 47 -63 71 -32 -83 19 -16 -2 0
1 -33 -20 -65 -37 -94 13 -52 -81 67 -91 -31 0
-1 -99 -23 -67 65 34 22 51 32 56 -75 -87 0
-1 -99 23 98 -81 45 2 -13 -6 0
1 -33 20 98 -26 5 3 99 87 42 -92 0
1 -33 -20 -65 -37 -94 13 52 -51 -74 -15 -11 -24 0
-1 -99 -23 67 -59 85 -27 86 42 -36 -89 0
-1 99 75 -62 -66 69 -4 29 0
-1 -99 23 -98 24 -47 93 51 -90 70 -84 0
-1 99 -75 47 -63 71 32 -95 -50 0
-1 -99 23 98 81 40 -18 2 -93 34 0
1 -33 -20 65 66 -31 -8 -62 -7 49 0
1 -33 20 -98 50 24 -16 32 62 -49 -54 0
-1 -99 23 -98 24 47 77 -55 -67 73 -54 0
-1 -99 23 98 81 -40 90 77 -92 85 57 0
1 33 98 87 -26 80 2 89 21 97 14 -41 70 0
1 -33 -20 -65 -37 -94 13 -52 81 -97 -78 95 0
1 -33 -20 -65 -37 -94 -13 75 53 0
-1 99 75 -62 -66 -69 -17 97 -23 -45 0
1 33 -98 88 48 39 69 0
-1 99 75 62 98 55 8 -6 5 0
-1 99 -75 47 -63 -71 -89 86 22 0
-1 99 -75 47 63 -64 -74 77 -12 -73 66 0
1 -33 -20 65 66 31 -80 -52 74 -28 -22 50 -51 0
1 -33 -20 65 66 -31 8 -99 -75 23 0
-1 99 -75 -47 -62 -10 55 0
1 -33 20 -98 -50 -97 -38 74 8 -12 0
-1 99 -75 47 -63 -71 -89 86 -22 -6 0
1 33 98 -87 3 -97 74 -45 0
-1 -99 23 -98 24 -47 93 51 -90 -70 0
-1 99 -75 47 -63 -71 -89 -86 42 13 0
-1 -99 23 -98 24 47 -77 -58 57 37 0
-1 -99 -23 67 59 96 2 0
-1 -99 -23 -67 -65 -98 -37 15 19 0
-1 99 -75 47 -63 71 -32 -83 19 -16 2 0
1 -33 -20 65 66 31 80 -8 21 95 0
1 -33 -20 -65 -37 -94 13 52 -51 74 93 -10 0
-1 -99 23 -98 -24 -84 62 -52 -65 8 0
-1 -99 23 98 -81 45 -2 -66 -22 -83 0
-1 -99 -23 -67 65 34 22 51 32 56 -75 87 42 0
-1 -99 23 -98 24 -47 -93 -53 80 18 -60 0
-1 -99 23 -98 24 47 77 -55 -67 -73 0
-1 -99 -23 -67 -65 98 -38 -52 -43 0
-1 99 75 62 98 -55 79 -18 17 25 42 0
-1 -99 -23 67 -59 85 -27 86 -42 93 -98 0
-1 99 75 -62 -66 69 4 0
1 33 98 87 -26 80 2 89 21 97 14 -41 -70 54 0
-1 99 75 62 98 55 -8 -34 74 -13 0
1 -33 20 -98 50 24 -16 -32 80 0
1 -33 20 98 -26 -5 -80 84 86 54 -38 -6 -12 0
-1 99 -75 47 -63 -71 -89 -86 42 -13 -39 0
-1 -99 23 98 -81 45 -2 -66 22 0
-1 99 75 -62 -66 -69 17 -52 -70 -79 -27 0
1 -33 20 98 -26 -5 80 -18 21 -77 -53 0
-1 -99 23 -98 24 47 77 -55 67 34 -4 36 71 0
-1 99 75 -62 -66 -69 17 52 3 -87 31 -47 23 0
1 -33 20 98 -26 5 -3 -32 53 0
-1 99 75 62 98 55 -8 -34 -74 -45 -2 -22 0
-1 99 75 62 98 -55 -79 0
-1 -99 23 98 81 -40 90 -77 -93 0
1 33 98 -87 -3 -81 10 37 -30 0
1 -33 -20 -65 -37 94 39 -25 18 -56 -74 59 68 0
1 33 98 87 -26 80 2 89 21 97 14 -41 -70 -54 0
-1 99 75 -62 66 -29 -8 -48 -52 45 0
-1 -99 23 98 -81 45 -2 66 84 -88 0
1 -33 -20 65 66 31 -80 -52 -74 22 0
-1 99 75 -62 66 -29 8 -58 40 -21 25 -71 0
-1 -99 23 -98 24 47 77 -55 67 34 4 8 2 -81 -76 0
1 -33 -20 -65 -37 94 -39 60 -98 -47 80 -14 -25 0
1 -33 -20 -65 37 74 2 51 60 -83 0
1 -33 20 -98 -50 -97 38 54 -23 -82 0
1 -33 -20 -65 -37 94 -39 -60 52 18 -75 0
1 -33 -20 -65 37 74 -2 -80 -16 -40 17 83 0
1 -33 20 -98 -50 97 70 -84 0
1 -33 -20 65 66 -31 8 -99 -75 -23 0
1 -33 -20 -65 -37 -94 13 52 -51 -74 15 21 0
1 -33 20 98 26 72 -47 51 0
1 -33 -20 65 66 31 80 -8 -21 -51 0
-1 -99 23 -98 24 47 77 55 -67 -28 -53 91 -68 0
-1 -99 23 -98 24 47 77 55 67 28 0
-1 99 75 62 98 55 8 -6 -5 0
1 33 98 87 -26 80 -2 -54 23 22 70 -96 0
1 -33 -20 -65 37 -74 49 27 -99 -98 0
-1 99 -75 47 -63 -71 89 -8 -42 54 65 -57 35 -40 0
-1 99 75 -62 66 -29 8 -58 -40 49 -27 0
1 -33 -20 65 66 31 -80 52 -2 -89 0
-1 -99 -23 -67 65 34 -22 -17 0
-1 -99 -23 -67 65 34 22 51 -32 -7 0
-1 -99 23 98 -81 45 2 -13 6 -34 0
1 -33 -20 65 66 31 -80 -52 74 -28 -22 -50 -44 -93 0
-1 99 -75 47 -63 -71 89 -8 -42 54 -65 55 0
1 -33 -20 65 -66 6 31 68 81 -46 0
1 -33 -20 65 66 31 -80 -52 74 28 63 43 51 -69 -19 -68 0
1 33 -98 -88 61 -40 96 -16 0
-1 99 -75 47 -63 71 -32 83 82 39 -42 -27 0
-1 -99 -23 -67 -65 98 38 -84 40 0
-1 -99 23 98 81 40 -18 2 93 0
-1 99 75 -62 66 29 13 -45 59 -20 0
1 -33 -20 65 66 -31 8 99 46 18 0
1 -33 -20 -65 37 74 2 51 60 83 0
1 -33 -20 65 66 31 -80 -52 74 -28 -22 50 51 0
1 33 98 -87 3 97 -86 9 -62 0
-1 -99 23 -98 24 47 -77 58 -11 -48 -20 0
1 -33 -20 -65 37 74 -2 80 24 -14 -78 0
-1 99 -75 47 63 -64 -74 -77 68 -89 0
-1 -99 -23 -67 65 34 22 -51 -92 -24 0
-1 -99 -23 67 -59 85 -27 86 -42 -93 4 0
1 -33 20 -98 -50 -97 -38 -74 -80 55 -67 -77 -11 0
1 -33 -20 65 -66 6 -31 72 -14 0
1 -33 -20 -65 -37 -94 13 -52 -81 67 91 -14 21 -40 17 0
1 -33 -20 65 66 31 -80 -52 74 28 63 43 51 -69 19 89 0
1 -33 20 98 26 72 -47 -51 -28 -35 21 0
-1 99 -75 47 -63 71 -32 -83 19 16 70 76 -46 0
-1 99 75 -62 -66 -69 17 -52 -70 79 64 25 -45 0
-1 -99 -23 67 -59 85 27 77 -48 41 -15 -73 0
-1 99 75 62 -98 -79 -19 0
-1 -99 23 -98 -24 -84 62 -52 65 0
-1 99 -75 47 -63 -71 89 -8 -42 54 65 -57 35 40 92 0
-1 -99 23 -98 24 -47 93 -51 78 96 -3 58 16 0
1 33 -98 -88 61 -40 -96 0
-1 99 -75 47 -63 71 -32 83 82 39 42 0
1 33 98 87 -26 80 2 -89 -71 -21 66 -96 0
-1 -99 -23 67 -59 -85 -70 -37 0
1 33 -98 88 -48 4 90 0
-1 -99 23 98 81 -40 -90 93 -54 41 -2 0
1 33 98 -87 -3 81 27 28 -9 0
1 -33 20 -98 50 24 -16 32 -62 0
1 -33 -20 -65 -37 94 -39 60 -98 47 10 81 0
1 -33 -20 65 66 31 -80 52 2 -24 -53 -17 0
