c NeuroCodeBench 2.0 CNF formula with verdict Unsat
p cnf 64 275
1 63 25 -39 56 11 -17 16 -38 0
1 63 25 -39 56 -11 -49 0
1 -63 39 -19 -2 55 10 -24 25 -44 -51 4 -42 0
-1 52 20 31 9 17 28 0
1 63 25 -39 -56 -6 -40 -17 0
-1 52 20 -31 -26 36 44 43 0
-1 -52 -38 55 -49 -39 51 0
-1 -52 -38 55 -49 39 -51 -16 0
1 63 -25 -15 13 12 -50 -51 0
-1 -52 -38 -55 37 41 -62 -22 0
1 63 -25 -15 -13 -24 -27 26 5 0
-1 52 -20 -19 -22 30 0
1 63 25 -39 56 11 -17 -16 -58 0
1 -63 -39 13 20 -52 55 12 0
-1 -52 38 -48 -35 63 36 -22 0
1 63 -25 15 8 13 -61 62 -53 0
1 -63 39 -19 -2 55 10 24 0
1 63 -25 -15 13 12 50 0
1 -63 -39 -13 40 33 -14 36 0
1 -63 39 -19 2 -42 -50 -7 -3 56 -47 0
1 -63 -39 13 -20 -57 -51 62 56 47 6 0
-1 52 20 -31 -26 -36 42 29 0
1 -63 -39 13 20 -52 -55 61 0
-1 -52 -38 -55 37 -41 2 49 22 0
1 -63 -39 13 20 52 3 7 -64 -60 -58 0
1 -63 39 -19 -2 -55 -50 -6 -32 -21 0
-1 52 20 -31 26 -18 23 64 0
-1 52 20 -31 26 -18 23 -64 0
1 -63 -39 -13 -40 59 23 -18 0
1 -63 39 -19 2 -42 -50 7 43 0
1 63 -25 15 -8 -42 -40 -61 64 34 0
1 63 25 -39 -56 -6 40 30 0
-1 -52 -38 -55 37 -41 2 -49 36 0
1 -63 -39 13 20 52 3 7 -64 60 23 0
1 63 25 -39 -56 6 -34 22 -31 0
1 -63 39 -19 -2 -55 50 59 40 0
1 -63 -39 13 -20 57 -55 8 58 27 0
-1 52 20 31 9 -17 16 0
1 -63 39 -19 -2 -55 50 -59 12 0
1 63 25 39 64 13 -33 -19 -30 0
1 -63 39 -19 2 -42 -50 -7 -3 -56 0
1 63 -25 -15 13 12 -50 51 55 0
1 -63 39 -19 2 42 -43 7 0
-1 52 20 31 -9 -33 -40 39 37 12 -64 0
1 63 25 -39 -56 6 34 53 0
-1 -52 38 -48 35 -2 39 -18 20 0
1 63 -25 -15 13 12 -50 51 -55 0
1 63 25 -39 56 11 17 -49 -61 0
1 -63 39 -19 -2 55 -10 -34 -38 -48 46 47 -32 0
-1 52 20 31 -9 -33 -40 39 37 12 64 0
1 -63 39 -19 -2 -55 50 59 -40 -61 0
1 -63 -39 13 -20 57 -55 8 -58 -16 59 51 0
1 63 25 39 -64 -40 48 0
1 63 25 39 64 -13 57 7 23 0
1 -63 39 -19 -2 -55 -50 -6 -32 21 40 0
1 63 -25 15 -8 -42 -40 -61 -64 52 0
1 63 -25 15 8 13 -61 62 53 38 0
-1 -52 38 48 -64 -55 -25 3 0
-1 52 20 31 9 -17 -16 11 7 0
-1 52 20 -31 -26 36 -44 35 0
1 63 25 39 64 -13 57 7 -23 0
1 63 -25 15 8 -13 -57 0
1 -63 39 -19 2 42 43 0
1 -63 39 -19 -2 55 10 -24 25 -44 51 58 -38 0
1 -63 39 -19 -2 55 -10 -34 -38 -48 46 -47 0
1 -63 -39 -13 40 33 -14 -36 -42 0
1 -63 -39 13 -20 -57 51 -59 17 -25 0
1 -63 -39 -13 -40 59 -23 0
1 -63 -39 -13 -40 59 23 18 -43 0
1 -63 39 19 56 8 -21 23 0
1 -63 39 -19 -2 -55 -50 -6 -32 21 -40 0
1 -63 -39 13 -20 -57 51 -59 -17 -50 22 4 0
1 63 25 -39 56 11 -17 16 38 42 -64 0
1 -63 39 19 56 8 -21 -23 0
1 -63 39 -19 -2 55 10 -24 25 -44 -51 -4 -3 0
1 -63 39 -19 -2 -55 50 -59 -12 22 5 0
1 63 25 -39 56 11 -17 16 38 42 64 0
1 63 25 -39 -56 -6 40 -30 0
1 63 -25 15 -8 -42 -40 61 -43 12 0
1 -63 -39 -13 -40 -59 -14 38 60 23 0
1 -63 39 -19 -2 55 10 -24 25 -44 51 58 38 16 0
1 -63 39 -19 -2 55 10 -24 25 -44 51 -58 0
1 63 25 -39 -56 6 -34 -22 0
1 -63 -39 13 -20 57 55 -38 22 0
1 63 25 -39 56 11 -17 -16 58 0
-1 -52 38 -48 35 -2 -39 -18 46 0
1 63 25 39 -64 -40 -48 0
1 -63 -39 -13 40 -33 43 -59 0
1 -63 -39 13 -20 -57 -51 62 56 47 -6 0
-1 52 20 31 -9 -33 40 6 0
1 -63 -39 13 20 52 3 -7 -64 31 0
-1 -52 38 48 -64 55 31 0
1 63 25 -39 -56 6 34 -53 0
1 -63 -39 -13 40 33 -14 -36 42 0
1 -63 -39 13 20 -52 55 -12 62 0
1 63 -25 -15 -13 -24 27 -43 0
-1 52 20 31 9 -17 -16 11 -7 0
-1 52 -20 19 6 -43 0
1 -63 39 -19 -2 -55 50 59 -40 61 34 0
-1 52 -20 -19 22 36 0
1 63 -25 15 8 -13 57 0
1 -63 39 -19 -2 55 10 -24 25 44 0
1 63 -25 -15 -13 -24 -27 26 -5 0
-1 52 20 31 -9 -33 -40 -39 0
1 63 -25 15 -8 -42 -40 -61 64 -34 -57 0
1 -63 39 -19 -2 55 -10 -34 -38 -48 46 47 32 -4 0
1 -63 -39 13 20 52 -3 -44 -61 24 -11 0
-1 -52 38 -48 -35 -63 42 0
1 -63 -39 13 -20 -57 51 -59 17 25 0
1 63 25 39 64 -13 -57 51 0
-1 -52 38 -48 35 -2 -39 18 44 0
1 63 -25 15 8 13 -61 -62 0
1 -63 -39 13 20 52 -3 44 0
1 -63 -39 13 20 52 3 -7 -64 -31 0
-1 -52 38 -48 35 2 0
-1 -52 38 48 -64 55 -31 0
1 -63 -39 13 -20 -57 -51 62 -56 0
1 63 25 39 64 13 -33 -19 30 -34 0
1 63 25 39 64 -13 57 -7 49 0
1 -63 -39 13 20 52 3 7 -64 60 -23 0
1 -63 -39 13 -20 57 -55 -8 0
1 -63 39 -19 -2 55 10 -24 25 -44 51 58 38 -16 0
1 -63 -39 13 -20 -57 51 59 -58 0
1 -63 -39 13 20 52 3 -7 64 2 0
-1 -52 38 -48 -35 63 -36 -64 0
1 63 -25 15 8 13 61 -27 0
1 -63 -39 -13 -40 -59 14 -17 0
-1 -52 38 -48 -35 63 -36 64 0
1 63 25 39 64 -13 57 -7 -49 0
-1 -52 -38 -55 37 -41 2 49 -22 0
1 -63 -39 13 -20 57 -55 8 -58 16 0
1 63 25 39 64 13 -33 19 8 0
-1 -52 -38 -55 -37 -44 -56 0
1 -63 -39 13 -20 -57 51 -59 -17 50 0
-1 52 20 31 -9 33 -35 0
1 63 25 -39 -56 -6 -40 17 -48 0
1 63 -25 15 -8 -42 -40 61 43 0
-1 52 -20 -19 -22 -30 0
1 -63 39 -19 2 -42 50 8 0
1 63 25 -39 56 11 17 49 -9 0
1 -63 -39 13 20 -52 55 -12 -62 0
1 63 25 -39 -56 6 -34 22 31 54 0
-1 -52 -38 -55 37 41 62 0
1 -63 39 19 56 -8 0
-1 -52 -38 -55 37 -41 2 -49 -36 0
1 63 25 -39 56 11 17 49 9 0
-1 52 20 -31 26 18 60 0
1 -63 -39 13 20 52 3 -7 64 -2 5 -8 4 0
1 -63 39 -19 -2 -55 50 -59 -12 -22 37 -58 0
1 -63 39 -19 -2 55 10 -24 25 -44 -51 -4 3 0
1 -63 39 -19 -2 55 -10 -34 38 0
1 63 25 39 64 13 -33 19 -8 0
1 -63 -39 13 -20 57 55 38 -32 40 0
1 -63 -39 13 20 52 3 -7 64 -2 -5 0
1 63 -25 15 -8 -42 -40 -61 64 -34 57 0
1 -63 -39 13 20 52 -3 -44 -61 -24 0
-1 -52 -38 -55 -37 -44 56 0
-1 52 -20 19 6 43 0
-1 52 20 -31 -26 -36 -42 -57 -56 0
1 63 25 39 -64 40 0
-1 52 20 31 -9 -33 40 -6 0
1 -63 39 -19 2 42 -43 -7 50 -27 38 0
1 -63 -39 -13 -40 -59 -14 38 60 -23 0
1 -63 39 -19 2 -42 50 -8 0
-1 52 20 -31 -26 -36 -42 57 0
1 -63 -39 13 -20 57 -55 8 58 -27 -60 0
-1 -52 38 48 64 0
1 -63 -39 13 -20 57 -55 8 -58 -16 -59 24 -27 0
1 63 -25 -15 -13 -24 -27 -26 0
1 63 25 -39 56 -11 49 -34 0
1 -63 -39 13 -20 57 55 38 -32 -40 0
1 63 -25 15 -8 -42 40 56 -35 0
1 -63 39 -19 -2 -55 50 -59 -12 22 -5 0
1 -63 -39 13 20 -52 -55 -61 0
-1 -52 38 -48 35 -2 -39 -18 -46 0
-1 52 20 -31 -26 -36 42 -29 0
1 -63 -39 -13 -40 -59 -14 -38 0
1 -63 -39 13 20 52 -3 -44 61 -42 0
-1 52 20 31 9 -17 -16 -11 -59 0
1 63 25 -39 -56 -6 -40 17 48 0
-1 -52 38 -48 35 -2 39 18 16 0
-1 52 20 -31 -26 -36 -42 -57 56 0
-1 52 20 31 -9 -33 -40 39 -37 0
-1 52 20 31 9 17 -28 0
1 -63 -39 13 20 52 3 7 -64 -60 58 0
1 -63 -39 13 -20 57 55 38 32 0
1 -63 39 19 56 8 21 0
1 -63 -39 -13 40 -33 43 59 0
1 -63 39 -19 -2 55 -10 34 22 0
-1 -52 -38 55 -49 -39 -51 0
1 -63 39 -19 2 -42 -50 7 -43 0
1 -63 -39 -13 -40 -59 -14 38 -60 0
1 -63 39 -19 2 42 -43 -7 -50 0
1 -63 -39 13 20 52 3 7 64 0
1 -63 -39 13 -20 -57 51 -59 -17 -50 22 -4 0
1 -63 -39 13 -20 57 55 -38 -22 0
1 -63 -39 -13 -40 -59 14 17 0
1 63 -25 -15 -13 24 0
-1 -52 -38 55 -49 39 51 0
1 -63 -39 13 -20 -57 51 59 58 0
1 63 -25 15 -8 -42 40 -56 0
-1 52 -20 19 -6 -27 0
1 63 25 39 64 13 33 14 0
1 -63 -39 -13 40 -33 -43 0
1 -63 -39 13 -20 -57 -51 -62 0
-1 -52 38 -48 35 -2 39 -18 -20 0
1 -63 39 -19 -2 -55 -50 -6 32 0
1 -63 -39 -13 -40 59 23 18 43 0
1 -63 39 -19 2 42 -43 -7 50 27 0
1 63 -25 -15 13 -12 38 0
1 -63 -39 13 20 52 -3 -44 61 42 0
1 63 -25 15 -8 -42 -40 -61 -64 -52 0
1 -63 39 -19 -2 55 -10 34 -22 0
1 63 -25 15 -8 -42 -40 61 -43 -12 0
1 -63 -39 13 20 52 3 -7 64 -2 5 8 0
-1 -52 38 -48 35 -2 39 18 -16 0
1 63 -25 15 -8 42 0
1 63 25 -39 56 -11 49 34 0
-1 52 -20 -19 22 -36 0
1 -63 39 -19 -2 -55 50 -59 -12 -22 37 58 0
1 63 -25 15 8 13 61 27 0
-1 -52 -38 -55 37 -41 -2 0
-1 52 20 31 -9 33 35 -24 0
1 -63 -39 13 -20 57 -55 8 -58 -16 59 -51 0
1 -63 39 -19 2 42 -43 -7 50 -27 -38 0
1 -63 39 -19 -2 -55 -50 6 0
-1 -52 -38 -55 -37 44 0
1 -63 -39 13 -20 57 -55 8 -58 -16 -59 -24 0
1 63 -25 -15 -13 -24 27 43 0
-1 -52 38 48 -64 -55 25 0
1 63 -25 15 8 13 -61 62 53 -38 -43 0
1 63 25 39 64 13 -33 -19 30 34 0
1 -63 -39 13 20 52 -3 -44 -61 24 11 0
1 -63 -39 13 -20 -57 51 -59 -17 -50 -22 0
-1 52 20 -31 26 18 -60 0
-1 52 20 31 -9 33 35 24 0
1 63 -25 15 -8 -42 40 56 35 0
-1 52 20 -31 -26 36 44 -43 0
1 -63 39 19 -56 0
1 63 25 -39 -56 6 -34 22 31 -54 0
1 -63 -39 13 -20 -57 -51 62 56 -47 0
-1 -52 38 -48 35 -2 -39 18 -44 0
1 -63 39 -19 -2 -55 50 59 -40 61 -34 13 0
1 -63 39 -19 2 -42 -50 -7 -3 56 47 0
1 63 25 -39 56 11 -17 16 38 -42 0
1 -63 39 -19 -2 55 -10 -34 -38 -48 -46 0
1 -63 -39 13 -20 57 -55 8 -58 -16 -59 24 27 0
1 -63 -39 13 20 52 3 -7 64 -2 5 -8 -4 0
-1 -52 -38 55 -49 39 -51 16 0
1 63 25 -39 56 11 17 -49 61 0
-1 52 20 -31 26 -18 -23 0
1 -63 39 -19 -2 55 -10 -34 -38 48 0
-1 52 20 31 -9 -33 -40 39 37 -12 0
-1 52 20 31 9 -17 -16 -11 59 0
1 63 -25 -15 13 -12 -38 0
-1 52 20 -31 -26 36 -44 -35 0
-1 -52 38 48 -64 -55 -25 -3 0
-1 -52 -38 -55 37 41 -62 22 0
1 -63 39 -19 2 -42 -50 -7 3 0
1 -63 39 -19 -2 55 10 -24 25 -44 -51 4 42 -18 0
1 -63 -39 -13 40 33 14 -41 0
-1 -52 38 -48 -35 63 36 22 0
1 -63 39 -19 -2 55 10 -24 -25 0
1 -63 39 -19 -2 55 -10 -34 -38 -48 46 47 32 4 0
1 63 25 39 64 13 33 -14 0
-1 -52 -38 55 49 0
-1 52 -20 19 -6 27 0
1 -63 -39 -13 40 33 14 41 0
1 -63 -39 13 -20 57 -55 8 58 -27 60 0
1 -63 39 -19 -2 -55 50 59 -40 61 -34 -13 0
1 -63 39 -19 -2 55 10 -24 25 -44 -51 4 42 18 0
1 -63 39 -19 -2 -55 50 -59 -12 -22 -37 0
1 63 25 39 64 -13 -57 -51 0
-1 -52 38 -48 -35 -63 -42 0
1 63 -25 15 8 13 -61 62 53 -38 43 0
