c NeuroCodeBench 2.0 CNF formula with verdict Unsat
p cnf 93 621
-1 93 20 86 -54 26 69 46 67 0
-1 -93 49 -19 24 76 91 -65 44 6 28 -31 0
-1 -93 49 -19 -24 -67 61 -30 6 64 13 29 46 0
-1 -93 49 19 21 69 -28 14 -24 26 5 -91 0
-1 93 20 -86 91 -63 -92 -17 60 76 0
1 -7 90 89 -59 -92 40 5 -43 -32 0
1 7 -25 35 80 -72 28 14 0
1 -7 -90 68 47 -11 -16 -31 23 0
1 -7 -90 68 47 11 -8 75 65 -17 18 0
-1 93 20 -86 91 63 -38 -64 -49 42 -56 62 -37 -65 0
-1 -93 49 19 21 69 28 -42 86 -47 0
1 7 -25 -35 71 49 23 -82 -12 -85 0
-1 -93 49 -19 -24 -67 -61 -59 -79 -8 -23 84 0
1 7 25 -17 47 34 72 0
-1 93 20 -86 91 -63 92 -32 24 0
1 7 -25 35 80 72 -4 40 0
1 -7 90 89 59 -28 -77 -75 -42 -63 -54 49 0
-1 93 20 -86 -91 -3 58 9 46 57 -87 -71 0
-1 93 -20 56 -69 22 -21 -26 -36 10 51 0
1 -7 -90 -68 -87 22 -11 -55 -6 -20 37 -43 -18 0
-1 93 20 -86 91 -63 92 32 -26 81 53 0
1 -7 -90 -68 -87 -22 19 -28 -63 92 0
-1 -93 -49 2 74 -61 7 38 -50 -71 -28 0
-1 -93 49 -19 -24 -67 -61 -59 -79 -8 23 78 0
-1 -93 49 -19 24 76 91 65 -51 -92 18 -4 0
-1 -93 49 19 21 -69 87 -32 27 0
1 -7 -90 -68 -87 22 -11 -55 -6 -20 -37 -13 -80 -38 48 0
1 -7 -90 -68 -87 22 11 17 13 81 -4 0
1 -7 -90 -68 -87 22 -11 -55 -6 20 -41 -36 92 -71 34 -40 0
-1 -93 49 -19 24 -76 13 -27 44 -62 0
1 -7 90 -89 -48 -33 81 -40 55 -86 -44 0
-1 93 20 86 54 85 57 83 0
-1 93 20 -86 91 63 38 48 46 54 33 22 75 0
1 -7 90 89 59 -28 77 0
1 7 25 17 74 3 -61 -80 -91 0
-1 93 20 86 54 -85 -8 -5 66 10 27 0
-1 93 20 -86 91 63 38 48 46 -54 23 0
-1 -93 -49 2 74 -61 7 38 50 -47 -37 9 0
-1 -93 49 -19 -24 67 -45 -48 38 11 31 66 0
1 -7 90 -89 -48 33 69 41 -26 0
-1 93 20 -86 -91 3 -75 -54 11 -92 25 26 0
-1 -93 49 -19 24 76 91 -65 44 -6 -35 59 0
-1 93 20 -86 91 63 -38 -64 -49 -42 -24 0
1 -7 -90 -68 -87 22 -11 -55 -6 20 -41 36 0
-1 -93 49 -19 24 76 -91 48 11 90 0
-1 93 20 86 54 85 -57 41 37 18 79 51 0
-1 -93 49 -19 -24 67 45 -17 73 -11 0
1 -7 90 89 59 -28 -77 -75 -42 -63 -54 -49 -32 0
-1 93 20 -86 91 63 38 -48 90 -56 10 0
-1 -93 49 -19 -24 -67 -61 -59 -79 -8 23 -78 -73 0
-1 93 20 -86 -91 3 -75 -54 -11 0
1 -7 90 -89 -48 -33 81 40 82 84 4 0
-1 -93 49 19 21 69 -28 -14 85 23 0
-1 93 20 86 54 -85 8 45 50 -13 79 0
-1 -93 49 -19 -24 -67 61 -30 6 -64 18 43 0
-1 93 20 86 -54 26 -69 18 -45 0
1 -7 90 89 59 28 88 62 -84 19 37 0
-1 -93 49 -19 24 76 91 -65 44 6 28 31 -73 0
-1 93 20 86 54 85 -57 -41 59 0
-1 93 20 86 -54 -26 59 36 -52 -66 0
-1 93 20 86 54 -85 8 45 50 -13 -79 -87 -29 59 0
-1 -93 49 -19 -24 67 -45 48 21 0
-1 93 20 -86 91 -63 -92 -17 60 -76 -15 0
1 7 -25 -35 71 49 23 82 -38 0
1 -7 90 -89 -48 33 69 -41 16 0
1 -7 -90 68 47 11 8 -56 0
1 7 25 -17 -47 -41 -83 -61 -38 21 0
1 7 -25 35 -80 58 78 -87 0
-1 93 20 86 54 -85 -8 5 63 88 0
-1 93 20 -86 91 63 38 -48 90 56 23 69 0
-1 -93 49 -19 -24 67 45 -17 73 11 0
-1 -93 -49 2 74 -61 7 38 50 -47 37 -41 9 0
1 7 25 -17 -47 41 78 -21 10 0
1 -7 -90 68 47 11 8 56 0
1 -7 -90 -68 87 3 26 34 -13 0
1 -7 -90 -68 -87 22 -11 -55 6 -35 69 -75 0
1 -7 -90 -68 87 3 -26 0
1 -7 90 89 -59 92 -37 0
-1 -93 49 19 21 69 28 42 -68 -76 0
1 -7 -90 68 -47 66 92 -32 -81 0
-1 93 20 86 54 -85 -8 -5 -66 -43 -88 4 0
1 7 25 -17 -47 -41 -83 61 0
1 -7 90 -89 -48 33 69 -41 -16 0
1 -7 -90 68 -47 -66 -51 -67 -57 0
-1 -93 49 19 21 -69 87 -32 -27 -35 0
-1 -93 49 -19 24 76 91 65 -51 -92 -18 50 0
-1 -93 -49 2 74 -61 7 38 -50 71 23 0
-1 93 20 -86 -91 3 75 48 55 -77 0
-1 -93 -49 2 74 61 45 -86 -91 92 0
1 -7 90 89 59 28 -88 0
-1 -93 49 19 21 69 -28 14 24 -48 0
1 -7 -90 -68 87 -3 46 86 -13 0
-1 -93 -49 2 -74 28 -51 25 -57 0
-1 -93 49 -19 -24 -67 -61 59 89 16 87 7 64 0
-1 -93 49 19 21 69 -28 -14 85 -23 0
-1 93 20 -86 -91 3 -75 54 88 90 0
1 -7 -90 -68 -87 22 -11 55 66 26 0
-1 -93 49 -19 -24 -67 -61 -59 -79 -8 -23 -84 0
-1 93 20 86 -54 26 69 -46 0
-1 -93 49 -19 -24 -67 -61 -59 79 -14 0
-1 93 20 86 54 85 -57 41 -37 -88 0
-1 93 20 -86 91 63 -38 -64 49 72 27 -59 0
1 7 -25 -35 71 49 23 82 38 -44 0
1 -7 -90 -68 87 3 26 -34 0
-1 -93 49 -19 -24 -67 61 -30 6 64 -13 82 66 0
1 -7 90 -89 -48 -33 81 -40 55 -86 44 0
-1 -93 -49 2 74 -61 7 38 50 -47 37 41 0
-1 93 20 -86 -91 -3 58 9 -46 -24 0
-1 -93 49 19 21 69 28 42 68 54 0
1 -7 -90 68 47 11 -8 -75 -70 16 45 0
-1 93 20 86 -54 -26 59 36 52 -61 -84 0
1 7 -25 35 -80 58 -78 -47 -92 0
-1 -93 49 -19 -24 -67 -61 -59 79 14 90 -65 -30 -89 0
-1 -93 49 -19 -24 67 45 -17 -73 62 9 41 -57 0
-1 -93 49 -19 24 -76 13 -27 -44 0
1 -7 90 89 -59 -92 40 5 43 0
-1 93 20 -86 91 63 -38 -64 49 72 -27 68 34 73 0
-1 -93 49 19 -21 18 -68 -25 -54 0
-1 -93 -49 -2 -31 -65 -28 27 21 0
1 -7 -90 -68 -87 -22 19 -28 63 0
1 7 25 17 74 -3 -54 -47 -86 22 -49 6 0
-1 93 20 -86 -91 3 75 -48 64 0
-1 -93 49 -19 -24 67 45 -17 -73 62 -9 0
1 -7 90 -89 -48 -33 81 -40 55 86 -32 80 0
-1 93 20 -86 91 63 38 48 46 54 -33 25 18 0
-1 93 20 86 54 -85 -8 -5 -66 43 0
1 7 25 17 74 3 -61 -80 91 -92 0
1 -7 -90 -68 -87 22 -11 -55 6 -35 -69 0
-1 93 20 -86 91 63 38 48 -46 81 0
-1 -93 -49 -2 -31 -65 28 39 -42 0
1 -7 90 -89 -48 -33 81 40 82 -84 0
-1 93 -20 56 -69 -22 64 73 -35 -83 0
-1 -93 -49 2 74 -61 7 38 -50 71 -23 0
1 -7 -90 68 -47 -66 -51 67 0
1 -7 90 89 59 28 88 -62 0
-1 -93 49 -19 -24 -67 61 30 -43 48 0
-1 -93 49 19 -21 18 68 -65 0
1 7 25 -17 -47 -41 -83 -61 -38 -21 0
1 -7 -90 -68 -87 -22 19 28 -60 -85 47 0
-1 93 20 -86 -91 -3 58 -9 70 0
1 -7 -90 68 47 11 -8 75 -65 36 45 -55 -35 0
1 7 -25 -35 -71 14 27 -21 0
1 -7 -90 -68 -87 22 -11 -55 -6 20 -41 -36 -92 -32 0
1 -7 -90 68 47 11 -8 -75 70 24 26 0
-1 -93 49 -19 24 76 91 65 -51 -92 18 4 -37 16 0
1 7 25 -17 -47 41 -78 -86 81 0
-1 -93 49 19 -21 18 68 65 0
1 7 25 17 74 -3 -54 -47 86 72 0
1 7 25 -17 -47 41 -78 86 -73 54 29 0
-1 93 20 86 54 -85 8 -45 -59 0
1 -7 -90 68 -47 -66 51 -31 -34 -29 0
1 7 -25 35 80 -72 -28 71 0
-1 -93 -49 2 74 -61 7 38 50 -47 -37 -9 -28 0
-1 93 20 -86 -91 3 75 48 55 77 69 0
1 -7 90 -89 48 -42 33 31 0
-1 93 -20 56 69 -57 47 0
-1 93 20 -86 -91 3 -75 -54 11 -92 25 -26 0
1 7 -25 -35 -71 -14 24 0
1 7 25 17 74 -3 -54 -47 86 -72 0
-1 -93 49 -19 -24 -67 -61 59 89 16 -87 77 78 0
-1 -93 -49 2 74 61 45 -86 91 0
1 -7 90 89 -59 -92 40 5 -43 32 0
-1 -93 -49 2 -74 28 -51 -25 89 0
-1 -93 49 -19 24 76 91 65 -51 92 54 -83 31 44 0
-1 -93 49 19 21 -69 87 32 68 38 -34 -90 0
-1 93 20 -86 -91 3 -75 -54 11 -92 -25 52 -83 0
-1 93 20 -86 91 -63 -92 17 59 87 0
-1 93 20 86 -54 -26 59 -36 23 0
-1 -93 49 19 21 69 -28 -14 -85 67 0
1 7 -25 -35 71 49 23 -82 12 64 76 0
-1 -93 -49 2 -74 -28 -67 0
-1 -93 49 19 21 -69 87 -32 -27 35 0
-1 93 20 -86 -91 3 75 48 -55 -49 42 0
1 -7 90 -89 48 42 -64 0
1 7 25 -17 -47 41 78 -21 -10 0
-1 93 -20 56 69 -57 -47 -67 54 0
1 7 -25 35 80 72 4 0
1 7 25 -17 -47 -41 83 -21 0
-1 93 20 -86 91 63 -38 -64 49 -72 62 66 21 -4 0
-1 93 20 -86 91 63 38 48 46 54 33 -22 78 0
1 7 -25 -35 71 49 23 -82 12 -64 0
-1 93 20 -86 -91 -3 58 -9 -70 0
1 -7 90 89 59 -28 -77 -75 -42 63 0
1 7 -25 35 80 72 -4 -40 0
-1 93 -20 56 -69 -22 64 73 35 0
1 7 25 -17 47 -34 -54 0
1 -7 90 89 -59 -92 -40 0
-1 -93 49 19 21 69 28 -42 -86 53 0
-1 -93 -49 -2 -31 -65 28 39 42 0
1 7 -25 -35 71 49 23 82 38 44 0
-1 -93 -49 -2 -31 -65 -28 27 -21 0
-1 93 20 86 54 85 -57 41 -37 88 -29 0
-1 -93 -49 -2 -31 65 69 -44 -33 0
-1 -93 49 -19 -24 -67 61 -30 6 64 -13 82 -66 0
-1 93 20 86 -54 26 -69 18 45 34 90 0
1 7 -25 -35 -71 14 -27 0
-1 93 20 -86 91 63 -38 -64 -49 42 -56 62 37 0
-1 93 20 -86 91 63 -38 -64 49 72 -27 -68 0
1 -7 90 -89 -48 -33 81 40 82 84 -4 79 57 0
-1 93 20 86 54 85 -57 41 37 18 -79 0
1 -7 90 89 59 -28 -77 -75 -42 -63 -54 -49 32 0
-1 -93 49 19 21 69 -28 -14 -85 -67 55 92 0
1 -7 -90 -68 -87 22 -11 -55 -6 20 41 -91 0
1 7 25 17 -74 47 69 0
-1 -93 49 -19 -24 -67 -61 59 -89 0
-1 93 -20 -56 -3 0
1 -7 90 89 59 -28 -77 75 -14 -6 0
-1 -93 49 -19 -24 -67 -61 59 89 16 -87 -77 -8 0
-1 -93 49 -19 -24 -67 61 -30 6 64 -13 -82 -68 -51 -57 0
1 -7 -90 68 47 11 -8 75 -65 36 -45 0
-1 93 20 -86 91 63 38 -48 -90 -84 89 68 0
-1 -93 49 19 21 69 -28 14 -24 26 5 91 33 0
1 7 25 -17 -47 41 -78 86 -73 -54 -67 0
-1 93 20 86 -54 -26 59 -36 -23 0
-1 -93 49 -19 -24 -67 -61 59 89 16 -87 -77 8 79 0
-1 93 20 -86 -91 3 75 48 -55 -49 -42 63 0
1 -7 90 -89 -48 -33 81 -40 -55 0
1 -7 -90 68 47 -11 -16 31 0
1 7 -25 -35 71 -49 85 0
1 -7 -90 -68 -87 22 -11 55 66 -26 0
-1 93 20 -86 91 63 38 48 46 54 -33 -25 0
1 -7 -90 68 47 11 -8 75 65 17 0
-1 -93 49 -19 24 76 -91 48 11 -90 -12 -56 0
-1 93 20 86 -54 -26 -59 0
-1 -93 49 -19 -24 -67 61 -30 6 64 13 -29 0
-1 -93 49 -19 24 76 91 -65 44 -6 35 -64 0
-1 93 20 -86 91 63 -38 -64 49 72 27 59 22 0
-1 -93 49 19 -21 -18 70 69 0
-1 93 -20 56 69 57 73 -3 0
-1 93 20 -86 -91 3 -75 54 -88 -16 -51 57 11 0
1 -7 -90 -68 -87 22 -11 -55 -6 -20 37 -43 18 0
-1 93 20 -86 -91 3 75 48 -55 -49 -42 -63 0
1 -7 -90 -68 -87 -22 19 28 -60 85 -66 62 -25 -4 0
1 -7 -90 -68 -87 -22 19 28 60 -9 33 92 0
1 7 25 -17 47 -34 54 -83 0
-1 93 20 -86 91 63 -38 -64 -49 42 -56 62 -37 65 0
-1 93 20 86 54 -85 8 45 50 -13 -79 -87 -29 -59 89 0
-1 93 20 -86 91 -63 92 32 -26 -81 36 0
-1 -93 49 19 21 69 -28 14 24 48 0
1 -7 -90 68 47 11 -8 75 -65 36 45 -55 35 0
-1 -93 49 -19 24 76 -91 48 11 -90 -12 56 0
-1 93 -20 56 -69 22 -21 26 47 0
1 -7 -90 -68 87 -3 -46 76 0
-1 93 20 86 -54 26 -69 18 45 -34 0
-1 -93 -49 2 -74 28 -51 25 57 0
-1 93 20 -86 -91 -3 58 9 46 57 87 -12 67 0
1 -7 -90 -68 -87 22 -11 55 -66 0
-1 -93 49 -19 -24 -67 -61 -59 -79 8 0
1 -7 90 89 59 28 88 62 84 0
-1 93 20 -86 91 63 -38 -64 49 -72 62 -66 -58 52 0
1 -7 -90 -68 -87 -22 19 28 60 9 0
-1 -93 -49 2 -74 28 51 0
-1 -93 49 -19 -24 -67 -61 59 89 16 -87 -77 8 -79 0
-1 93 20 86 -54 -26 59 36 -52 66 -88 0
-1 93 20 86 -54 26 -69 18 45 34 -90 8 0
1 7 -25 -35 71 49 -23 0
1 -7 90 89 59 -28 -77 -75 -42 -63 54 0
-1 93 20 -86 -91 3 -75 -54 11 92 -30 0
-1 -93 49 -19 24 -76 13 27 53 31 0
-1 -93 49 -19 -24 67 -45 -48 38 -11 18 29 78 0
1 7 25 -17 -47 41 -78 86 -73 -54 67 0
-1 -93 -49 -2 -31 65 -69 -27 0
-1 -93 49 -19 -24 67 45 -17 -73 62 9 41 57 0
-1 -93 49 19 21 -69 -87 0
-1 -93 -49 2 74 -61 7 -38 0
-1 -93 -49 2 74 -61 7 38 50 -47 -37 -9 28 0
1 -7 90 -89 -48 33 -69 64 -74 0
1 7 -25 -35 71 49 23 -82 -12 85 0
-1 93 -20 56 -69 -22 -64 0
1 -7 -90 -68 -87 -22 19 28 -60 85 66 -65 0
-1 93 20 86 -54 26 -69 18 45 34 -90 -8 -60 0
-1 -93 49 19 21 -69 87 32 68 38 34 0
-1 93 20 -86 -91 -3 -58 88 45 33 0
1 -7 -90 68 47 11 -8 -75 70 24 -26 0
1 7 25 -17 -47 41 -78 86 73 -13 0
1 -7 -90 -68 -87 22 11 17 13 81 4 0
-1 93 20 -86 91 63 38 -48 -90 -84 89 -68 0
1 -7 -90 -68 -87 -22 19 28 60 -9 33 -92 -18 0
-1 93 20 -86 -91 3 -75 54 -88 -16 -51 -57 0
1 -7 90 -89 -48 -33 81 40 -82 0
1 -7 -90 68 -47 66 92 -32 81 0
1 -7 90 89 59 -28 -77 -75 42 84 56 0
-1 93 -20 -56 3 -85 0
1 -7 -90 -68 -87 22 -11 -55 6 35 64 0
1 -7 -90 -68 -87 -22 19 28 -60 85 66 65 0
1 -7 90 -89 -48 33 -69 64 74 0
-1 93 20 -86 91 63 -38 -64 49 -72 62 -66 -58 -52 0
1 -7 -90 68 -47 66 -92 0
-1 93 20 -86 91 63 38 -48 90 56 -23 0
-1 -93 49 -19 -24 67 45 -17 -73 -62 0
-1 -93 49 -19 24 76 91 -65 44 6 -28 -55 0
-1 93 20 -86 -91 3 -75 -54 11 -92 -25 -52 0
-1 -93 49 19 21 69 28 -42 -86 -53 88 0
-1 93 -20 56 -69 22 21 35 48 0
-1 93 20 -86 91 -63 -92 -17 -60 19 0
1 -7 90 -89 -48 -33 81 40 82 84 -4 -79 0
1 -7 -90 68 -47 66 92 32 -6 0
1 -7 -90 -68 -87 22 11 -17 0
-1 -93 49 -19 -24 -67 61 -30 6 -64 18 -43 0
1 -7 90 89 59 -28 -77 -75 42 -84 0
-1 -93 49 -19 -24 67 -45 -48 -38 0
-1 -93 49 -19 -24 -67 61 -30 6 64 -13 -82 68 38 0
-1 -93 -49 2 74 61 45 -86 -91 -92 0
-1 93 20 -86 -91 -3 -58 88 -45 0
-1 -93 -49 2 -74 28 -51 -25 -89 0
1 -7 -90 -68 -87 22 -11 -55 -6 20 41 91 0
-1 93 20 86 54 -85 -8 5 -63 52 0
-1 -93 49 -19 -24 67 45 -17 -73 62 9 -41 0
-1 -93 49 -19 24 76 91 -65 44 -6 -35 -59 0
-1 -93 49 -19 24 76 91 -65 -44 0
1 7 25 17 74 -3 -54 -47 -86 22 49 -37 0
1 7 25 -17 -47 -41 83 21 0
1 7 -25 -35 71 -49 -85 -63 90 26 0
1 7 -25 -35 -71 -14 -24 0
-1 -93 49 -19 24 -76 -13 44 -9 54 0
1 -7 -90 -68 -87 22 -11 -55 -6 20 -41 -36 -92 32 0
-1 93 20 -86 91 63 38 48 46 54 33 22 -75 0
1 7 25 17 74 -3 -54 -47 -86 -22 -9 0
-1 -93 49 -19 -24 -67 61 -30 6 64 -13 -82 -68 51 0
-1 93 20 -86 -91 -3 58 9 46 57 -87 71 0
-1 -93 49 -19 24 -76 13 -27 44 62 0
1 -7 -90 -68 -87 22 -11 -55 -6 -20 -37 -13 -80 -38 -48 0
1 7 25 17 74 3 61 0
-1 93 20 86 -54 -26 59 36 52 -61 84 -83 0
1 -7 90 89 59 -28 -77 -75 42 84 -56 70 -30 0
-1 -93 49 19 21 69 28 -42 -86 -53 -88 0
-1 -93 -49 2 74 61 -45 91 0
-1 93 20 -86 91 63 38 48 46 -54 -23 -50 0
-1 -93 49 -19 -24 -67 61 -30 6 64 13 29 -46 0
1 -7 90 89 -59 92 37 69 93 -20 0
-1 93 20 86 54 85 -57 -41 -59 0
-1 93 -20 56 69 -57 -47 67 0
1 -7 90 -89 -48 33 -69 -64 -92 -15 0
-1 -93 49 -19 -24 67 -45 -48 38 11 31 -66 0
-1 -93 49 19 21 69 28 42 -68 76 0
-1 -93 49 19 21 69 28 42 68 -54 0
-1 93 20 -86 91 -63 -92 17 59 -87 0
-1 -93 49 19 21 69 -28 14 -24 26 -5 38 0
-1 93 20 86 54 85 -57 41 37 -18 0
1 -7 -90 68 47 11 -8 -75 -70 16 -45 0
1 -7 -90 68 47 11 -8 75 -65 36 45 55 0
-1 -93 -49 -2 -31 -65 28 -39 75 0
-1 93 20 86 -54 26 -69 18 45 34 -90 -8 60 0
1 -7 -90 -68 87 3 26 34 13 0
1 -7 -90 -68 -87 -22 19 28 -60 -85 -47 0
1 -7 -90 68 -47 -66 51 -31 34 0
-1 -93 49 -19 -24 67 -45 -48 38 -11 18 -29 0
-1 -93 -49 -2 -31 65 69 -44 33 -90 0
1 7 -25 35 -80 58 -78 -47 92 0
-1 -93 49 -19 -24 -67 61 30 43 38 0
-1 -93 49 -19 -24 -67 61 30 43 -38 -58 0
-1 -93 49 -19 24 76 -91 -48 12 -64 -2 0
-1 -93 49 -19 -24 -67 61 -30 -6 0
1 -7 90 89 59 -28 -77 75 14 0
1 7 -25 35 -80 58 78 87 0
-1 93 20 -86 -91 3 -75 54 -88 16 0
-1 93 20 -86 91 63 38 -48 90 -56 -10 0
-1 93 -20 56 -69 -22 64 -73 63 0
-1 93 -20 56 69 57 -73 16 0
1 -7 -90 -68 -87 22 -11 -55 -6 -20 37 43 0
1 -7 -90 -68 87 -3 46 86 13 0
1 7 -25 35 -80 -58 -30 0
1 -7 -90 68 -47 -66 -51 -67 57 55 0
-1 93 -20 56 -69 -22 64 73 -35 83 0
-1 -93 49 19 21 69 -28 14 -24 26 5 91 -33 0
-1 93 -20 56 -69 -22 64 -73 -63 0
-1 93 20 86 54 -85 8 45 50 -13 -79 -87 -29 -59 -89 0
1 7 25 17 -74 47 -69 -62 0
-1 -93 49 -19 24 76 91 65 -51 92 54 -83 31 -44 26 0
1 7 -25 -35 71 -49 -85 63 -48 0
-1 -93 49 19 21 -69 87 32 68 38 -34 90 0
-1 -93 49 -19 24 76 91 65 -51 92 54 83 26 0
-1 -93 49 -19 -24 -67 -61 -59 -79 -8 23 -78 73 0
-1 93 -20 56 69 57 -73 -16 0
1 -7 90 89 59 -28 -77 -75 42 84 -56 -70 0
-1 93 20 -86 91 63 -38 -64 49 -72 -62 -30 0
-1 -93 49 -19 24 76 -91 -48 12 -64 2 0
1 -7 -90 -68 -87 22 -11 -55 -6 -20 -37 13 -65 0
-1 -93 49 -19 -24 -67 -61 -59 79 14 -90 10 0
-1 -93 -49 -2 31 0
-1 93 20 -86 91 63 38 -48 -90 -84 -89 -27 0
-1 -93 -49 2 74 -61 7 38 50 47 0
1 -7 90 89 -59 92 37 69 -93 -32 0
1 -7 -90 -68 -87 22 -11 -55 -6 20 -41 -36 92 71 0
-1 -93 49 -19 24 76 91 65 -51 -92 -18 -50 -60 0
1 -7 -90 -68 -87 22 -11 -55 -6 -20 -37 -13 80 0
-1 93 20 -86 91 63 -38 -64 -49 42 56 0
-1 -93 49 -19 -24 -67 61 30 43 -38 58 0
-1 93 20 -86 -91 3 -75 -54 11 92 30 0
-1 93 20 -86 91 -63 92 -32 -24 28 0
-1 93 20 86 54 85 -57 41 -37 88 29 45 0
-1 93 20 -86 -91 3 75 48 -55 49 21 0
1 -7 -90 -68 -87 22 -11 -55 -6 -20 -37 13 65 0
-1 -93 49 -19 -24 -67 -61 59 89 -16 0
1 7 25 17 74 -3 -54 47 -2 0
-1 93 20 -86 91 -63 -92 -17 -60 -19 0
1 7 -25 -35 -71 14 27 21 -40 0
-1 93 20 86 -54 26 69 46 -67 0
1 -7 -90 -68 -87 -22 -19 -11 0
-1 93 20 -86 91 63 38 -48 -90 84 36 0
-1 93 20 -86 -91 3 -75 -54 11 -92 -25 52 83 0
-1 93 20 -86 91 -63 92 32 26 -34 0
-1 93 -20 56 69 -57 -47 -67 -54 0
-1 93 20 86 54 -85 8 45 50 -13 -79 87 0
1 -7 -90 -68 87 -3 46 -86 0
-1 93 20 -86 -91 -3 58 9 -46 24 0
1 -7 -90 68 -47 -66 -51 -67 57 -55 91 0
-1 93 20 -86 -91 3 -75 54 -88 -16 51 0
-1 93 20 86 -54 26 -69 -18 0
-1 93 20 -86 91 63 -38 -64 49 72 -27 68 -34 0
-1 -93 49 19 21 -69 87 32 68 -38 -27 0
-1 -93 49 -19 -24 -67 -61 59 89 16 87 7 -64 0
-1 -93 -49 2 -74 -28 67 0
-1 -93 -49 -2 -31 -65 -28 -27 0
1 7 25 17 74 -3 -54 47 2 0
-1 -93 49 19 21 69 -28 -14 -85 -67 55 -92 0
1 7 25 17 74 -3 -54 -47 -86 22 49 37 0
-1 -93 49 -19 -24 -67 61 -30 6 -64 -18 0
-1 93 20 -86 91 63 -38 -64 -49 42 -56 -62 0
-1 -93 49 -19 24 76 91 65 -51 -92 18 4 37 0
-1 93 20 86 -54 -26 59 36 -52 66 88 0
-1 93 20 -86 -91 -3 -58 88 45 -33 0
-1 -93 49 19 -21 -18 -70 -9 0
-1 -93 49 19 21 69 -28 -14 -85 -67 -55 0
-1 -93 49 -19 -24 -67 -61 -59 79 14 90 -65 30 0
1 -7 -90 -68 -87 22 -11 -55 -6 20 -41 -36 92 -71 -34 0
-1 -93 49 -19 24 -76 13 27 53 -31 0
-1 -93 49 -19 -24 67 45 17 -62 0
-1 -93 -49 2 74 61 -45 -91 0
-1 93 -20 56 -69 22 -21 26 -47 0
1 7 25 17 -74 -47 61 0
-1 -93 49 -19 -24 67 -45 -48 38 11 -31 0
1 -7 -90 -68 -87 22 -11 -55 6 -35 69 75 0
1 -7 -90 -68 -87 -22 19 -28 -63 -92 0
1 7 -25 -35 71 -49 -85 -63 90 -26 0
-1 93 20 -86 91 63 -38 -64 49 -72 62 66 21 4 0
-1 93 20 -86 91 63 -38 64 0
-1 -93 49 -19 -24 -67 61 30 -43 -48 0
-1 -93 49 -19 24 76 91 65 -51 -92 18 4 -37 -16 -53 0
1 -7 -90 -68 -87 22 -11 -55 -6 -20 -37 -13 -80 38 0
-1 93 20 -86 91 63 -38 -64 49 72 -27 68 34 -73 0
-1 93 20 86 54 85 57 -83 0
1 -7 -90 68 47 11 -8 75 65 -17 -18 0
-1 -93 49 19 -21 18 -68 25 75 0
-1 93 20 -86 91 63 38 -48 90 56 23 -69 0
-1 93 20 -86 -91 3 75 -48 -64 0
-1 -93 49 -19 24 76 91 65 51 87 0
-1 -93 49 -19 24 76 91 65 -51 92 -54 0
-1 93 20 86 54 -85 -8 -5 -66 -43 88 0
-1 -93 49 -19 24 76 91 65 -51 -92 -18 -50 60 0
1 7 25 -17 -47 41 -78 86 -73 54 -29 -46 0
1 7 25 -17 47 -34 54 83 0
-1 93 20 -86 91 -63 92 32 -26 -81 -36 0
-1 -93 49 -19 24 76 -91 48 -11 0
1 -7 90 89 59 -28 -77 -75 42 84 -56 70 30 0
1 -7 -90 68 -47 -66 51 31 19 0
1 -7 90 -89 -48 33 -69 -64 92 0
1 7 25 17 -74 47 -69 62 0
-1 93 20 86 54 -85 -8 -5 66 10 -27 0
-1 93 20 -86 -91 3 75 48 -55 49 -21 0
-1 -93 49 19 21 69 28 -42 86 47 0
-1 -93 49 -19 -24 -67 -61 -59 79 14 90 65 0
-1 93 20 -86 91 63 -38 -64 49 -72 62 66 -21 0
1 -7 90 -89 -48 -33 81 -40 55 86 -32 -80 0
1 7 25 17 -74 -47 -61 0
1 -7 -90 -68 -87 22 11 17 13 -81 0
-1 93 20 86 54 -85 -8 -5 -66 -43 -88 -4 0
-1 -93 -49 -2 -31 65 -69 27 0
-1 -93 -49 2 74 -61 -7 0
1 -7 -90 -68 -87 22 11 17 -13 28 0
-1 -93 49 -19 -24 -67 -61 59 89 16 87 -7 0
-1 -93 49 -19 -24 -67 -61 -59 79 14 -90 -10 0
-1 93 20 -86 91 -63 92 -32 -24 -28 0
1 7 25 17 74 -3 -54 -47 -86 22 -49 -6 0
1 -7 -90 -68 -87 -22 19 28 -60 85 -66 62 -25 4 0
1 7 -25 -35 -71 14 27 21 40 8 -2 0
1 -7 -90 68 47 11 -8 -75 70 -24 -21 0
1 -7 -90 -68 -87 -22 19 28 60 -9 33 -92 18 0
1 7 -25 35 -80 -58 30 0
-1 93 20 86 54 -85 8 45 -50 -46 0
1 -7 -90 -68 -87 -22 19 28 -60 85 -66 62 25 0
-1 93 -20 56 -69 22 -21 -26 36 0
-1 -93 49 -19 24 76 91 65 -51 92 54 -83 31 -44 -26 0
-1 -93 49 -19 24 -76 13 27 -53 0
-1 93 20 -86 91 63 38 48 46 -54 -23 50 0
1 -7 -90 68 47 -11 -16 -31 -23 0
1 7 -25 35 80 -72 28 -14 0
1 -7 -90 -68 -87 22 -11 -55 -6 20 -41 -36 92 -71 34 40 0
-1 -93 49 -19 24 76 91 65 -51 92 54 83 -26 0
1 -7 90 89 59 -28 -77 75 -14 6 0
-1 -93 49 -19 24 76 -91 -48 -12 0
1 -7 90 -89 48 42 64 0
1 -7 90 89 -59 92 37 -69 0
-1 -93 49 -19 -24 -67 61 -30 6 64 -13 -82 68 -38 0
1 7 -25 35 80 -72 -28 -71 0
1 -7 90 -89 -48 -33 81 40 82 84 -4 79 -57 0
-1 93 20 86 54 -85 8 45 50 13 0
1 7 -25 35 -80 58 -78 47 0
-1 93 20 -86 91 63 -38 -64 49 -72 -62 30 0
1 7 25 -17 -47 41 78 21 0
1 7 -25 -35 71 -49 -85 63 48 0
1 -7 -90 68 -47 -66 -51 -67 57 -55 -91 0
-1 93 20 -86 -91 -3 -58 -88 0
-1 -93 -49 2 74 -61 7 38 50 -47 37 -41 -9 0
1 7 -25 -35 71 -49 -85 -63 -90 10 0
-1 93 20 86 54 -85 8 45 50 -13 -79 -87 29 0
1 7 -25 -35 -71 14 27 21 40 8 2 0
-1 93 20 -86 -91 -3 58 9 46 -57 0
1 -7 -90 68 47 11 -8 75 -65 -36 0
1 -7 -90 -68 -87 -22 19 28 -60 85 -66 -62 70 0
-1 -93 49 -19 -24 67 45 17 62 0
1 7 25 17 74 -3 -54 -47 -86 -22 9 0
1 7 25 17 74 3 -61 80 86 0
-1 -93 49 -19 24 -76 -13 -44 77 0
-1 -93 49 -19 24 76 91 65 -51 -92 18 4 -37 -16 53 0
1 7 25 17 74 -3 54 0
-1 -93 49 19 -21 18 -68 25 -75 0
-1 -93 49 19 21 69 -28 14 -24 26 -5 -38 0
-1 93 20 86 54 -85 8 -45 59 0
-1 93 20 -86 -91 3 75 48 55 77 -69 0
-1 -93 49 -19 24 -76 -13 44 -9 -54 0
-1 -93 49 -19 -24 -67 -61 59 89 16 -87 77 -78 0
-1 -93 49 -19 24 76 91 65 -51 92 54 -83 -31 0
-1 -93 49 -19 -24 67 -45 48 -21 77 0
1 7 25 -17 47 34 -72 20 0
-1 93 20 -86 91 63 -38 -64 -49 -42 24 0
1 -7 90 89 -59 -92 40 -5 93 0
-1 93 -20 -56 3 85 0
1 7 25 -17 -47 41 -78 86 73 13 0
1 -7 90 -89 48 -42 33 -31 0
-1 93 20 -86 -91 3 -75 54 88 -90 0
-1 93 20 86 54 -85 -8 5 63 -88 0
-1 -93 -49 2 74 61 45 86 -66 0
1 -7 90 89 59 28 88 62 -84 -19 -26 0
-1 93 -20 56 -69 22 -21 -26 -36 -10 0
1 -7 90 89 -59 92 37 69 -93 32 0
-1 -93 49 -19 24 -76 -13 44 9 0
-1 -93 -49 -2 -31 65 69 -44 33 90 0
1 -7 -90 -68 -87 -22 19 28 60 -9 -33 0
1 7 -25 -35 -71 14 27 21 40 -8 0
-1 -93 49 -19 24 76 91 -65 44 -6 35 64 0
-1 93 20 86 -54 -26 59 36 52 -61 84 83 0
1 -7 90 -89 -48 -33 -81 -58 0
-1 -93 49 19 -21 18 -68 -25 54 0
-1 93 20 -86 91 63 38 48 46 54 33 -22 -78 0
-1 93 -20 56 -69 22 21 -35 0
-1 93 20 86 54 -85 -8 5 -63 -52 0
-1 93 20 -86 91 -63 -92 -17 60 -76 15 0
1 -7 -90 -68 -87 -22 19 28 -60 85 -66 -62 -70 0
1 -7 -90 68 -47 -66 51 31 -19 0
1 -7 90 -89 -48 33 69 41 26 0
1 7 25 17 74 3 -61 -80 91 92 0
1 -7 -90 68 47 11 -8 -75 -70 -16 0
-1 -93 49 -19 -24 -67 61 -30 6 64 -13 -82 -68 -51 57 0
1 -7 90 89 -59 92 37 69 93 20 0
-1 93 20 -86 91 63 38 48 46 54 -33 25 -18 0
1 -7 -90 68 47 -11 16 -51 0
-1 -93 49 19 21 69 -28 14 -24 -26 0
-1 -93 -49 2 74 61 45 86 66 52 0
1 7 25 -17 -47 41 -78 86 -73 54 -29 46 0
-1 -93 -49 2 74 -61 7 38 -50 -71 28 0
-1 93 20 -86 91 -63 -92 17 -59 0
1 7 -25 -35 71 49 23 -82 12 64 -76 0
1 -7 -90 -68 -87 22 11 17 -13 -28 0
-1 93 20 -86 91 -63 92 32 -26 81 -53 0
-1 93 20 -86 -91 -3 58 9 46 57 87 12 0
-1 93 20 -86 91 63 38 48 -46 -81 0
1 -7 90 89 59 28 88 62 -84 -19 26 -67 0
1 7 25 17 74 3 -61 80 -86 0
-1 -93 -49 -2 -31 65 69 44 0
-1 -93 49 19 21 -69 87 32 -68 0
-1 93 20 -86 91 -63 92 32 26 34 0
1 -7 -90 68 -47 66 92 32 6 0
-1 -93 49 -19 24 -76 -13 -44 -77 0
1 -7 90 -89 -48 -33 -81 58 0
-1 93 -20 56 69 57 73 3 0
-1 -93 49 -19 24 76 91 -65 44 6 28 31 73 0
1 -7 90 89 59 28 88 62 -84 19 -37 0
-1 93 -20 56 -69 22 21 35 -48 0
-1 -93 49 -19 -24 67 -45 48 -21 -77 0
-1 93 20 -86 91 63 38 -48 -90 -84 -89 27 0
-1 -93 49 19 -21 -18 70 -69 0
-1 93 -20 56 -69 22 -21 -26 -36 10 -51 0
1 -7 -90 68 -47 -66 51 -31 -34 29 0
1 7 25 -17 -47 41 -78 -86 -81 0
-1 -93 49 -19 24 76 -91 -48 12 64 0
1 -7 -90 -68 -87 22 -11 -55 6 35 -64 0
1 7 25 -17 -47 -41 -83 -61 38 0
-1 93 20 86 54 -85 8 45 -50 46 0
-1 93 20 -86 91 63 -38 -64 49 72 27 59 -22 0
-1 -93 -49 2 74 61 45 86 66 -52 0
1 7 25 -17 47 34 -72 -20 63 0
-1 -93 49 -19 24 76 91 65 51 -87 0
1 -7 90 -89 48 -42 -33 -9 0
-1 93 20 86 54 85 -57 41 -37 88 29 -45 0
-1 -93 49 -19 24 76 91 -65 44 6 -28 55 0
1 -7 90 -89 48 -42 -33 9 0
1 7 -25 -35 71 -49 -85 -63 -90 -10 0
1 -7 90 89 -59 -92 40 -5 -93 0
1 -7 90 -89 -48 33 -69 -64 -92 15 0
1 7 25 -17 47 34 -72 -20 -63 0
-1 93 20 -86 91 63 38 -48 -90 84 -36 0
1 -7 -90 68 47 11 -8 -75 70 -24 21 0
1 -7 90 89 59 28 88 62 -84 -19 26 67 0
-1 -93 49 -19 -24 67 -45 -48 38 -11 18 29 -78 0
-1 93 20 86 54 85 -57 41 37 18 79 -51 0
-1 93 20 -86 91 63 -38 -64 49 -72 62 -66 58 0
1 -7 -90 68 47 -11 16 51 0
-1 -93 49 19 21 -69 87 32 68 -38 27 0
-1 -93 49 -19 -24 -67 -61 -59 79 14 90 -65 -30 89 0
-1 93 20 86 54 -85 -8 -5 66 -10 0
-1 -93 -49 -2 -31 -65 28 -39 -75 0
1 -7 -90 -68 -87 -22 -19 11 0
1 -7 90 -89 -48 -33 81 -40 55 86 32 0
-1 -93 49 -19 -24 67 -45 -48 38 -11 -18 0
1 -7 -90 -68 87 -3 -46 -76 0
-1 93 20 86 -54 -26 59 36 52 61 0
-1 -93 49 19 -21 -18 -70 9 0
-1 93 20 -86 -91 -3 58 9 46 57 87 -12 -67 0
-1 93 20 -86 -91 3 -75 54 -88 -16 -51 57 -11 0
-1 -93 49 -19 24 76 -91 48 11 -90 12 0
