c NeuroCodeBench 2.0 CNF formula with verdict Unsat
p cnf 81 423
-1 19 -68 -66 -34 80 -11 9 -26 -52 -63 -74 53 0
-1 19 -68 -66 -34 80 11 -49 -2 42 3 46 0
1 4 58 -75 -25 78 -54 9 0
-1 19 -68 -66 -34 80 11 -49 2 -15 -40 0
1 -4 -43 -58 16 53 68 0
-1 -19 64 -11 23 46 -65 42 9 -69 38 -81 28 0
-1 19 68 38 -7 28 -25 -74 -80 34 -16 -66 0
1 -4 -43 -58 16 53 -68 28 0
1 -4 -43 -58 -16 8 68 -17 54 0
-1 19 68 38 -7 28 -25 -74 -80 34 -16 66 35 0
-1 19 68 38 -7 28 -25 -74 80 -75 -59 -9 -61 0
-1 19 -68 -66 -34 80 -11 9 26 73 -46 0
1 -4 43 57 -58 20 -19 54 0
-1 19 -68 66 -9 12 -74 30 78 21 0
1 4 -58 -77 -33 0
1 4 58 -75 25 9 43 -56 72 0
-1 19 68 38 7 -66 6 36 -21 -46 0
-1 -19 64 -11 23 46 -65 42 -9 73 59 0
-1 -19 -64 40 81 23 -47 -29 0
-1 19 68 38 -7 28 -25 -74 80 -75 59 -71 -4 56 10 0
-1 19 68 38 -7 28 -25 -74 80 75 2 -66 -41 -69 0
-1 19 68 38 7 66 67 -14 69 0
-1 19 68 38 7 -66 6 36 21 73 63 0
1 -4 43 -57 60 71 19 -2 0
-1 -19 -64 40 -81 28 -35 25 -48 0
-1 -19 64 -11 23 46 -65 42 9 -69 38 81 0
1 -4 43 57 -58 20 -19 -54 -49 0
-1 19 68 38 7 66 -67 27 -33 -14 0
-1 19 68 38 -7 28 25 63 -57 74 58 -50 0
-1 -19 -64 -40 -54 63 9 -77 13 66 0
-1 -19 64 -11 -23 74 18 -17 27 0
1 4 58 75 79 8 48 0
-1 -19 -64 -40 -54 -63 -55 0
1 -4 -43 -58 -16 -8 0
-1 19 68 38 7 -66 6 36 21 -73 0
-1 19 68 38 7 -66 6 -36 -12 -43 15 0
-1 -19 64 11 81 77 -2 -50 36 -38 -47 0
-1 19 -68 66 9 -48 -11 -26 -24 0
-1 -19 64 -11 23 46 -65 42 -9 -73 33 3 -81 0
-1 -19 -64 40 -81 28 35 20 36 -34 0
-1 19 -68 -66 -34 80 -11 9 -26 -52 -63 74 16 0
-1 -19 64 -11 23 46 -65 42 9 -69 -38 0
1 4 -58 77 35 65 39 0
1 -4 43 57 58 51 53 60 -18 -8 0
-1 19 -68 -66 -34 80 -11 9 -26 52 -30 0
1 -4 43 57 -58 -20 0
-1 -19 -64 40 81 23 47 71 79 0
1 -4 43 -57 60 71 19 2 0
1 4 58 -75 25 9 -43 0
-1 19 -68 66 9 -48 11 -4 0
-1 -19 -64 -40 54 78 14 -7 22 0
1 4 58 75 79 -8 -47 -27 -78 -44 0
-1 -19 -64 40 -81 28 -35 -25 0
1 -4 43 57 58 51 53 60 -18 8 17 0
1 -4 43 57 -58 20 -19 -54 49 0
1 4 58 75 -79 -26 0
-1 -19 -64 40 -81 28 35 20 -36 -18 0
-1 -19 64 11 81 -77 32 -60 69 33 0
-1 19 -68 66 -9 -12 -69 22 21 -32 0
-1 -19 64 11 81 -77 -32 4 -33 0
-1 19 68 38 -7 28 -25 -74 80 -75 -59 9 0
-1 19 68 38 7 -66 6 -36 12 33 -71 0
-1 -19 64 -11 23 46 -65 -42 -77 -67 27 0
-1 -19 64 -11 23 46 -65 42 9 -69 38 -81 -28 0
1 -4 43 -57 -60 -62 38 14 70 36 0
-1 19 -68 66 -9 12 -74 30 78 -21 0
1 -4 -43 -58 16 53 -68 -28 0
-1 19 -68 -66 -34 -80 53 17 45 -4 71 -70 -36 61 0
-1 19 -68 -66 -34 -80 -53 65 -79 -8 25 0
-1 -19 64 -11 23 46 65 10 0
1 -4 43 57 58 -51 65 -74 0
-1 19 -68 -66 -34 -80 -53 65 79 67 -21 -49 0
-1 19 -68 -66 -34 80 -11 9 26 -73 77 0
-1 19 68 38 -7 28 -25 -74 80 75 2 -66 -41 69 0
-1 19 -68 -66 -34 80 -11 9 26 -73 -77 -43 50 0
-1 19 -68 66 9 48 -41 0
-1 19 68 38 7 66 -67 -27 -40 -55 3 0
1 -4 -43 -58 -16 8 -68 34 0
-1 -19 64 -11 -23 -74 55 36 -13 0
-1 -19 -64 40 -81 -28 -71 67 75 -15 -69 0
-1 19 -68 -66 -34 80 11 -49 -2 -42 59 -33 63 0
-1 19 68 38 -7 28 -25 74 -44 50 -15 63 0
-1 19 -68 -66 -34 -80 53 -17 14 0
-1 19 -68 -66 -34 -80 53 17 45 4 60 -48 0
-1 19 68 38 -7 28 25 -63 24 0
1 -4 43 57 58 -51 65 74 0
-1 -19 -64 -40 54 78 14 -7 -22 -31 0
-1 19 -68 -66 -34 -80 53 17 45 -4 71 70 50 0
-1 19 -68 -66 -34 -80 -53 65 79 67 21 0
-1 19 -68 -66 -34 80 11 -49 2 15 52 0
-1 -19 -64 -40 -54 63 -9 -62 57 0
-1 19 -68 -66 -34 80 11 -49 -2 -42 59 -33 -63 0
-1 19 -68 -66 -34 80 11 -49 -2 -42 59 33 0
-1 19 68 38 -7 28 -25 -74 -80 34 -16 66 -35 0
-1 19 -68 -66 -34 80 -11 9 26 73 46 0
-1 -19 64 11 -81 -23 -6 0
-1 -19 64 11 -81 23 35 18 -66 0
-1 19 68 38 -7 28 -25 74 44 -46 -58 0
-1 19 68 38 7 66 -67 -27 -40 55 6 23 0
-1 19 68 38 7 -66 6 -36 -12 43 54 0
-1 19 68 38 7 -66 6 36 -21 46 0
1 -4 43 57 58 -51 -65 0
1 -4 43 57 58 51 -53 -67 -8 0
-1 19 -68 -66 -34 80 -11 9 -26 -52 63 39 18 3 0
1 -4 -43 58 2 -47 0
-1 -19 -64 -40 54 -78 34 -52 -77 0
-1 -19 -64 -40 -54 63 9 -77 -13 0
-1 -19 64 11 81 77 2 54 -29 0
-1 19 -68 -66 -34 -80 53 17 45 4 -60 0
1 4 58 75 -79 26 -73 -17 -61 0
-1 19 68 38 7 66 67 14 23 -53 0
-1 19 -68 -66 -34 80 11 -49 -2 42 -3 0
1 -4 43 -57 -60 62 3 -26 0
-1 -19 64 11 -81 -23 6 -68 -54 -59 63 0
-1 -19 -64 40 -81 -28 71 -47 0
1 4 58 75 79 -8 -47 -27 -78 44 0
-1 19 -68 -66 -34 -80 53 -17 -14 0
-1 -19 64 -11 23 -46 38 -72 0
1 -4 43 -57 -60 62 3 26 40 -37 31 0
1 4 58 -75 -25 -78 48 50 18 -57 0
-1 -19 64 11 -81 -23 6 -68 -54 -59 -63 0
-1 -19 64 -11 23 46 -65 -42 -77 -67 -27 70 0
-1 -19 -64 -40 -54 -63 55 0
-1 -19 -64 40 -81 -28 -71 -67 -36 0
-1 19 -68 66 -9 12 -74 30 -78 -37 0
-1 -19 64 -11 23 -46 -38 0
-1 19 68 38 7 66 -67 -27 40 -79 11 78 0
-1 -19 -64 40 -81 28 -35 25 48 -41 0
-1 19 68 38 7 66 -67 -27 -40 -55 -3 0
-1 19 68 38 7 66 -67 -27 -40 55 6 -23 0
-1 19 68 38 7 66 67 14 -23 71 -59 0
-1 19 -68 -66 34 -32 4 -56 0
-1 19 68 38 7 66 67 14 -23 -71 0
-1 19 68 38 7 66 -67 -27 -40 55 -6 0
-1 19 68 38 -7 28 -25 -74 80 75 -2 0
-1 -19 64 11 81 77 -2 -50 -36 -28 -46 5 0
-1 19 -68 -66 -34 80 -11 9 -26 52 30 0
-1 19 68 38 -7 28 -25 74 44 -46 58 -39 0
-1 19 -68 66 -9 -12 -69 -22 0
1 4 58 -75 -25 -78 48 50 -18 -34 0
-1 19 68 38 7 66 -67 27 -33 14 0
-1 -19 64 11 81 77 2 -54 0
1 -4 43 57 58 51 53 60 -18 8 -17 0
-1 -19 64 -11 23 46 -65 -42 -77 -67 -27 -70 0
-1 -19 64 11 81 77 -2 -50 -36 -28 46 0
1 -4 -43 -58 16 -53 59 0
-1 19 -68 -66 -34 80 -11 9 26 -73 -77 43 0
-1 -19 64 11 81 77 -2 -50 36 38 0
-1 19 -68 66 -9 -12 -69 22 -21 0
-1 19 -68 -66 -34 80 -11 -9 14 48 0
1 -4 -43 -58 -16 8 68 -17 -54 0
1 -4 43 -57 -60 62 3 26 -40 -10 0
1 4 -58 77 -35 54 0
-1 -19 64 11 -81 -23 6 68 -41 0
1 4 58 -75 -25 78 -54 -9 -39 0
-1 19 68 38 7 -66 6 -36 -12 43 -54 69 0
-1 19 68 38 7 -66 6 -36 -12 -43 -15 -69 0
-1 19 68 38 -7 28 25 63 57 0
-1 -19 -64 -40 54 -78 34 -52 77 75 0
-1 19 -68 -66 -34 -80 -53 -65 0
-1 -19 64 -11 23 -46 38 72 26 0
-1 -19 64 11 81 -77 32 -60 69 -33 0
-1 -19 64 -11 23 46 -65 -42 -77 67 -57 0
-1 -19 -64 40 81 23 47 -71 0
-1 19 68 38 7 66 67 14 23 53 -16 0
1 -4 -43 -58 16 -53 -59 9 24 0
-1 19 -68 -66 -34 -80 53 17 -45 0
-1 -19 64 11 81 -77 32 60 18 38 0
-1 -19 -64 -40 54 78 14 7 30 0
-1 19 68 38 -7 28 25 63 -57 74 -58 26 0
1 4 -58 77 35 65 -39 21 0
-1 -19 64 11 81 77 -2 -50 -36 -28 -46 -5 0
-1 19 -68 66 -9 -12 -69 22 21 32 0
-1 -19 64 -11 23 46 -65 42 -9 -73 -33 -60 0
1 -4 43 -57 -60 62 -3 47 -41 -50 0
-1 -19 -64 40 -81 28 35 20 36 34 0
1 -4 43 57 58 51 53 -60 36 0
-1 19 -68 66 -9 -12 69 -62 0
-1 -19 64 -11 23 46 -65 42 -9 -73 33 3 81 0
1 -4 -43 -58 -16 8 68 17 0
-1 -19 64 11 81 -77 32 60 -18 25 26 0
-1 -19 64 -11 23 46 -65 42 -9 -73 33 -3 0
1 4 58 -75 25 -9 20 35 0
-1 19 68 38 7 66 -67 27 33 -61 -32 0
-1 19 68 38 7 66 -67 -27 40 -79 -11 0
-1 19 68 -38 20 -56 -61 71 0
-1 -19 -64 -40 54 -78 -34 23 0
-1 19 -68 66 -9 12 -74 -30 3 0
-1 19 68 38 -7 28 -25 -74 80 75 2 66 -13 -65 0
-1 19 68 38 7 66 -67 27 33 61 -77 70 0
-1 19 -68 66 9 -48 -11 26 0
-1 19 68 38 -7 28 25 63 -57 -74 0
1 -4 43 57 -58 20 19 0
-1 19 -68 66 9 48 41 -61 28 0
-1 -19 -64 -40 -54 63 -9 62 -43 56 -22 0
-1 19 -68 66 -9 12 -74 30 -78 37 0
-1 19 68 38 7 66 -67 27 33 61 77 -16 0
-1 -19 64 -11 -23 -74 -55 0
-1 19 -68 -66 -34 80 11 49 -69 0
-1 -19 -64 -40 -54 63 -9 -62 -57 -76 0
-1 -19 -64 40 -81 28 35 20 -36 18 0
-1 19 68 38 7 66 -67 -27 40 79 3 0
-1 19 68 -38 20 -56 61 0
-1 -19 -64 40 81 23 47 71 -79 45 0
-1 19 68 38 -7 28 -25 -74 80 75 2 -66 41 26 0
-1 -19 64 -11 23 46 -65 42 -9 73 -59 0
-1 -19 -64 40 -81 28 35 -20 0
-1 -19 -64 -40 54 78 14 7 -30 0
-1 -19 -64 -40 54 -78 -34 -23 -25 0
1 -4 43 57 58 51 53 60 18 0
1 4 -58 77 35 65 -39 -21 0
1 4 58 -75 -25 -78 48 -50 7 0
-1 -19 64 11 81 77 -2 50 0
-1 19 68 38 7 66 -67 27 33 61 -77 -70 0
-1 -19 -64 -40 54 -78 34 -52 77 -75 0
1 -4 43 -57 -60 -62 38 14 70 -36 0
-1 19 68 38 -7 -28 15 -63 -69 0
-1 19 -68 -66 -34 80 -11 -9 -14 -52 0
-1 19 68 38 -7 28 -25 74 -44 50 -15 -63 0
-1 -19 -64 40 -81 -28 -71 67 -75 -27 0
-1 19 -68 -66 -34 -80 -53 65 79 -67 -41 0
-1 -19 -64 -40 -54 63 -9 62 43 0
1 -4 43 -57 60 -71 41 0
1 4 58 -75 -25 -78 48 -50 -7 0
-1 -19 -64 -40 -54 63 -9 -62 -57 76 0
-1 19 68 38 -7 28 -25 74 44 -46 58 39 0
-1 -19 64 11 -81 23 35 18 66 46 45 0
-1 19 68 38 -7 28 -25 -74 80 -75 59 -71 -4 56 -10 0
-1 19 -68 -66 -34 -80 53 17 45 -4 71 -70 -36 -61 0
-1 -19 -64 40 81 -23 -53 0
-1 19 68 38 7 66 -67 27 33 61 77 16 -4 0
-1 -19 -64 -40 -54 63 9 -77 13 -66 0
-1 19 -68 -66 -34 80 11 -49 -2 -42 -59 0
-1 -19 64 -11 23 46 -65 -42 77 0
-1 19 68 38 7 -66 6 -36 12 -33 28 0
-1 19 -68 66 -9 12 74 -32 0
-1 -19 64 -11 23 -46 38 72 -26 0
1 4 -58 77 35 -65 0
-1 19 -68 66 -9 12 -74 -30 -3 0
-1 19 -68 -66 -34 80 11 49 69 0
1 -4 -43 -58 -16 8 -68 -34 0
1 -4 43 -57 60 71 -19 -13 0
1 4 58 -75 25 -9 -20 -18 67 31 0
-1 19 68 38 -7 28 25 63 -57 74 -58 -26 0
1 -4 43 -57 60 -71 -41 75 -28 0
1 4 58 -75 -25 78 -54 -9 39 0
1 -4 43 -57 -60 62 -3 -47 -11 0
-1 -19 64 -11 -23 -74 55 36 13 0
-1 -19 -64 40 -81 -28 -71 67 75 15 0
1 4 58 -75 -25 78 54 0
-1 19 68 38 7 66 -67 -27 40 79 -3 0
-1 19 -68 -66 -34 80 -11 9 26 -73 -77 -43 -50 0
-1 -19 64 -11 23 46 -65 -42 -77 67 57 0
-1 19 -68 66 9 48 41 -61 -28 0
-1 -19 64 11 -81 23 -35 -15 -75 52 0
1 4 58 -75 25 -9 20 -35 0
-1 -19 64 11 81 -77 32 60 -18 25 -26 0
1 -4 -43 -58 16 -53 -59 9 -24 0
-1 -19 -64 40 -81 -28 -71 67 75 -15 69 0
-1 -19 64 11 81 -77 -32 -4 0
-1 -19 64 11 81 -77 32 -60 -69 0
-1 19 68 38 -7 28 -25 -74 80 75 2 66 13 0
-1 19 -68 -66 -34 80 -11 -9 -14 52 17 0
-1 19 68 38 7 -66 6 -36 12 33 71 0
-1 -19 -64 -40 -54 63 9 77 -58 0
-1 19 68 38 -7 28 -25 -74 -80 -34 0
-1 19 -68 -66 34 -32 4 56 -64 61 0
1 4 58 -75 -25 -78 48 50 -18 34 0
-1 19 -68 -66 -34 -80 53 17 45 -4 71 70 -50 0
-1 -19 64 11 -81 -23 6 68 41 0
1 4 58 -75 25 -9 -20 -18 -67 0
1 -4 43 -57 -60 62 3 26 40 37 0
1 4 58 75 79 -8 47 0
1 -4 43 -57 -60 -62 -38 70 0
1 4 58 -75 -25 -78 -48 -51 0
1 -4 43 57 58 51 53 -60 -36 45 0
1 -4 43 57 58 51 -53 67 -9 0
-1 -19 64 11 -81 23 35 18 66 -46 0
-1 19 68 38 -7 28 -25 -74 -80 34 16 0
1 -4 43 57 58 51 -53 67 9 0
-1 19 68 38 7 66 67 -14 -69 0
-1 19 68 38 -7 28 -25 74 44 46 -57 0
-1 19 68 38 7 66 67 14 23 53 16 0
-1 -19 64 11 -81 23 -35 -15 75 0
-1 -19 64 11 -81 23 35 -18 5 0
1 4 58 -75 25 -9 -20 18 0
-1 19 68 38 -7 28 25 63 -57 74 58 50 0
1 4 58 75 79 8 -48 -46 26 0
-1 19 68 38 -7 28 -25 -74 80 75 2 -66 41 -26 0
1 4 58 75 -79 26 73 0
-1 19 -68 -66 -34 80 -11 9 -26 -52 -63 74 -16 -49 0
-1 19 -68 -66 -34 80 -11 9 -26 -52 63 39 18 -3 0
1 -4 -43 58 -2 0
-1 -19 -64 -40 -54 63 9 77 58 0
-1 19 -68 -66 34 -32 4 56 -64 -61 0
-1 -19 -64 40 81 -23 53 0
-1 19 68 38 7 66 -67 27 33 -61 32 0
-1 -19 64 11 -81 -23 6 -68 54 -67 0
-1 19 68 38 7 -66 6 36 21 73 -63 -54 0
-1 -19 64 11 81 -77 32 60 18 -38 0
1 -4 43 -57 -60 -62 -38 -70 0
-1 19 -68 -66 -34 80 11 -49 2 15 -52 -25 0
1 4 -58 77 -35 -54 0
-1 19 68 38 -7 28 -25 74 -44 50 15 42 0
-1 19 68 38 7 -66 6 -36 12 -33 -28 0
-1 19 -68 -66 -34 -80 53 17 45 -4 71 -70 36 0
1 4 58 75 79 8 -48 46 33 0
1 -4 43 57 58 51 -53 -67 8 0
-1 19 -68 -66 -34 -80 53 17 45 4 60 48 0
-1 -19 64 -11 23 46 65 -10 71 34 0
-1 19 -68 -66 -34 80 -11 9 -26 -52 -63 74 -16 49 0
-1 -19 64 -11 -23 -74 55 -36 0
-1 19 68 38 -7 28 -25 -74 80 -75 59 -71 -4 -56 0
1 4 58 -75 -25 -78 -48 51 0
-1 19 -68 -66 -34 80 11 -49 2 -15 40 0
-1 -19 64 11 -81 23 35 -18 -5 0
1 -4 43 -57 60 -71 -41 75 28 0
-1 19 68 38 -7 28 25 -63 -24 0
1 -4 43 -57 -60 -62 38 14 -70 0
-1 -19 64 11 -81 -23 6 -68 54 67 0
1 4 58 -75 25 9 43 -56 -72 0
-1 -19 -64 40 81 23 -47 29 0
-1 19 -68 -66 34 -32 4 56 64 0
1 4 58 -75 25 9 43 56 0
-1 -19 64 11 81 -77 32 60 -18 -25 0
-1 -19 64 -11 23 46 65 -10 -71 0
-1 19 68 38 7 -66 6 36 21 73 -63 54 16 0
-1 -19 64 -11 -23 74 18 -17 -27 0
-1 19 -68 -66 34 32 59 0
-1 19 -68 -66 -34 -80 53 17 45 -4 -71 0
-1 19 -68 -66 -34 -80 -53 65 79 -67 41 0
-1 19 68 38 -7 28 -25 -74 80 75 2 66 -13 65 0
-1 19 68 38 7 -66 6 36 21 73 -63 54 -16 0
-1 19 68 38 7 -66 6 -36 -12 -43 -15 69 0
1 -4 43 -57 -60 62 -3 47 41 28 0
-1 -19 64 11 81 77 -2 -50 36 -38 47 0
1 -4 -43 -58 16 -53 -59 -9 0
-1 19 68 38 -7 -28 15 63 0
1 4 58 -75 -25 -78 48 50 18 57 0
-1 19 -68 66 -9 12 74 32 0
-1 19 -68 -66 -34 80 -11 -9 -14 52 -17 0
-1 19 -68 -66 -34 80 -11 9 -26 -52 63 -39 0
-1 -19 64 -11 23 46 -65 42 -9 -73 -33 60 0
-1 19 -68 -66 -34 80 11 -49 -2 42 3 -46 0
-1 -19 -64 40 81 23 47 71 -79 -45 0
1 4 -58 -77 33 0
-1 19 -68 -66 -34 80 -11 -9 14 -48 0
-1 -19 64 -11 -23 74 -18 0
1 4 58 75 79 -8 -47 -27 78 0
-1 -19 64 -11 -23 74 18 17 0
-1 19 -68 66 9 48 41 61 30 0
-1 19 68 38 7 -66 -6 0
-1 -19 64 -11 23 46 65 -10 71 -34 72 0
1 4 58 -75 25 -9 -20 -18 67 -31 0
1 -4 43 -57 -60 62 3 26 40 -37 -31 0
-1 19 -68 -66 -34 80 -11 9 -26 -52 -63 -74 -53 0
-1 -19 -64 40 -81 -28 -71 67 -75 27 0
-1 -19 64 -11 23 46 65 -10 71 -34 -72 0
-1 19 68 -38 -20 0
1 4 58 75 79 8 -48 -46 -26 0
-1 19 68 38 7 66 -67 -27 40 -79 11 -78 0
-1 19 68 38 -7 28 -25 74 44 46 57 -56 0
-1 -19 -64 -40 -54 63 -9 62 -43 56 22 0
-1 19 -68 -66 34 32 -59 0
-1 -19 -64 40 -81 28 -35 25 48 41 0
-1 -19 64 -11 23 46 -65 42 9 69 0
-1 19 -68 66 -9 -12 69 62 0
-1 19 -68 66 9 -48 -11 -26 24 0
1 4 58 75 -79 26 -73 -17 61 0
1 -4 43 -57 -60 -62 38 -14 -53 0
-1 -19 64 11 -81 23 -35 15 77 0
-1 19 68 38 -7 28 -25 74 44 46 57 56 0
-1 19 -68 -66 -34 -80 -53 65 -79 -8 -25 0
-1 -19 64 11 -81 23 35 18 66 46 -45 0
-1 19 68 38 7 66 67 14 -23 71 59 0
-1 19 68 -38 20 56 0
1 -4 43 -57 -60 62 3 26 -40 10 0
-1 -19 -64 -40 54 78 -14 77 0
-1 -19 -64 -40 -54 63 -9 62 -43 -56 0
1 -4 43 -57 -60 -62 38 -14 53 63 0
-1 -19 -64 -40 54 -78 34 52 0
-1 19 -68 -66 -34 -80 -53 65 79 67 -21 49 0
-1 19 -68 66 9 -48 11 4 72 0
-1 -19 64 11 81 -77 -32 4 33 0
1 -4 43 -57 -60 -62 38 -14 53 -63 0
-1 19 68 38 -7 28 -25 74 -44 50 15 -42 0
-1 19 -68 66 9 -48 11 4 -72 0
-1 19 -68 -66 -34 80 -11 9 -26 -52 63 39 -18 0
-1 -19 -64 -40 54 78 14 -7 -22 31 0
-1 19 68 38 -7 28 -25 -74 80 -75 59 -71 4 0
-1 19 -68 -66 -34 -80 -53 65 -79 8 72 0
-1 19 68 38 -7 -28 15 -63 69 0
-1 -19 -64 40 -81 -28 -71 -67 36 0
-1 -19 64 11 81 77 2 54 29 0
1 -4 -43 58 2 47 0
-1 19 -68 66 9 48 41 61 -30 0
1 4 58 75 -79 26 -73 17 0
1 -4 43 -57 60 -71 -41 -75 0
1 4 58 75 79 8 -48 46 -33 0
-1 19 -68 -66 34 -32 -4 0
-1 -19 -64 -40 54 -78 -34 -23 25 -56 0
-1 19 68 38 7 -66 6 -36 -12 43 -54 -69 0
-1 19 -68 -66 -34 -80 -53 65 -79 8 -72 0
-1 19 68 38 7 66 -67 27 33 61 77 16 4 0
1 -4 43 -57 -60 62 -3 -47 11 0
1 -4 43 -57 -60 62 -3 47 41 -28 0
1 4 58 75 79 -8 -47 27 0
-1 19 68 38 -7 -28 -15 0
-1 -19 -64 40 -81 -28 71 47 0
-1 -19 64 11 81 77 -2 -50 -36 28 0
-1 -19 -64 -40 54 -78 -34 -23 25 56 0
-1 19 68 38 -7 28 -25 -74 80 -75 59 71 0
-1 19 68 -38 20 -56 -61 -71 0
-1 -19 64 11 -81 23 -35 15 -77 0
-1 19 68 38 -7 28 -25 -74 80 -75 -59 -9 61 0
1 -4 43 -57 60 71 -19 13 0
1 -4 43 -57 -60 62 -3 47 -41 50 0
-1 -19 64 11 -81 -23 6 -68 -54 59 0
1 -4 43 57 58 51 53 -60 -36 -45 0
-1 19 -68 -66 -34 80 11 -49 2 15 -52 25 0
-1 -19 -64 -40 54 78 -14 -77 0
-1 19 68 38 -7 28 -25 74 -44 -50 0
-1 -19 64 11 -81 23 -35 -15 -75 -52 0
