c NeuroCodeBench 2.0 CNF formula with verdict Unsat
p cnf 66 94
-1 10 -19 -25 -42 66 41 -2 -16 0
-1 10 -19 25 36 54 -64 0
-1 10 19 -48 -8 44 0
-1 10 -19 -25 -42 -66 9 -61 -55 0
-1 10 19 -48 8 -32 11 20 -66 0
1 -52 11 18 29 5 -41 0
1 52 66 25 -53 -16 54 0
-1 10 -19 25 36 54 64 -50 0
1 -52 -11 -51 9 -44 37 0
-1 10 -19 25 36 -54 0
-1 10 19 -48 8 -32 -11 36 52 9 -60 17 0
-1 10 -19 25 36 54 64 50 0
-1 10 -19 25 -36 15 34 0
1 -52 11 -18 45 20 -24 0
1 52 -66 -8 -15 0
1 -52 -11 -51 9 -44 -37 -32 0
1 -52 -11 -51 9 -44 -37 32 0
-1 10 19 48 39 54 0
-1 -10 -63 62 25 8 0
-1 -10 -63 62 -25 0
1 -52 -11 51 -5 -15 -50 0
1 -52 -11 -51 9 44 0
1 52 -66 -8 15 0
1 -52 11 -18 45 -20 0
1 -52 11 -18 -45 57 -17 0
1 52 66 -25 -41 11 0
-1 10 19 -48 8 -32 11 20 66 0
1 -52 11 -18 45 20 24 0
1 52 66 -25 -41 -11 14 0
-1 -10 -63 62 25 -8 0
1 52 66 -25 41 -18 0
1 52 -66 8 4 0
-1 10 19 -48 8 -32 -11 -36 -5 -49 0
-1 10 19 -48 8 32 -53 0
1 -52 -11 -51 -9 -24 0
-1 10 -19 -25 -42 66 -41 -26 0
1 -52 -11 -51 -9 24 0
1 52 66 25 -53 -16 -54 0
-1 10 19 -48 8 -32 11 -20 21 6 0
-1 10 19 48 -39 -30 0
1 -52 11 -18 -45 57 17 0
1 -52 -11 51 5 44 0
-1 -10 -63 -62 -3 0
-1 10 19 -48 -8 -44 0
1 -52 -11 51 -5 15 7 -65 12 0
1 -52 11 18 29 5 41 23 0
1 -52 -11 51 -5 -15 50 0
-1 10 19 -48 8 -32 -11 -36 -5 49 0
-1 10 19 48 39 -54 0
1 52 66 -25 -41 -11 -14 0
1 -52 -11 51 -5 15 -7 0
1 -52 -11 51 -5 15 7 65 0
1 52 66 -25 41 18 0
-1 10 19 -48 8 -32 -11 -36 5 0
-1 10 -19 -25 42 -44 -55 0
-1 10 -19 -25 42 -44 55 30 0
-1 10 -19 -25 -42 66 -41 26 0
-1 10 19 -48 8 -32 -11 36 52 -9 41 16 0
-1 10 -19 -25 42 44 0
-1 -10 63 25 20 0
-1 10 19 48 -39 30 -31 -52 38 0
-1 10 19 -48 8 -32 11 -20 21 -6 0
-1 10 19 -48 8 -32 11 -20 -21 0
-1 10 19 48 -39 30 31 0
1 52 66 25 -53 16 0
1 52 66 25 53 0
1 -52 11 18 29 -5 0
-1 10 19 -48 8 -32 -11 36 52 -9 41 -16 0
-1 -10 63 -25 0
-1 10 19 48 -39 30 -31 52 0
-1 10 19 -48 8 -32 -11 36 52 -9 -41 0
-1 10 -19 -25 -42 -66 9 -61 55 0
-1 10 -19 -25 42 -44 55 -30 0
1 -52 11 18 29 5 41 -23 0
-1 10 -19 -25 -42 66 41 2 0
-1 10 -19 -25 -42 -66 9 61 0
-1 10 -19 25 -36 -15 0
-1 10 19 48 -39 30 -31 -52 -38 0
-1 10 -19 -25 -42 66 41 -2 16 0
1 -52 11 18 -29 0
-1 10 19 -48 8 32 53 0
-1 10 19 -48 8 -32 -11 36 -52 -47 0
-1 -10 63 25 -20 0
-1 10 19 -48 8 -32 -11 36 52 9 -60 -17 0
1 -52 11 -18 -45 -57 63 0
1 -52 -11 51 5 -44 0
-1 10 19 -48 8 -32 -11 36 -52 47 0
1 52 -66 8 -4 0
-1 10 19 -48 8 -32 -11 36 52 9 60 0
1 -52 -11 51 -5 15 7 -65 -12 0
-1 10 -19 -25 -42 -66 -9 0
1 -52 11 -18 -45 -57 -63 0
-1 -10 -63 -62 3 0
-1 10 -19 25 -36 15 -34 0
