c NeuroCodeBench 2.0 CNF formula with verdict Unsat
p cnf 37 252
-1 10 -22 30 -26 24 -25 0
1 12 -24 -14 -10 -20 -34 -27 0
-1 10 -22 30 26 18 3 -7 -5 -14 -28 0
-1 -10 -5 -33 14 36 23 0
1 -12 24 27 -34 -3 32 -36 15 2 0
1 12 24 28 29 -27 36 0
1 -12 -24 10 -26 -16 35 18 -36 0
-1 -10 5 -2 -25 -11 0
-1 10 -22 -30 -14 -15 -13 -8 -33 -12 0
1 -12 -24 10 -26 16 -33 -31 0
-1 10 -22 30 26 -18 -21 -2 27 0
1 -12 24 27 -34 -3 -32 8 20 -5 -9 18 -30 0
1 12 24 -28 13 -18 -26 -23 37 -27 34 17 0
1 -12 24 -27 -16 -15 -31 0
1 -12 -24 10 -26 16 33 19 -11 -9 25 23 0
-1 10 -22 -30 -14 -15 -13 8 -34 12 0
1 -12 -24 10 -26 16 33 19 -11 -9 25 -23 0
-1 -10 -5 -33 14 36 -23 -31 -2 -16 0
1 12 24 -28 13 -18 -26 23 32 -5 0
-1 10 -22 -30 14 3 23 0
1 -12 24 -27 -16 -15 31 4 0
-1 10 -22 30 26 -18 -21 2 -5 28 0
1 12 24 -28 -13 10 27 16 19 0
1 -12 24 27 -34 -3 32 36 28 0
1 -12 24 27 -34 -3 32 36 -28 30 0
-1 -10 -5 33 35 30 2 -27 0
-1 10 -22 -30 -14 15 -25 13 0
1 12 24 -28 -13 10 27 -16 -33 30 -21 0
1 12 24 -28 13 -18 -26 -23 37 -27 34 -17 0
1 -12 24 27 -34 -3 -32 8 20 5 -17 4 -30 0
-1 -10 5 2 26 -6 -30 -14 0
1 -12 -24 10 -26 16 33 -19 23 -36 0
1 12 -24 -14 -10 20 -2 -9 0
1 -12 -24 10 -26 -16 -35 15 0
-1 10 -22 30 26 18 -3 -25 14 -34 0
1 -12 -24 -10 20 4 -28 -11 0
1 -12 -24 10 -26 16 33 19 11 -32 37 34 0
-1 10 -22 30 26 18 3 -7 5 -4 -2 0
1 -12 24 27 -34 -3 -32 -8 13 0
1 12 24 -28 -13 -10 -17 -32 0
1 12 24 -28 -13 -10 -17 32 0
1 12 24 28 -29 -27 0
1 12 -24 14 8 5 36 -18 0
1 12 24 -28 -13 -10 17 18 0
-1 -10 5 2 26 6 -20 23 4 0
1 -12 24 27 -34 -3 -32 8 20 5 -17 -4 0
1 -12 -24 10 -26 16 -33 31 17 -15 0
-1 10 -22 30 26 18 -3 25 -21 0
-1 10 -22 30 26 18 -3 -25 -14 37 -5 0
1 12 24 -28 -13 10 -27 30 0
1 -12 24 27 -34 -3 -32 8 -20 21 0
-1 10 -22 30 26 18 3 -7 5 4 2 13 -20 0
1 -12 24 27 -34 -3 -32 -8 -13 37 0
1 12 -24 14 8 5 36 18 0
1 -12 24 27 -34 -3 -32 8 20 5 17 23 -14 0
1 12 24 -28 -13 10 27 -16 -33 30 21 36 -31 0
-1 -10 -5 33 35 30 2 27 -19 -37 16 0
-1 10 -22 30 26 18 -3 -25 14 34 8 -21 35 0
1 12 -24 14 -8 -22 0
1 -12 24 27 -34 -3 32 36 -28 -30 0
-1 -10 5 2 26 6 20 -19 28 0
-1 10 -22 30 26 18 -3 -25 14 34 -8 -29 7 0
1 12 24 -28 -13 10 27 -16 -33 30 21 36 31 37 0
-1 -10 -5 33 -35 22 -4 34 -12 0
-1 -10 -5 33 35 30 -2 -36 0
-1 -10 5 2 26 6 -20 -23 0
1 -12 -24 10 -26 16 -33 31 -17 28 0
-1 10 -22 30 26 18 -3 -25 -14 -37 0
-1 -10 -5 -33 -14 4 28 26 -34 -12 0
1 -12 -24 10 -26 16 33 19 -11 9 27 0
-1 -10 -5 33 35 30 2 27 -19 37 0
1 -12 -24 10 -26 -16 35 -18 13 0
-1 -10 -5 -33 -14 4 28 26 34 37 -15 0
1 -12 -24 -10 20 4 -28 11 0
-1 10 -22 -30 14 -3 -5 15 0
1 12 24 -28 -13 10 27 -16 -33 30 21 -36 0
1 12 -24 -14 -10 -20 34 0
1 12 -24 -14 -10 -20 -34 27 0
-1 -10 5 2 -26 -22 -37 0
-1 -10 -5 33 -35 -22 12 0
1 -12 -24 10 -26 -16 -35 -15 0
1 12 -24 -14 -10 20 2 13 -21 0
1 12 24 -28 -13 10 -27 -30 0
1 -12 -24 10 -26 -16 35 18 36 0
-1 -10 -5 -33 -14 -4 -13 9 -18 0
-1 -10 -5 -33 -14 4 28 26 34 -37 -32 0
1 12 24 -28 -13 -10 17 -18 -25 14 0
-1 10 -22 -30 -14 15 25 -5 0
-1 -10 -5 -33 -14 4 28 26 34 -37 32 0
-1 -10 -5 33 35 30 2 27 -19 -37 -16 0
-1 -10 -5 -33 -14 4 28 26 34 37 15 0
1 -12 24 27 -34 -3 -32 8 -20 -21 0
1 12 -24 -14 -10 20 -2 9 23 0
-1 10 -22 -30 14 3 -23 15 7 0
-1 10 -22 30 26 -18 -21 2 5 0
-1 10 -22 30 26 18 3 7 0
-1 -10 -5 -33 -14 -4 -13 -9 0
-1 10 -22 30 26 18 3 -7 5 4 2 13 20 0
1 -12 -24 10 26 29 -11 25 23 0
1 12 24 -28 -13 -10 17 -18 25 0
-1 10 -22 -30 -14 15 25 5 37 0
-1 10 -22 30 26 18 -3 -25 14 34 -8 -29 -7 0
-1 -10 5 2 26 -6 30 0
-1 -10 -5 33 35 -30 0
-1 10 -22 30 26 18 3 -7 -5 -14 28 0
-1 -10 5 -2 25 -15 0
1 -12 -24 10 26 -29 30 0
1 -12 24 27 34 17 -26 0
1 -12 -24 10 -26 16 33 -19 -23 20 29 0
1 -12 -24 -10 20 4 28 30 0
-1 -10 -5 -33 14 -36 -20 -26 0
1 -12 -24 10 -26 16 33 -19 23 36 0
-1 -10 -5 -33 -14 4 28 -26 0
1 -12 -24 -10 -20 -3 5 0
1 -12 -24 -10 20 -4 -6 -26 0
-1 10 -22 -30 -14 15 -25 -13 0
-1 -10 5 -2 -25 11 0
1 -12 24 -27 -16 -15 31 -4 0
1 12 24 -28 13 -18 -26 23 -32 0
1 -12 -24 10 -26 16 33 19 -11 -9 -25 23 0
1 -12 -24 10 26 29 -11 -25 -28 0
-1 10 -22 30 26 -18 -21 2 -5 -28 0
-1 -10 -5 -33 -14 4 -28 -25 0
-1 10 -22 -30 14 -3 5 0
1 -12 -24 10 -26 16 33 -19 -23 -20 0
1 -12 -24 10 -26 16 33 19 -11 -9 -25 -23 0
1 -12 24 27 34 -17 -26 0
1 -12 24 27 -34 -3 -32 -8 -13 -37 0
-1 10 -22 -30 -14 -15 -13 8 -34 -12 0
1 12 24 -28 13 -18 -26 -23 37 -27 -34 -32 0
1 12 24 -28 13 -18 -26 -23 37 -27 -34 32 0
-1 -10 -5 -33 14 -36 20 21 0
-1 10 -22 -30 14 3 -23 15 -7 0
-1 -10 -5 33 -35 22 4 0
1 12 24 28 -29 27 6 0
-1 10 -22 -30 14 -3 -5 -15 0
-1 10 -22 -30 -14 -15 -13 -8 -33 12 0
1 12 -24 14 8 5 -36 4 0
-1 10 -22 30 -26 -24 -18 7 0
1 12 -24 -14 10 -26 0
1 -12 24 27 -34 -3 -32 8 20 -5 9 0
-1 -10 -5 -33 14 36 -23 31 -9 0
-1 -10 5 2 26 6 20 -19 -28 -17 0
-1 10 -22 30 26 18 3 -7 5 -4 2 0
1 -12 -24 10 26 -29 -30 0
-1 -10 -5 33 -35 22 -4 -34 8 0
-1 -10 -5 -33 14 36 -23 31 9 0
-1 10 -22 -30 -14 -15 -13 8 34 0
1 12 -24 14 8 -5 29 16 0
1 12 24 -28 13 -18 -26 -23 37 27 0
-1 -10 5 2 -26 22 0
-1 10 -22 30 26 18 -3 -25 -14 37 5 0
-1 -10 -5 33 35 30 -2 36 0
1 -12 -24 10 -26 16 -33 31 -17 -28 0
-1 -10 5 -2 25 15 -33 0
1 12 24 28 29 27 0
1 -12 -24 -10 -20 3 0
-1 10 -22 -30 -14 -15 -13 -8 33 5 0
-1 -10 -5 -33 -14 4 -28 25 0
-1 10 -22 30 26 18 3 -7 -5 14 -32 0
-1 -10 -5 -33 -14 -4 13 0
-1 10 -22 30 26 18 3 -7 -5 14 32 0
-1 -10 -5 33 -35 22 -4 -34 -8 0
1 12 -24 -14 -10 20 -2 9 -23 0
1 12 24 -28 -13 -10 17 -18 -25 -14 0
1 -12 24 27 34 17 26 0
1 -12 24 27 -34 3 0
-1 10 22 -27 0
-1 10 -22 30 -26 -24 18 0
-1 -10 -5 -33 14 -36 -20 26 0
1 -12 24 -27 -16 15 25 37 0
1 -12 24 27 -34 -3 -32 8 20 -5 -9 -18 15 0
-1 -10 -5 -33 -14 -4 -13 9 18 0
1 -12 -24 10 26 29 -11 25 -23 0
1 -12 -24 10 -26 16 33 -19 -23 20 -29 0
1 -12 24 27 -34 -3 -32 8 20 5 17 -23 0
1 -12 24 -27 -16 15 -25 0
1 12 24 28 29 -27 -36 0
-1 -10 5 2 26 6 20 19 31 0
1 -12 -24 -10 20 -4 -6 26 0
1 12 24 -28 -13 10 27 16 -19 0
1 -12 -24 10 -26 -16 35 -18 -13 0
-1 -10 -5 33 35 30 2 27 19 22 0
1 -12 -24 10 -26 16 33 19 11 -32 37 -34 0
1 -12 -24 10 -26 16 33 19 -11 9 -27 0
-1 10 -22 30 -26 -24 -18 -7 0
-1 10 -22 30 26 -18 -21 -2 -27 0
-1 -10 5 -2 25 15 33 3 0
-1 10 -22 -30 -14 15 25 5 -37 0
1 -12 24 27 -34 -3 -32 8 20 -5 -9 -18 -15 7 0
1 12 -24 14 8 -5 29 -16 0
-1 -10 -5 -33 14 36 -23 -31 2 0
1 -12 -24 10 -26 16 33 19 11 -32 -37 7 0
-1 10 -22 30 26 18 -3 25 21 0
-1 10 -22 30 26 18 3 -7 5 4 2 -13 0
-1 -10 -5 -33 -14 4 28 26 -34 12 30 0
1 -12 24 27 34 -17 26 0
1 12 24 -28 13 -18 -26 23 32 5 0
-1 -10 5 2 -26 -22 37 0
-1 10 -22 30 26 -18 21 0
-1 10 -22 -30 -14 -15 -13 -8 33 -5 31 0
-1 10 -22 30 26 18 3 -7 5 4 -2 0
1 12 -24 14 8 -5 -29 0
-1 -10 5 2 26 6 20 19 -31 0
1 -12 -24 -10 -20 -3 -5 0
1 12 24 28 -29 27 -6 0
-1 10 -22 -30 14 3 -23 -15 0
-1 10 -22 -30 -14 -15 13 0
-1 -10 5 2 26 -6 -30 14 0
-1 -10 5 2 26 6 20 -19 -28 17 0
1 -12 24 27 -34 -3 32 -36 -15 -18 0
-1 -10 -5 33 35 30 2 27 19 -22 0
-1 -10 -5 33 -35 22 -4 34 12 0
-1 10 -22 30 26 18 -3 -25 14 34 8 21 0
1 12 -24 -14 10 26 0
-1 -10 -5 33 -35 -22 -12 0
-1 -10 5 -2 25 15 33 -3 13 0
1 12 24 -28 13 18 0
1 12 24 -28 13 -18 26 0
-1 10 -22 -30 -14 -15 -13 -8 33 -5 -31 0
1 12 24 -28 -13 10 27 -16 -33 30 21 36 31 -37 0
1 -12 24 27 -34 -3 32 -36 -15 18 0
1 12 24 -28 -13 10 27 -16 33 0
1 -12 24 27 -34 -3 32 -36 15 -2 0
-1 -10 5 2 26 6 -20 23 -4 0
1 -12 24 27 -34 -3 -32 8 20 -5 -9 -18 -15 -7 0
1 -12 -24 10 26 29 11 0
1 -12 -24 -10 20 4 28 -30 0
1 12 24 -28 13 -18 -26 -23 -37 0
1 -12 24 27 -34 -3 -32 8 20 -5 -9 18 30 0
1 12 -24 14 -8 22 0
1 -12 -24 10 -26 16 33 19 11 -32 -37 -7 0
1 -12 -24 10 -26 16 33 19 11 32 0
1 -12 -24 10 26 29 -11 -25 28 0
1 12 24 -28 -13 10 27 -16 -33 -30 0
-1 10 -22 30 -26 24 25 0
1 -12 24 -27 16 0
-1 -10 -5 -33 -14 4 28 26 -34 12 -30 0
1 12 -24 -14 -10 20 2 13 21 0
1 -12 24 27 -34 -3 -32 8 20 5 17 23 14 0
1 -12 24 27 -34 -3 -32 8 20 5 -17 4 30 0
-1 -10 5 -2 25 15 33 -3 -13 0
-1 -10 -5 -33 14 36 -23 -31 -2 16 0
1 -12 -24 -10 20 -4 6 0
1 12 -24 14 8 5 -36 -4 0
-1 10 -22 30 26 18 -3 -25 14 34 -8 29 0
-1 -10 -5 -33 14 -36 20 -21 0
1 -12 -24 10 -26 16 -33 31 17 15 0
-1 10 -22 30 26 18 -3 -25 14 34 8 -21 -35 0
1 -12 24 -27 -16 15 25 -37 0
1 12 -24 -14 -10 20 2 -13 0
-1 10 22 27 0
