c NeuroCodeBench 2.0 CNF formula with verdict Unsat
p cnf 56 123
-1 -14 -37 -43 -11 0
-1 -14 37 -34 -11 4 -6 -15 -51 -21 0
-1 -14 37 -34 -11 -4 10 -32 2 0
1 40 48 15 17 54 -23 -28 0
1 -40 -12 -20 14 7 15 41 0
1 40 48 15 17 -54 -46 6 -39 0
1 -40 -12 -20 14 7 -15 -37 -24 0
1 40 -48 -33 -26 -41 -37 -34 0
1 -40 -12 20 -54 3 -7 0
1 40 -48 -33 26 55 -20 30 0
-1 14 -30 -45 -44 -3 0
1 -40 -12 -20 -14 -7 0
1 40 -48 33 -28 44 0
-1 -14 37 -34 11 19 12 52 -13 -25 38 -31 0
-1 -14 37 -34 11 19 12 -52 -51 0
-1 -14 -37 43 33 -19 0
1 40 48 15 -17 50 0
1 -40 -12 -20 14 7 -15 -37 24 0
-1 -14 -37 43 -33 -38 0
1 -40 -12 -20 14 -7 0
1 40 48 -15 10 0
-1 14 -30 45 -28 20 -13 0
-1 -14 37 -34 -11 -4 10 32 0
1 -40 -12 20 -54 3 7 0
1 -40 -12 -20 -14 7 0
-1 -14 -37 -43 11 6 32 20 0
1 -40 12 -45 -36 0
-1 -14 37 -34 11 19 12 52 -13 -25 -38 0
1 -40 -12 -20 14 7 15 -41 -50 0
-1 -14 37 -34 11 19 12 -52 51 0
1 40 48 15 17 54 23 0
1 40 -48 -33 -26 -41 -37 34 0
-1 14 -30 45 28 -2 22 0
-1 -14 37 -34 -11 4 -6 -15 51 -3 0
1 -40 -12 -20 14 7 -15 37 -4 0
-1 14 30 -6 9 -11 0
-1 -14 -37 -43 11 6 -32 29 0
-1 -14 37 -34 -11 4 -6 15 41 43 0
-1 14 30 6 -8 19 -45 0
-1 -14 37 -34 -11 4 -6 15 -41 35 0
-1 -14 37 34 -55 -26 0
1 40 48 15 17 -54 -46 -6 -27 36 0
-1 -14 37 -34 11 19 -12 -4 0
-1 -14 37 -34 -11 -4 -10 5 25 0
-1 14 -30 45 28 -2 -22 0
-1 -14 37 -34 11 19 12 52 -13 25 -51 0
1 -40 -12 20 54 -34 0
1 40 48 15 17 -54 46 0
-1 14 30 -6 -9 -53 -4 0
-1 14 -30 45 -28 -20 -9 0
-1 -14 37 -34 -11 4 6 -2 -40 -10 -18 0
-1 14 30 6 -8 19 45 12 0
1 40 -48 33 28 -25 0
-1 -14 37 -34 -11 4 6 -2 -40 -10 18 0
1 40 -48 -33 26 55 20 0
-1 14 -30 45 -28 20 13 40 0
1 40 -48 -33 -26 -41 37 30 0
-1 -14 37 -34 -11 -4 -10 -5 -18 0
-1 -14 37 -34 -11 4 -6 -15 -51 21 22 0
1 -40 -12 20 54 34 -21 0
1 40 -48 -33 -26 -41 37 -30 29 0
-1 14 -30 45 -28 20 13 -40 0
-1 -14 37 -34 -11 -4 -10 5 -25 30 0
-1 14 30 6 8 4 0
-1 -14 37 -34 -11 4 -6 -15 51 3 0
1 40 -48 -33 26 55 -20 -30 0
1 40 48 -15 -10 52 0
-1 14 -30 45 28 2 0
-1 -14 -37 43 33 19 0
-1 -14 37 34 -55 26 0
-1 -14 37 -34 -11 4 6 2 39 0
1 -40 -12 -20 14 7 15 -41 50 0
1 40 -48 33 28 25 0
1 -40 -12 20 -54 -3 -50 0
1 -40 12 45 0
-1 14 -30 45 -28 -20 9 -19 0
1 40 -48 33 -28 -44 0
-1 -14 37 34 55 53 0
-1 14 30 -6 -9 53 17 0
1 40 -48 -33 26 -55 54 0
-1 -14 37 -34 11 -19 0
1 -40 -12 20 -54 -3 50 0
1 -40 -12 -20 14 7 -15 37 4 0
-1 14 -30 -45 -44 3 0
-1 14 30 -6 -9 53 -17 0
-1 -14 37 -34 -11 -4 -10 5 -25 -30 0
-1 -14 37 -34 -11 4 6 2 -39 0
-1 -14 -37 -43 11 -6 27 -49 0
-1 14 30 -6 -9 -53 4 0
1 40 -48 -33 -26 -41 37 -30 -29 0
-1 14 30 -6 9 11 0
1 40 48 15 17 54 -23 28 0
-1 -14 37 -34 -11 -4 -10 -5 18 0
1 40 48 15 17 -54 -46 -6 27 0
-1 -14 37 -34 11 19 12 52 -13 25 51 0
-1 -14 -37 -43 11 6 32 -20 0
-1 -14 37 -34 -11 4 -6 15 -41 -35 0
-1 -14 -37 -43 11 6 -32 -29 0
1 40 -48 -33 -26 41 0
-1 -14 37 -34 -11 4 6 -2 -40 10 0
-1 -14 37 -34 11 19 12 52 13 0
-1 -14 37 -34 -11 4 -6 -15 -51 21 -22 0
-1 -14 37 -34 -11 4 -6 15 41 -43 0
1 40 48 15 -17 -50 0
1 -40 12 -45 36 0
-1 14 30 6 -8 19 45 -12 0
-1 -14 37 -34 -11 -4 10 -32 -2 0
-1 14 30 6 8 -4 0
-1 -14 37 -34 11 19 -12 4 0
-1 -14 -37 -43 11 -6 -27 0
-1 -14 -37 -43 11 -6 27 49 0
1 40 48 15 17 -54 -46 6 39 0
-1 -14 37 -34 -11 4 6 -2 40 0
-1 -14 -37 43 -33 38 0
1 40 -48 -33 26 -55 -54 0
-1 14 -30 45 -28 -20 9 19 0
1 40 48 15 17 -54 -46 -6 -27 -36 0
-1 14 30 6 -8 -19 0
1 -40 -12 20 54 34 21 0
-1 14 -30 -45 44 0
-1 -14 37 34 55 -53 0
1 40 48 -15 -10 -52 0
-1 -14 37 -34 11 19 12 52 -13 -25 38 31 0
