c NeuroCodeBench 2.0 CNF formula with verdict Unsat
p cnf 95 133
-1 46 51 17 37 -76 -73 90 18 0
-1 -46 -91 -7 -88 51 0
1 9 85 33 59 15 -39 0
1 -9 5 -53 -58 18 -68 63 0
-1 -46 91 87 -66 73 -28 72 0
-1 -46 -91 -7 88 -29 -3 0
1 9 -85 91 -65 -48 93 0
1 9 -85 91 -65 48 -34 84 0
-1 -46 -91 7 5 -55 -47 0
-1 -46 91 87 66 57 0
-1 46 -51 62 -93 71 30 0
1 -9 -5 -26 -23 -57 0
-1 -46 91 87 -66 73 -28 -72 0
1 9 -85 91 65 -11 61 84 0
-1 -46 -91 -7 -88 -51 -19 55 0
1 9 -85 91 65 -11 -61 84 15 -79 0
1 -9 5 53 59 84 75 77 0
1 -9 5 -53 -58 -18 0
-1 -46 -91 -7 -88 -51 -19 -55 -85 0
1 -9 5 53 -59 29 68 -22 84 0
-1 -46 -91 7 5 55 -30 0
1 9 -85 91 65 -11 -61 84 -15 0
-1 -46 91 87 66 -57 0
1 -9 5 53 59 -84 87 -28 0
1 9 -85 91 65 11 31 -92 0
1 -9 5 -53 -58 18 68 77 0
-1 46 51 17 37 -76 -73 -90 30 0
-1 46 51 17 37 -76 73 -72 85 0
1 9 -85 -91 -21 87 0
1 -9 5 53 -59 29 -68 -52 26 0
1 -9 -5 -26 23 -3 0
-1 46 -51 62 -93 71 -30 0
-1 46 51 -17 -9 -48 -69 93 0
1 9 85 -33 81 61 -41 0
1 -9 5 53 -59 29 68 22 0
1 9 85 33 -59 0
1 -9 5 -53 58 0
1 9 -85 -91 21 -92 24 -44 0
-1 46 51 -17 -9 48 -26 41 91 42 0
-1 46 51 -17 -9 48 -26 -41 77 0
1 9 -85 91 -65 -48 -93 0
1 -9 5 53 59 -84 -87 38 0
1 9 -85 -91 21 -92 -24 0
1 -9 5 -53 -58 18 -68 -63 -82 0
-1 -46 -91 -7 88 29 0
-1 -46 91 -87 -19 -72 0
-1 -46 -91 -7 88 -29 3 0
1 -9 5 53 -59 -29 0
-1 -46 91 87 -66 -73 25 95 0
-1 46 -51 62 93 29 -30 84 0
-1 46 -51 -62 -93 -89 -84 0
-1 46 51 17 37 -76 -73 -90 -30 0
-1 46 51 17 37 -76 -73 90 -18 -26 0
1 9 85 -33 81 -61 13 38 0
-1 46 -51 62 93 -29 71 0
-1 46 -51 -62 -93 89 75 0
-1 46 51 17 -37 -53 0
-1 -46 -91 7 5 55 30 6 0
-1 46 -51 62 93 29 30 0
-1 -46 91 87 -66 -73 25 -95 0
1 -9 -5 26 0
-1 -46 91 87 -66 -73 -25 0
1 -9 -5 -26 23 3 0
-1 46 -51 -62 93 0
-1 46 51 -17 9 68 0
1 -9 5 53 -59 29 -68 52 0
1 9 -85 -91 -21 -87 0
-1 -46 -91 7 -5 -51 0
1 9 85 33 59 15 39 30 0
-1 -46 91 -87 -19 72 0
1 -9 5 53 59 84 75 -77 0
-1 46 -51 62 93 -29 -71 0
-1 -46 91 87 -66 73 28 13 0
1 9 85 -33 81 61 41 0
1 -9 5 53 59 -84 -87 -38 0
1 9 -85 91 -65 48 -34 -84 0
1 9 -85 91 65 -11 -61 -84 -80 0
-1 46 51 17 37 -76 73 72 -21 0
1 -9 5 -53 -58 18 68 -77 0
1 9 -85 91 65 11 -31 59 45 -50 0
-1 46 -51 62 -93 -71 83 45 0
1 9 85 -33 81 -61 13 -38 0
1 -9 5 -53 -58 18 -68 -63 82 0
1 9 85 -33 81 -61 -13 -57 0
-1 46 51 17 37 -76 -73 90 -18 26 0
1 9 -85 91 65 11 31 92 0
1 9 -85 91 65 -11 61 -84 0
-1 46 51 17 37 -76 73 -72 -85 -66 0
-1 -46 -91 7 5 55 30 -6 0
-1 46 51 17 37 76 0
-1 46 51 -17 -9 48 -26 -41 -77 0
1 -9 -5 -26 -23 57 87 0
1 -9 5 53 59 84 -75 0
-1 -46 91 -87 19 0
1 -9 5 53 -59 29 68 -22 -84 0
-1 46 51 -17 -9 -48 69 55 0
-1 46 -51 62 -93 -71 -83 0
1 9 85 33 59 -15 0
-1 46 51 17 37 -76 73 72 21 -24 0
1 9 -85 91 65 -11 -61 -84 80 0
-1 -46 -91 -7 -88 -51 -19 -55 85 0
-1 46 51 -17 -9 -48 -69 -93 0
-1 46 51 -17 -9 48 -26 41 -91 8 0
1 9 85 -33 81 -61 -13 57 0
1 9 -85 91 65 11 -31 -59 0
-1 46 51 17 37 -76 73 72 21 24 0
1 9 -85 -91 21 92 0
1 9 85 -33 -81 0
-1 -46 -91 7 -5 51 -18 0
-1 46 51 17 37 -76 73 -72 -85 66 0
1 9 -85 -91 21 -92 24 44 0
-1 46 51 -17 -9 48 -26 41 -91 -8 0
-1 46 -51 -62 -93 -89 84 0
-1 -46 -91 7 -5 51 18 0
-1 -46 -91 -7 -88 -51 19 0
-1 -46 -91 7 5 -55 47 0
-1 46 51 -17 9 -68 0
1 -9 5 53 59 -84 87 28 0
-1 46 -51 62 93 29 -30 -84 0
-1 46 51 -17 -9 48 26 0
1 9 -85 91 65 11 -31 59 45 50 0
-1 -46 91 87 -66 73 28 -13 0
1 9 -85 91 65 11 -31 59 -45 0
-1 46 51 -17 -9 48 -26 41 91 -42 0
-1 46 -51 -62 -93 89 -75 0
1 9 85 33 59 15 39 -30 0
1 -9 -5 -26 -23 57 -87 0
1 9 -85 91 65 -11 -61 84 15 79 0
1 9 -85 91 -65 48 34 0
-1 46 51 17 -37 53 0
1 -9 5 53 -59 29 -68 -52 -26 0
-1 46 51 -17 -9 -48 69 -55 0
-1 46 -51 62 -93 -71 83 -45 0
