c NeuroCodeBench 2.0 CNF formula with verdict Unsat
p cnf 97 444
-1 -48 43 -94 -70 -45 -3 60 -84 -37 21 0
-1 -48 43 -94 -70 45 -95 -40 0
-1 -48 -43 -23 73 -14 -34 -13 27 0
-1 -48 43 -94 -70 -45 3 6 39 72 -95 -78 21 0
1 92 -51 -31 86 70 43 -19 -78 -50 0
1 92 -51 -31 86 70 43 -19 78 -62 0
-1 -48 -43 -23 73 -14 -34 13 -55 0
-1 -48 43 -94 -70 -45 3 6 39 -72 -23 0
-1 48 13 9 17 86 -12 5 -45 0
-1 -48 -43 -23 73 14 -85 32 -4 22 69 33 -28 0
-1 48 13 -9 32 -84 81 0
1 92 51 40 -87 -67 -81 41 -21 -97 -45 -43 0
1 -92 -45 -39 54 -91 -67 32 86 30 19 34 0
-1 48 -13 88 27 35 87 79 -51 73 -89 0
-1 -48 43 -94 -70 45 95 0
1 92 -51 -31 -86 -13 -2 -45 -15 -85 -5 -38 0
1 92 51 40 87 -47 82 0
1 92 51 40 -87 -67 -81 -41 -30 -77 0
-1 -48 -43 -23 -73 -22 24 0
-1 48 13 -9 -32 -38 -28 56 -4 -8 83 0
-1 48 13 9 17 86 12 -67 15 -41 0
-1 48 13 9 -17 -71 8 -19 70 75 0
-1 48 -13 -88 64 -70 -17 38 -63 0
1 92 51 40 -87 67 -24 -64 41 4 0
-1 48 -13 88 27 -35 -2 -56 -39 -38 -21 0
1 92 -51 -31 86 70 -43 -40 -94 -69 23 -48 0
-1 -48 43 -94 -70 -45 -3 60 84 25 71 90 0
1 92 51 -40 -75 -70 0
-1 48 13 -9 32 -84 -81 73 -45 41 -37 0
-1 48 13 -9 -32 -38 28 -53 57 0
1 92 -51 -31 86 -70 -12 -29 0
1 92 -51 31 87 56 -16 37 27 0
-1 48 13 -9 32 84 85 -66 22 64 0
-1 48 -13 88 27 -35 2 24 -52 -11 0
-1 48 -13 -88 -64 -35 -93 -14 -17 0
1 -92 -45 -39 54 -91 67 0
-1 48 13 -9 32 -84 -81 73 45 -38 -71 78 69 0
-1 48 -13 88 27 -35 -2 56 42 0
-1 48 13 9 17 86 12 -67 15 41 84 0
-1 -48 43 -94 -70 -45 3 6 -39 -19 -93 0
-1 48 -13 -88 -64 -35 93 -16 -86 -83 23 0
-1 -48 43 94 -80 -10 -97 0
1 92 51 40 -87 -67 81 -75 29 -6 16 -48 13 0
-1 -48 43 -94 -70 -45 -3 60 -84 -37 -21 0
1 92 51 40 87 47 64 -93 -88 0
-1 -48 43 -94 -70 -45 3 6 39 72 -95 -78 -21 0
1 92 -51 31 87 -56 -86 -67 -14 -18 -64 0
1 92 51 40 -87 -67 -81 41 -21 -97 45 0
-1 -48 43 -94 -70 -45 3 -6 29 -91 84 61 -52 0
1 92 51 40 87 -47 -82 18 -26 -22 91 0
1 92 51 40 87 -47 -82 18 -26 22 0
-1 -48 43 -94 -70 -45 -3 60 84 25 71 -90 -67 0
-1 48 -13 88 27 -35 2 -24 0
1 92 51 40 -87 -67 -81 -41 30 45 82 0
-1 -48 43 -94 -70 -45 3 -6 29 91 0
1 -92 45 -66 -7 46 -43 0
-1 48 -13 88 27 -35 2 24 -52 11 60 0
-1 48 -13 88 27 -35 2 24 -52 11 -60 37 0
-1 -48 -43 -23 73 -14 34 -26 -45 97 0
1 92 -51 31 87 -56 86 85 45 0
1 92 -51 -31 86 70 43 -19 78 62 0
-1 -48 43 -94 -70 -45 3 -6 29 -91 -84 53 -58 15 0
1 92 -51 31 87 -56 -86 67 93 78 -74 -49 -8 0
-1 -48 43 -94 -70 -45 -3 -60 -17 -24 10 -5 -66 0
-1 -48 43 -94 -70 -45 -3 -60 17 -64 85 32 28 18 0
-1 48 13 -9 32 -84 -81 -73 -31 -57 29 0
1 92 51 40 87 -47 -82 18 26 -80 0
-1 -48 43 -94 70 0
1 -92 -45 39 -75 -16 -76 48 -74 0
1 92 51 40 -87 67 -24 -64 -41 0
1 -92 45 66 74 19 -6 -96 -85 0
1 -92 -45 -39 -54 -62 0
-1 -48 43 -94 -70 -45 -3 60 84 25 71 -90 67 0
-1 -48 -43 -23 73 14 -85 32 -4 22 69 33 28 0
-1 -48 -43 -23 73 -14 34 -26 45 3 0
1 -92 -45 39 -75 -16 -76 48 74 0
-1 48 -13 -88 -64 35 30 0
1 -92 -45 39 75 93 79 -81 -49 0
-1 -48 43 -94 -70 -45 -3 -60 17 64 -51 0
-1 48 13 9 -17 71 0
-1 48 -13 88 27 -35 -2 -56 -39 -38 21 -78 40 0
-1 -48 43 -94 -70 -45 3 6 39 -72 23 -78 21 -24 0
1 92 51 40 -87 67 -24 64 -84 -6 0
1 -92 45 66 -74 -40 0
-1 -48 43 -94 -70 -45 3 6 -39 19 76 23 0
1 92 -51 -31 86 70 -43 -40 94 0
-1 -48 -43 23 64 92 -45 0
1 92 -51 31 87 -56 -86 67 -93 38 71 0
1 92 51 40 87 47 64 93 0
-1 48 13 9 17 86 12 -67 15 41 -84 0
1 -92 -45 39 75 -93 22 -79 0
-1 48 13 -9 32 -84 -81 73 -45 41 37 0
1 -92 45 66 74 -19 -85 26 -94 0
1 -92 -45 39 -75 -16 76 -34 0
-1 -48 -43 23 64 92 45 22 -96 0
1 -92 45 -66 -7 46 43 28 0
1 92 51 40 -87 -67 -81 -41 30 -45 -15 0
1 92 -51 31 87 -56 -86 -67 14 -65 75 -83 0
1 92 -51 -31 86 -70 -12 29 -10 0
1 92 -51 31 87 -56 -86 -67 -14 18 -26 0
1 92 51 40 87 -47 -82 -18 22 0
1 92 -51 31 87 56 16 35 66 -14 29 0
-1 48 13 9 -17 -71 -8 -67 0
1 -92 -45 39 75 93 79 -81 49 0
-1 -48 -43 23 64 -92 0
1 -92 -45 39 75 93 -79 0
1 92 -51 31 87 -56 -86 -67 14 -65 75 83 0
1 92 -51 31 87 -56 86 -85 -60 -96 -45 0
-1 -48 -43 -23 73 14 -85 -32 55 -38 -52 -68 15 -59 0
1 92 51 40 87 -47 -82 18 -26 -22 -91 0
-1 -48 43 -94 -70 -45 3 -6 29 -91 84 -61 87 73 -46 0
-1 -48 -43 -23 -73 22 0
-1 -48 43 -94 -70 -45 3 6 -39 19 76 -23 0
-1 48 13 -9 32 84 85 -66 -22 72 0
-1 -48 43 -94 -70 -45 3 6 -39 -19 93 0
-1 48 -13 88 -27 63 42 -41 79 0
-1 48 13 9 17 86 12 67 57 0
1 92 51 40 -87 -67 81 75 -37 -56 -58 0
-1 48 13 -9 32 84 85 -66 -22 -72 0
1 -92 45 -66 -7 -46 -75 -82 0
-1 -48 43 94 80 -84 -68 -74 0
-1 -48 43 -94 -70 -45 -3 -60 17 64 51 0
-1 48 13 9 17 -86 -42 0
-1 -48 -43 -23 73 -14 34 26 63 0
-1 48 -13 88 -27 -63 37 0
-1 48 -13 88 27 35 87 -79 -39 62 0
-1 48 13 -9 32 -84 -81 73 45 38 -12 -78 0
-1 48 -13 88 27 -35 -2 56 -42 0
1 -92 45 -66 7 0
-1 48 13 9 17 -86 42 74 73 -54 82 0
1 92 51 40 -87 -67 -81 41 -21 97 -30 0
-1 48 -13 88 27 35 87 -79 39 15 -63 -78 -10 -53 -29 0
-1 48 13 -9 32 -84 -81 73 45 -38 -71 78 -69 -64 0
1 92 -51 -31 -86 -13 -2 -45 15 -71 0
-1 -48 -43 -23 73 -14 34 26 -63 0
-1 48 -13 -88 64 -70 17 -5 0
-1 -48 43 94 80 -84 -68 74 0
1 92 51 40 -87 67 -24 64 -84 6 0
-1 -48 43 -94 -70 -45 3 6 39 72 -95 78 -35 -64 0
-1 48 13 9 17 -86 42 74 73 54 0
-1 48 -13 88 -27 63 42 -41 -79 0
-1 48 13 -9 32 84 -85 61 0
1 92 -51 31 87 -56 -86 67 93 78 74 -13 0
-1 -48 43 -94 -70 -45 3 -6 -29 84 0
-1 -48 -43 -23 73 -14 -34 -13 -27 0
-1 -48 -43 -23 73 14 -85 32 4 0
1 92 -51 -31 -86 -13 -2 -45 -15 -85 5 0
1 92 51 40 -87 -67 81 75 -37 -56 58 0
-1 48 -13 88 27 -35 -2 -56 -39 38 0
-1 48 -13 88 27 35 87 -79 39 -15 0
1 92 -51 -31 86 70 -43 -40 -94 69 0
-1 -48 -43 -23 73 14 85 83 -37 62 0
1 92 51 40 87 47 64 -93 88 0
-1 48 -13 88 27 35 87 -79 39 15 -63 78 12 0
-1 -48 43 94 -80 -10 97 0
-1 -48 -43 -23 73 14 85 83 -37 -62 -67 0
1 92 51 40 87 -47 -82 -18 -22 14 0
1 -92 45 -66 -7 46 43 -28 0
1 -92 -45 -39 -54 62 29 0
-1 -48 -43 23 64 92 45 -22 -73 0
-1 48 13 -9 -32 38 0
1 -92 -45 39 75 -93 -22 78 0
-1 -48 43 -94 -70 -45 3 -6 29 -91 84 -61 87 -73 0
1 92 -51 -31 -86 -13 2 83 -46 45 0
-1 -48 -43 23 -64 75 -81 -40 -68 0
-1 -48 43 -94 -70 -45 3 6 39 72 -95 78 35 0
-1 48 13 -9 32 84 85 66 -18 -16 -79 0
1 -92 -45 -39 54 -91 -67 -32 -90 29 0
-1 48 -13 88 27 35 87 -79 39 15 -63 -78 -10 53 0
1 -92 -45 -39 -54 62 -29 79 -66 91 0
1 92 51 40 87 47 -64 31 0
-1 -48 -43 -23 73 14 85 83 -37 -62 67 0
1 92 -51 31 87 -56 -86 -67 14 -65 -75 41 0
1 -92 45 66 74 -19 -85 -26 68 0
-1 48 -13 88 -27 -63 -37 0
1 92 51 40 87 -47 -82 -18 -22 -14 0
-1 -48 43 -94 -70 -45 3 -6 29 -91 84 -61 87 73 46 0
-1 48 13 -9 -32 -38 -28 -56 19 0
-1 48 -13 88 27 35 87 -79 39 15 -63 -78 10 0
-1 48 -13 88 -27 63 -42 0
-1 -48 -43 -23 73 14 85 -83 -4 0
-1 48 -13 88 27 -35 -2 -56 -39 -38 21 -78 -40 0
-1 48 13 9 -17 -71 8 -19 -70 -90 0
-1 48 13 -9 32 -84 -81 -73 -31 57 -34 86 0
1 -92 -45 -39 54 -91 -67 -32 -90 -29 -17 0
-1 -48 43 -94 -70 -45 3 -6 -29 -84 0
-1 -48 43 -94 -70 -45 -3 -60 17 -64 85 -32 0
1 -92 -45 -39 -54 62 -29 79 66 0
1 92 -51 31 87 56 16 -35 -44 0
-1 48 -13 88 27 35 87 79 -51 -73 0
-1 48 -13 88 27 35 -87 45 -90 -28 72 -21 0
-1 48 -13 -88 64 -70 -17 -38 -26 -25 0
-1 48 13 -9 32 -84 -81 -73 -31 -57 -29 0
-1 48 13 -9 -32 -38 28 53 -25 0
1 92 -51 -31 -86 -13 -2 -45 -15 85 10 0
1 -92 -45 -39 54 -91 -67 32 86 -30 -9 -37 0
1 92 -51 31 87 -56 86 85 -45 0
-1 48 -13 88 27 -35 -2 -56 -39 -38 21 78 0
1 -92 -45 39 75 -93 22 79 0
-1 48 13 9 17 -86 42 74 73 -54 -82 0
-1 48 13 -9 -32 -38 -28 56 -4 8 0
-1 48 -13 88 27 35 87 -79 39 15 -63 78 -12 0
1 92 51 40 -87 -67 -81 41 21 -29 0
-1 48 13 9 -17 -71 8 -19 70 -75 0
-1 -48 -43 -23 73 -14 -34 13 55 0
-1 48 -13 -88 -64 -35 93 -16 -86 -83 -23 -54 49 0
-1 -48 43 -94 -70 -45 3 6 39 -72 23 -78 -21 47 0
-1 -48 43 -94 -70 -45 3 6 39 72 95 -7 -27 0
-1 48 13 -9 -32 -38 28 -53 -57 0
-1 -48 43 -94 -70 -45 3 6 39 72 95 7 0
-1 48 13 -9 32 -84 -81 73 45 -38 -71 -78 -23 0
-1 -48 43 94 80 84 -36 73 0
-1 -48 43 -94 -70 -45 3 6 -39 19 -76 -56 0
1 92 51 40 -87 -67 -81 41 -21 97 30 0
1 92 -51 -31 -86 -13 2 -83 0
1 -92 -45 -39 54 -91 -67 -32 90 0
1 -92 -45 -39 54 91 -43 0
-1 48 13 -9 32 84 85 66 -18 16 0
1 92 -51 31 87 -56 86 -85 60 0
-1 -48 -43 -23 73 14 85 83 37 0
-1 -48 43 -94 -70 -45 3 6 -39 19 -76 56 0
1 -92 45 66 74 -19 -85 -26 -68 0
1 92 51 40 87 47 -64 -31 61 0
-1 -48 -43 23 -64 -75 70 -73 -41 0
1 92 -51 -31 -86 -13 -2 -45 -15 85 -10 54 0
-1 48 13 -9 32 -84 -81 -73 -31 57 -34 -86 0
-1 -48 -43 23 -64 75 81 0
1 92 -51 31 87 56 16 35 66 -14 -29 0
-1 -48 43 -94 -70 -45 -3 -60 -17 -24 10 5 0
-1 -48 43 94 80 84 36 -47 0
1 -92 45 66 74 19 -6 -96 85 0
1 92 -51 -31 86 70 43 -19 -78 50 0
1 92 -51 -31 -86 -13 -2 45 -97 0
1 92 -51 -31 -86 -13 -2 -45 -15 85 -10 -54 0
-1 -48 43 94 80 84 36 47 0
-1 -48 -43 -23 73 14 -85 32 -4 22 -69 49 0
-1 48 -13 88 27 35 87 79 51 0
1 92 51 40 -87 -67 81 75 37 -11 0
1 92 -51 -31 86 70 -43 -40 -94 -69 23 48 0
-1 48 -13 -88 -64 -35 93 -16 86 5 0
-1 -48 -43 -23 73 14 -85 32 -4 -22 0
1 -92 -45 -39 -54 62 -29 79 -66 -91 0
-1 -48 43 -94 -70 -45 -3 -60 17 -64 -85 0
-1 48 -13 88 27 35 -87 45 -90 -28 -72 -81 0
-1 48 13 -9 32 84 85 66 18 45 0
-1 -48 43 94 -80 10 0
1 92 51 40 -87 -67 -81 -41 30 45 -82 0
1 92 51 -40 -75 70 23 0
1 92 -51 31 87 56 16 -35 44 0
1 92 -51 31 87 -56 -86 -67 -14 -18 64 0
1 92 51 40 87 47 -64 -31 -61 0
-1 48 13 -9 -32 -38 -28 -56 -19 0
1 -92 45 66 74 -19 85 33 0
1 -92 45 66 74 19 -6 96 0
-1 48 -13 -88 -64 -35 93 -16 -86 -83 -23 54 0
1 -92 45 66 74 -19 -85 26 94 0
-1 -48 43 -94 -70 -45 3 -6 29 -91 -84 53 58 0
-1 -48 -43 -23 73 -14 34 -26 45 -3 0
-1 -48 43 -94 -70 -45 3 6 39 -72 23 78 91 0
1 92 51 40 -87 -67 81 75 37 11 0
1 92 51 40 -87 -67 -81 41 -21 -97 -45 43 0
-1 48 13 9 17 86 12 -67 -15 0
-1 48 13 9 -17 -71 -8 67 0
1 92 -51 31 87 -56 -86 67 93 78 -74 49 0
1 92 51 -40 75 -26 0
1 92 -51 31 87 -56 -86 67 93 78 -74 -49 8 0
1 -92 -45 39 -75 -16 -76 -48 0
-1 48 13 9 17 -86 42 -74 0
1 92 -51 -31 86 70 -43 40 -27 15 0
1 92 51 40 -87 67 -24 -64 41 -4 0
-1 -48 43 -94 -70 -45 -3 -60 -17 -24 -10 -2 0
-1 48 13 9 17 86 -12 -5 0
-1 -48 -43 -23 73 14 -85 -32 55 38 -46 0
-1 48 -13 -88 64 70 -28 59 0
-1 48 -13 -88 64 70 -28 -59 -16 0
-1 48 13 9 17 86 -12 5 45 0
-1 48 13 -9 32 84 85 66 -18 -16 79 0
1 -92 -45 -39 54 -91 -67 32 -86 81 0
-1 -48 -43 -23 -73 -22 -24 64 -84 12 0
-1 -48 43 -94 -70 -45 3 6 39 -72 23 -78 21 24 -53 0
1 92 51 -40 -75 70 -23 0
1 92 51 40 -87 -67 -81 -41 30 -45 15 0
1 -92 -45 -39 54 -91 -67 32 -86 -81 0
-1 48 -13 88 27 35 -87 45 -90 -28 72 21 0
1 92 51 40 -87 -67 81 75 -37 56 0
-1 48 13 -9 -32 -38 -28 56 -4 -8 -83 0
-1 -48 43 -94 -70 -45 3 -6 29 -91 -84 -53 0
-1 48 -13 -88 64 70 -28 -59 16 31 0
-1 48 -13 -88 -64 -35 93 16 -67 0
-1 48 -13 88 27 35 87 -79 39 15 -63 -78 -10 -53 29 0
1 92 51 40 -87 -67 81 -75 29 -6 16 48 0
-1 -48 43 -94 -70 -45 -3 60 84 25 -71 0
-1 -48 43 -94 -70 -45 -3 -60 -17 -24 -10 2 0
1 92 51 40 -87 -67 81 -75 29 -6 16 -48 -13 0
-1 -48 43 94 80 -84 68 -16 0
-1 -48 -43 -23 -73 -22 -24 -64 -56 0
-1 -48 43 94 80 84 -36 -73 0
-1 -48 -43 23 -64 75 -81 40 0
-1 48 -13 88 -27 63 42 41 0
-1 -48 43 -94 -70 -45 -3 -60 -17 -24 10 -5 66 0
-1 -48 43 -94 -70 -45 3 -6 29 -91 -84 53 -58 -15 0
1 92 -51 31 87 56 -16 -37 0
-1 48 13 -9 32 84 -85 -61 0
-1 -48 -43 -23 -73 -22 -24 -64 56 0
1 92 -51 -31 -86 -13 -2 -45 -15 -85 -5 38 0
1 92 51 -40 75 26 -21 -58 17 0
-1 48 13 -9 32 84 85 -66 22 -64 63 0
-1 -48 -43 23 64 92 45 22 96 63 0
-1 48 -13 88 27 35 -87 -45 59 0
1 -92 -45 -39 54 -91 -67 32 86 30 19 -34 0
-1 -48 43 -94 -70 45 -95 40 0
-1 48 13 9 -17 -71 8 19 0
1 92 -51 31 87 56 -16 37 -27 0
-1 48 -13 88 27 35 87 -79 39 15 63 0
1 92 -51 -31 -86 -13 2 83 -46 -45 0
1 92 -51 31 -87 0
-1 48 13 -9 32 -84 -81 73 45 38 -12 78 0
-1 48 13 -9 32 84 85 -66 22 -64 -63 0
-1 -48 -43 23 64 92 45 22 96 -63 0
-1 -48 -43 -23 73 14 -85 -32 55 -38 52 0
1 92 -51 31 87 -56 -86 67 93 78 74 13 0
-1 48 13 9 17 86 12 67 -57 0
1 -92 45 66 74 19 6 0
1 92 -51 -31 86 -70 12 0
1 92 51 40 -87 67 -24 64 84 82 0
1 92 -51 31 87 -56 -86 67 -93 38 -71 0
-1 48 -13 -88 -64 -35 93 16 67 0
1 92 -51 -31 86 70 43 19 0
-1 48 -13 -88 -64 -35 93 -16 -86 -83 -23 -54 -49 0
-1 -48 -43 -23 73 14 -85 -32 -55 -4 0
-1 48 13 -9 32 -84 -81 73 45 -38 -71 -78 23 0
-1 48 13 -9 32 -84 -81 -73 -31 57 34 0
-1 -48 -43 -23 -73 -22 -24 64 84 0
-1 48 -13 -88 64 -70 -17 -38 -26 25 0
1 92 51 -40 75 26 -21 58 0
-1 48 13 -9 32 -84 -81 -73 31 0
1 92 -51 -31 86 -70 -12 29 10 0
-1 48 13 -9 -32 -38 28 53 25 0
-1 48 13 -9 -32 -38 -28 56 4 0
1 -92 -45 -39 54 -91 -67 32 86 -30 9 0
-1 48 13 9 17 -86 42 74 -73 0
-1 48 -13 88 27 -35 -2 -56 39 0
-1 -48 -43 -23 73 14 -85 32 -4 22 69 -33 0
-1 48 13 9 -17 -71 8 -19 -70 90 0
1 92 51 40 -87 -67 81 -75 29 6 0
1 -92 -45 -39 54 -91 -67 32 86 -30 -9 37 72 0
1 92 -51 -31 -86 -13 -2 -45 15 71 0
-1 -48 -43 -23 -73 -22 -24 64 -84 -12 0
1 -92 -45 39 75 93 79 81 0
-1 -48 43 -94 -70 -45 3 6 39 -72 23 78 -91 0
1 -92 -45 -39 54 -91 -67 32 86 -30 -9 37 -72 0
-1 -48 43 -94 -70 -45 3 6 39 -72 23 -78 -21 -47 0
-1 48 -13 -88 64 -70 -17 38 63 -42 0
-1 -48 43 -94 -70 -45 3 -6 29 -91 84 61 52 23 0
-1 -48 -43 23 -64 -75 70 -73 41 0
-1 48 -13 -88 -64 -35 -93 14 0
1 -92 45 -66 -7 -46 -75 82 0
-1 48 -13 88 27 35 87 79 -51 73 89 0
1 92 -51 31 87 56 16 35 -66 0
-1 -48 43 -94 -70 -45 3 6 39 -72 23 -78 21 24 53 0
1 92 51 -40 75 26 21 0
-1 48 13 -9 32 -84 -81 73 45 38 12 7 0
1 -92 45 66 -74 40 14 0
1 92 -51 31 87 -56 -86 67 -93 -38 0
-1 48 -13 88 27 35 -87 45 -90 28 0
-1 -48 43 -94 -70 -45 -3 -60 -17 24 0
-1 48 -13 88 27 35 -87 -45 -59 0
-1 48 13 -9 32 -84 -81 73 45 -38 71 0
1 -92 -45 -39 54 91 43 0
-1 -48 -43 -23 73 14 -85 -32 55 38 46 0
1 92 51 40 -87 67 24 0
1 92 -51 31 87 -56 -86 -67 -14 18 26 -76 0
1 -92 -45 39 -75 -16 76 34 0
1 92 -51 -31 -86 13 72 0
-1 48 -13 88 27 -35 2 24 52 0
-1 -48 43 -94 -70 -45 -3 -60 17 -64 85 32 28 -18 0
-1 -48 43 -94 -70 -45 3 6 39 72 -95 78 -35 64 0
-1 -48 -43 -23 73 14 -85 32 -4 22 -69 -49 0
-1 -48 43 -94 -70 -45 3 6 39 72 95 -7 27 0
1 -92 45 66 74 -19 85 -33 0
-1 -48 -43 -23 73 14 -85 -32 55 -38 -52 -68 -15 0
-1 -48 -43 -23 73 14 -85 -32 -55 4 0
1 -92 -45 -39 54 -91 -67 32 86 30 -19 95 0
-1 -48 43 -94 -70 -45 3 -6 29 -91 84 -61 -87 0
-1 48 -13 88 27 35 87 -79 -39 -62 0
1 92 -51 -31 -86 13 -72 0
-1 -48 -43 -23 73 14 -85 -32 55 -38 -52 68 0
-1 -48 -43 -23 73 14 -85 -32 55 -38 -52 -68 15 59 0
1 92 -51 -31 -86 -13 -2 45 97 0
-1 48 13 -9 32 -84 -81 73 45 38 12 -7 0
-1 -48 -43 -23 73 -14 34 -26 -45 -97 0
1 92 51 40 -87 -67 -81 41 21 29 0
-1 -48 -43 -23 73 14 85 -83 4 0
-1 -48 -43 23 -64 -75 70 73 0
-1 -48 43 -94 -70 -45 -3 60 -84 37 0
-1 48 -13 -88 -64 -35 93 -16 -86 83 0
1 92 -51 31 87 -56 -86 67 93 -78 0
1 -92 45 -66 -7 -46 75 0
-1 -48 43 -94 -70 -45 -3 -60 17 -64 85 32 -28 0
-1 -48 43 -94 -70 -45 3 -6 29 -91 84 61 52 -23 0
1 92 -51 31 87 -56 -86 -67 14 -65 -75 -41 0
-1 48 -13 -88 64 -70 -17 -38 26 0
1 92 -51 -31 86 70 -43 40 -27 -15 0
-1 48 -13 -88 -64 -35 -93 -14 17 0
1 92 -51 -31 -86 -13 2 83 46 -18 0
1 -92 -45 39 -75 16 0
-1 -48 -43 23 64 92 45 -22 73 0
1 92 -51 -31 -86 -13 2 83 46 18 0
1 -92 -45 -39 54 -91 -67 -32 -90 -29 17 23 0
1 -92 45 66 -74 40 -14 0
-1 48 -13 -88 64 -70 -17 38 63 42 0
1 92 -51 31 87 -56 -86 -67 -14 18 26 76 0
1 -92 -45 -39 -54 62 -29 -79 0
-1 48 -13 88 27 35 -87 45 -90 -28 -72 81 0
-1 48 -13 88 27 35 -87 45 90 0
1 92 51 -40 75 26 -21 -58 -17 0
1 92 -51 -31 86 70 -43 -40 -94 -69 -23 0
-1 48 -13 -88 64 70 28 0
-1 -48 -43 23 -64 -75 -70 0
-1 48 13 -9 32 -84 -81 73 45 -38 -71 78 -69 64 7 0
1 92 51 40 -87 67 -24 64 84 -82 0
1 92 51 40 -87 -67 81 -75 -29 0
1 92 -51 31 87 -56 86 -85 -60 -96 45 0
1 92 -51 31 87 56 16 35 66 14 0
1 92 -51 31 87 -56 86 -85 -60 96 0
-1 48 -13 -88 64 -70 17 5 0
1 -92 -45 -39 54 -91 -67 32 86 30 -19 -95 0
-1 -48 43 -94 -70 -45 -3 60 84 -25 0
1 92 51 40 -87 -67 -81 -41 -30 77 0
1 92 -51 31 87 -56 -86 -67 14 65 0
1 92 -51 -31 86 70 -43 40 27 0
1 92 51 40 -87 -67 81 -75 29 -6 -16 0
-1 48 13 -9 32 84 85 66 18 -45 0
1 92 51 40 87 -47 -82 18 26 80 0
-1 48 13 -9 32 -84 -81 73 45 -38 -71 78 -69 64 -7 0
-1 48 -13 -88 64 70 -28 -59 16 -31 0
-1 48 -13 88 27 -35 2 24 -52 11 -60 -37 0
1 -92 -45 39 75 -93 -22 -78 0
-1 48 13 -9 32 -84 -81 73 -45 -41 0
1 -92 -45 -39 54 -91 -67 -32 -90 -29 17 -23 0
-1 -48 43 94 80 -84 68 16 0
-1 -48 -43 23 -64 75 -81 -40 68 0
-1 48 -13 -88 -64 -35 93 -16 86 -5 0
-1 48 -13 -88 -64 35 -30 0
