c NeuroCodeBench 2.0 CNF formula with verdict Unsat
p cnf 50 495
-1 -16 11 3 -45 -21 -4 38 -18 0
-1 16 17 31 34 -9 -20 -39 8 7 27 0
1 -40 -35 -23 33 -13 10 0
-1 16 17 31 34 9 -4 -45 -44 -23 0
1 40 27 31 -3 36 24 -43 -9 -19 13 0
-1 16 17 -31 -36 -12 -25 -37 -32 0
-1 -16 -11 -10 31 -44 25 0
1 -40 35 30 -8 -17 -36 49 29 21 0
-1 16 17 31 34 9 -4 -45 44 -49 -27 0
1 -40 -35 23 44 5 13 -39 -32 27 14 0
-1 -16 11 3 -45 21 23 -9 14 -47 0
1 40 -27 -26 32 -36 -22 17 46 -11 -9 44 0
-1 16 -17 27 13 48 45 35 0
1 -40 -35 -23 -33 -6 15 0
1 -40 -35 23 44 5 -13 -33 0
1 -40 35 30 8 -19 -26 20 -21 0
1 -40 35 30 -8 -17 36 -29 5 0
1 40 -27 -26 32 36 31 -24 3 -14 17 28 0
1 40 -27 26 36 -12 44 0
-1 -16 11 3 -45 21 23 9 33 -14 0
-1 16 -17 -27 33 0
1 -40 35 30 8 19 18 38 -6 49 0
1 -40 -35 23 44 -5 4 47 34 0
1 40 27 -31 -42 13 33 41 46 50 0
1 40 -27 26 36 12 9 -38 -16 0
-1 16 17 31 34 -9 -20 39 6 -21 -4 0
1 -40 35 30 8 -19 26 25 -2 -46 0
1 40 -27 -26 -32 42 -13 29 12 36 -39 -17 8 0
1 -40 35 30 -8 -17 -36 49 -29 -31 -4 0
1 40 -27 26 -36 -30 -7 23 -49 -46 48 0
1 40 27 31 3 37 -18 22 14 0
1 -40 -35 23 -44 -48 -32 8 10 5 0
-1 16 -17 27 -13 47 19 36 -9 0
1 40 27 -31 -42 -13 -15 -44 -18 0
1 -40 35 30 -8 17 31 -37 6 0
1 40 -27 -26 32 36 31 -24 3 14 0
1 -40 35 30 -8 -17 -36 -49 -43 -23 0
-1 16 17 31 34 -9 20 -8 -5 49 0
1 -40 35 30 8 19 -18 22 0
-1 16 -17 27 -13 47 19 36 9 0
-1 16 -17 -27 -33 -8 -3 21 0
1 40 -27 -26 -32 42 -13 29 -12 -28 -46 23 0
-1 -16 11 3 -45 -21 4 8 0
1 40 27 31 3 -37 22 32 0
-1 -16 11 3 -45 21 23 -9 14 47 -6 20 -5 0
1 40 27 -31 -42 -13 -15 -44 18 0
-1 16 17 31 34 9 -4 45 46 2 -5 0
-1 -16 11 3 -45 21 -23 40 31 -12 -44 0
-1 16 17 31 34 9 4 -46 37 -29 0
1 40 -27 26 -36 -30 7 -15 0
1 -40 35 30 -8 -17 36 29 21 10 -38 0
1 -40 35 30 8 19 18 38 6 -25 31 0
1 40 -27 26 -36 30 -45 -20 0
-1 -16 11 3 -45 21 23 9 -33 12 -44 0
-1 16 -17 27 -13 -47 0
1 40 -27 26 -36 -30 -7 23 -49 46 0
1 -40 35 30 -8 17 -31 43 -37 27 0
1 40 27 -31 42 39 -41 7 0
1 -40 -35 23 -44 48 24 -3 -8 0
1 40 -27 -26 -32 -42 -4 -34 33 -50 -45 -25 23 0
-1 -16 11 3 45 -18 -40 0
-1 16 17 -31 36 10 -2 -20 49 50 0
-1 16 17 -31 36 10 2 45 -48 0
1 -40 -35 23 44 5 13 -39 -32 27 -14 0
-1 16 17 31 34 -9 20 8 0
1 40 -27 -26 32 -36 -22 17 46 11 21 -18 0
1 40 -27 -26 32 -36 -22 17 -46 12 37 0
1 40 -27 -26 32 36 -31 -28 -22 0
1 -40 35 30 -8 -17 36 -29 -5 0
-1 -16 -11 10 14 12 0
-1 16 17 31 -34 -41 10 8 4 33 24 0
-1 -16 11 -3 -45 -15 14 0
1 -40 -35 23 44 -5 4 -47 0
1 40 -27 26 -36 -30 -7 23 49 -16 -32 0
1 -40 35 -30 22 -7 27 16 0
-1 16 17 31 34 9 4 46 -22 6 0
-1 -16 11 3 -45 21 23 -9 14 47 6 -18 0
1 40 -27 -26 32 -36 -22 17 46 -11 9 0
1 -40 35 -30 22 7 -46 -2 -26 0
1 -40 -35 23 -44 -48 32 2 0
-1 -16 11 3 -45 21 23 9 -33 -12 -17 49 -40 0
1 40 -27 -26 -32 -42 4 -22 -21 7 -24 -2 -17 0
1 -40 35 30 -8 -17 -36 -49 43 0
1 -40 -35 23 44 5 13 39 -29 0
1 -40 35 30 -8 -17 -36 49 29 -21 0
-1 16 17 -31 36 -10 -30 0
1 -40 35 -30 -22 15 -37 -3 31 0
1 -40 -35 23 -44 -48 -32 8 -10 -38 11 37 0
1 -40 -35 -23 33 13 -11 17 -16 7 0
-1 16 17 31 34 -9 -20 39 6 -21 4 41 0
-1 -16 -11 10 -14 13 -45 -5 34 0
1 40 27 -31 -42 -13 15 -38 -48 0
-1 -16 11 -3 45 -6 43 2 0
-1 16 17 -31 -36 -12 -25 37 14 0
1 40 27 31 -3 36 24 43 21 0
1 -40 35 30 8 19 18 -38 -21 -27 0
1 40 -27 -26 32 36 31 -24 3 -14 -17 25 49 -39 0
-1 16 17 31 34 9 -4 45 46 -2 -44 0
-1 16 17 31 -34 -41 10 8 -4 -36 -9 -12 -6 30 0
1 40 -27 -26 32 -36 22 -17 37 4 0
-1 -16 11 3 -45 21 -23 -40 0
-1 16 17 31 34 9 4 -46 37 29 49 0
1 40 -27 -26 -32 -42 -4 -34 33 50 -24 0
1 40 27 31 -3 36 24 43 -21 -20 0
1 -40 -35 -23 33 13 -11 17 -16 -7 0
-1 16 17 31 -34 41 -3 15 29 -6 -46 0
-1 -16 -11 -10 -31 36 44 0
1 -40 -35 -23 33 13 11 -39 46 10 24 0
1 -40 35 30 8 -19 -26 -20 -3 2 14 0
-1 16 17 31 34 -9 20 -8 5 0
-1 -16 11 -3 -45 -15 -14 0
-1 -16 -11 -10 -31 -36 24 0
-1 16 17 31 34 9 4 -46 -37 -3 -43 0
-1 -16 11 3 -45 21 23 -9 14 47 -6 -20 0
1 40 27 -31 42 -39 37 49 24 -41 0
-1 -16 11 3 -45 21 -23 40 31 -12 44 0
1 40 27 31 3 -37 -22 41 0
1 40 -27 -26 32 36 31 -24 -3 33 -34 -29 30 12 0
-1 16 17 31 34 9 -4 -45 44 49 -29 0
1 40 -27 -26 -32 -42 -4 -34 33 -50 45 -10 -28 -37 0
1 40 -27 -26 -32 42 -13 29 12 36 39 23 0
-1 -16 11 3 -45 21 23 9 -33 12 44 0
-1 16 17 -31 -36 12 29 -15 11 -41 0
-1 -16 11 -3 -45 15 -26 -47 -2 0
-1 16 17 -31 -36 -12 -25 37 -14 -4 -6 0
1 40 -27 26 -36 -30 -7 23 49 16 13 0
1 40 -27 -26 32 36 31 -24 -3 33 -34 -29 -30 0
-1 16 17 31 -34 -41 10 -8 19 0
1 -40 35 30 8 -19 26 25 -2 46 0
1 40 27 -31 -42 13 -33 15 36 14 0
1 -40 35 30 8 19 18 -38 21 0
1 40 -27 -26 32 -36 22 17 -9 0
1 40 -27 -26 32 -36 22 17 9 0
-1 16 -17 27 13 48 -45 0
1 -40 -35 23 44 5 13 -39 -32 -27 0
1 40 -27 -26 -32 -42 4 -22 -21 -7 17 -15 -38 0
-1 16 -17 -27 -33 -8 3 0
1 40 27 -31 42 39 41 -11 -28 13 0
-1 16 17 -31 -36 12 -29 -37 33 0
-1 16 17 31 -34 -41 10 8 -4 36 13 47 -2 0
-1 -16 11 3 -45 21 -23 40 -31 47 0
-1 16 17 31 34 9 -4 -45 -44 23 0
1 40 -27 -26 -32 42 -13 -29 -44 19 0
1 -40 35 30 8 -19 -26 -20 -3 2 -14 0
-1 -16 11 -3 -45 15 -26 -47 2 0
-1 16 17 -31 -36 12 -29 37 38 24 -32 0
-1 16 17 -31 -36 -12 25 0
-1 16 17 -31 -36 -12 -25 -37 32 0
1 40 -27 -26 -32 42 -13 -29 -44 -19 36 0
-1 16 17 31 -34 -41 10 8 -4 -36 -9 -12 -6 -30 0
-1 -16 11 3 -45 21 23 9 33 14 0
1 -40 35 -30 -22 15 37 0
1 40 27 -31 42 -39 37 -49 24 0
-1 16 17 31 -34 -41 10 8 -4 36 13 47 2 0
1 40 27 -31 -42 13 -33 15 36 -14 0
1 -40 35 30 8 19 -18 -22 -45 0
1 -40 35 30 -8 -17 -36 -49 -43 23 0
-1 16 17 -31 36 10 -2 -20 -49 0
1 40 27 31 3 37 18 0
-1 -16 -11 10 -14 -13 0
1 40 -27 -26 -32 -42 -4 -34 -33 3 -41 0
-1 -16 11 -3 45 -6 43 -2 -27 0
1 -40 35 30 8 -19 26 25 2 33 0
-1 16 17 31 34 -9 20 -8 -5 -49 0
-1 16 17 31 34 9 4 -46 37 29 -49 -42 0
1 40 -27 -26 32 36 31 -24 -3 33 -34 -29 30 -12 0
1 40 -27 -26 32 36 -31 28 -21 0
-1 16 17 31 -34 -41 10 8 -4 36 13 -47 0
-1 -16 11 3 -45 21 23 9 -33 -12 17 0
1 40 -27 26 36 12 9 -38 16 0
-1 -16 11 3 -45 -21 -4 38 18 0
-1 16 17 -31 -36 12 -29 37 -38 6 0
1 -40 35 30 -8 -17 36 29 21 10 38 50 -49 0
1 40 -27 -26 -32 -42 -4 -34 -33 -3 0
-1 -16 11 3 -45 21 -23 40 31 12 0
1 40 -27 -26 32 -36 22 -17 -37 16 0
-1 16 -17 27 -13 47 19 -36 7 0
-1 16 17 31 -34 -41 10 8 -4 -36 -9 -12 6 0
1 40 27 31 -3 36 24 -43 9 0
1 40 27 31 3 -37 -22 -41 23 0
1 -40 35 30 8 -19 -26 -20 3 27 -43 -18 0
1 40 27 31 -3 36 -24 25 -18 0
-1 16 -17 27 13 -48 -37 0
-1 16 17 31 -34 41 -3 15 29 -6 46 0
1 40 -27 -26 -32 -42 4 -22 -21 -7 -17 0
1 -40 -35 23 -44 -48 -32 8 10 -5 12 0
-1 -16 -11 -10 -31 36 -44 0
1 40 -27 -26 -32 42 13 37 44 -23 0
1 40 27 -31 -42 -13 15 -38 48 0
1 40 -27 26 -36 -30 -7 23 49 -16 32 0
1 40 -27 -26 -32 -42 -4 -34 33 -50 45 -10 28 0
1 40 -27 -26 32 36 31 -24 3 -14 -17 25 49 39 0
-1 16 -17 27 -13 47 19 -36 -7 0
-1 -16 11 -3 -45 15 -26 47 -6 0
1 -40 35 30 -8 -17 36 29 21 10 38 50 49 0
1 40 -27 -26 32 36 31 24 33 0
-1 16 17 31 34 9 4 46 22 0
-1 16 17 -31 -36 12 -29 -37 -33 -11 0
1 -40 -35 -23 33 13 11 -39 46 -10 0
-1 16 17 -31 -36 12 -29 37 -38 -6 19 0
-1 16 17 31 -34 -41 10 8 -4 -36 9 -26 0
1 40 -27 -26 -32 -42 -4 -34 33 -50 45 10 41 -19 13 0
-1 16 17 31 34 -9 -20 39 6 21 -3 0
1 40 -27 -26 -32 -42 4 22 0
-1 16 17 31 34 9 4 -46 37 29 -49 42 0
1 40 27 31 3 -37 -22 -41 -23 0
1 40 27 -31 42 39 41 -11 28 19 0
1 40 -27 -26 -32 -42 4 -22 -21 -7 17 15 0
1 -40 35 -30 22 -7 -27 0
-1 16 17 31 34 9 -4 45 -46 0
-1 -16 11 -3 -45 15 26 -29 -22 -8 -10 6 0
-1 16 17 31 34 9 -4 -45 44 -49 27 37 0
-1 -16 -11 -10 -31 -36 -24 0
1 -40 -35 -23 33 -13 -10 28 0
1 40 -27 -26 32 -36 -22 17 46 11 21 18 0
-1 16 17 31 -34 41 -3 15 -29 -28 10 0
1 -40 35 30 -8 17 -31 43 -37 -27 0
-1 16 -17 27 -13 47 -19 0
1 40 27 31 -3 36 24 -43 -9 19 0
-1 -16 11 -3 -45 15 26 29 39 24 0
1 -40 35 30 -8 -17 -36 49 -29 -31 4 0
-1 -16 11 3 -45 21 23 -9 14 47 6 18 0
1 -40 -35 -23 33 13 11 39 0
1 40 -27 26 36 12 9 38 -13 0
-1 16 17 -31 36 -10 30 35 33 0
-1 16 17 31 -34 41 3 -28 0
1 40 27 -31 42 -39 37 49 24 41 0
1 -40 35 30 -8 -17 36 29 21 -10 47 0
-1 16 -17 -27 -33 8 7 0
1 -40 -35 23 44 -5 -4 14 38 33 0
1 -40 35 -30 -22 15 -37 3 -24 0
1 40 -27 -26 -32 42 -13 -29 44 39 0
1 -40 -35 23 -44 -48 -32 8 10 -5 -12 0
1 40 -27 -26 -32 42 13 -37 -35 0
-1 -16 11 -3 -45 15 26 -29 22 10 0
-1 16 17 -31 -36 12 29 15 0
1 40 -27 26 -36 30 45 -5 24 0
1 -40 35 30 -8 -17 36 29 -21 -4 0
-1 16 17 31 34 9 4 -46 -37 -3 43 0
1 40 -27 -26 -32 42 -13 -29 44 -39 -19 37 0
-1 16 -17 -27 -33 8 -7 0
1 -40 -35 -23 33 13 11 -39 -46 -28 0
1 40 -27 -26 -32 -42 -4 34 12 -48 0
-1 -16 11 -3 -45 15 26 29 -39 0
1 -40 -35 23 -44 48 24 3 43 0
-1 16 17 -31 -36 12 -29 37 38 24 32 0
1 40 27 -31 -42 13 33 41 -46 36 0
1 40 -27 -26 -32 -42 -4 -34 33 -50 45 10 41 19 0
1 40 27 -31 42 -39 -37 0
-1 16 17 31 34 9 -4 45 46 -2 44 -43 0
1 40 -27 -26 32 36 -31 -28 22 0
1 40 -27 -26 -32 -42 -4 -34 33 -50 45 10 -41 0
1 40 -27 -26 32 36 -31 28 21 0
-1 16 -17 27 13 -48 37 0
1 -40 -35 -23 33 13 -11 -17 0
-1 16 17 -31 -36 12 -29 37 38 -24 0
1 -40 -35 23 44 5 13 -39 32 0
1 40 -27 26 36 12 -9 -31 0
1 -40 35 30 8 -19 26 25 2 -33 0
-1 -16 -11 10 -14 13 -45 -5 -34 0
1 40 -27 -26 -32 -42 -4 -34 33 50 24 47 0
1 40 27 31 -3 36 24 43 -21 20 0
1 40 -27 -26 -32 42 -13 29 -12 -28 46 24 0
1 40 -27 -26 -32 42 -13 -29 44 -39 19 0
-1 -16 11 3 -45 -21 4 -8 26 0
-1 -16 11 3 -45 21 -23 40 -31 -47 0
1 -40 35 30 8 -19 -26 -20 -3 -2 0
1 40 -27 -26 -32 42 -13 29 12 36 -39 -17 -8 0
1 -40 35 30 8 19 18 38 6 25 0
1 40 -27 -26 -32 -42 -4 -34 -33 3 41 0
1 40 27 -31 42 39 41 -11 28 -19 0
-1 16 17 31 34 9 -4 -45 44 -49 27 -37 0
1 40 27 31 3 37 -18 -22 0
1 -40 -35 23 -44 -48 -32 8 -10 38 0
1 -40 35 30 -8 -17 36 29 21 10 38 -50 0
1 -40 -35 -23 33 -13 -10 -28 0
1 -40 35 30 8 19 18 38 -6 -49 -46 0
-1 -16 -11 -10 31 44 0
-1 16 -17 27 13 48 45 -35 -28 0
1 -40 -35 -23 -33 -6 -15 0
1 40 27 -31 -42 13 33 -41 0
-1 16 17 31 -34 41 -3 15 -29 -28 -10 0
-1 16 17 -31 -36 12 -29 37 -38 -6 -19 -34 0
1 40 -27 -26 32 -36 22 -17 -37 -16 7 0
1 -40 35 30 -8 -17 -36 49 -29 31 0
-1 16 17 31 -34 41 -3 -15 0
1 40 -27 -26 32 -36 -22 -17 38 -20 0
1 40 27 31 -3 36 24 -43 -9 -19 -13 0
1 40 -27 -26 32 -36 -22 17 -46 -12 -21 0
1 40 -27 -26 -32 42 13 -37 35 0
-1 16 17 -31 36 -10 30 -35 0
1 40 -27 -26 -32 42 13 37 44 23 0
1 40 27 -31 42 -39 37 -49 -24 12 0
1 -40 35 30 8 -19 -26 -20 3 27 43 0
1 40 27 31 -3 36 -24 -25 0
1 -40 35 30 -8 17 31 -37 -6 0
1 40 -27 -26 -32 42 -13 -29 -44 -19 -36 0
1 40 27 -31 42 -39 37 49 -24 -47 0
-1 16 17 31 -34 41 3 28 0
1 -40 -35 23 44 -5 -4 14 -38 0
-1 -16 11 -3 -45 15 26 -29 -22 -8 10 -50 0
1 -40 -35 23 44 -5 -4 -14 -30 0
1 40 -27 -26 -32 42 -13 -29 44 -39 -19 -37 45 0
1 40 27 -31 42 -39 37 49 -24 47 0
1 40 -27 -26 32 36 31 24 -33 17 42 0
1 40 -27 26 -36 30 45 5 0
1 40 -27 -26 32 -36 22 -17 -37 -16 -7 0
-1 16 17 -31 36 10 2 45 48 0
1 -40 35 30 -8 17 -31 43 37 0
-1 -16 11 -3 45 -6 43 -2 27 0
-1 16 17 -31 36 10 -2 20 11 -34 0
1 -40 -35 23 -44 -48 -32 -8 0
-1 16 17 -31 -36 12 -29 -37 -33 11 -30 0
-1 16 17 31 -34 -41 10 8 -4 36 -13 -18 0
-1 16 17 -31 -36 -12 -25 37 -14 -4 6 0
1 -40 35 30 8 19 18 38 6 -25 -31 0
1 40 -27 26 -36 30 -45 20 33 47 0
-1 16 17 31 -34 -41 10 8 4 33 -24 0
1 -40 -35 -23 33 13 11 -39 -46 28 0
1 -40 35 30 8 -19 -26 -20 3 27 -43 18 0
1 40 27 31 -3 36 -24 25 18 0
-1 16 17 31 34 9 4 -46 -37 3 38 0
-1 16 17 31 34 -9 -20 -39 8 7 -27 0
-1 16 17 31 -34 -41 10 8 -4 -36 9 26 49 0
-1 -16 11 -3 -45 15 26 29 39 -24 0
-1 16 17 31 34 -9 -20 -39 8 -7 47 0
-1 16 17 31 34 9 4 46 -22 -6 0
-1 16 17 -31 36 -10 30 35 -33 -32 0
1 40 -27 26 36 12 -9 31 -46 0
1 40 -27 -26 -32 -42 -4 -34 33 -50 -45 25 -2 0
1 40 -27 -26 -32 42 13 37 -44 0
1 -40 -35 23 -44 -48 -32 8 -10 -38 11 -37 7 0
-1 16 17 31 -34 -41 10 8 4 -33 0
1 -40 -35 23 44 -5 -4 14 38 -33 0
-1 -16 -11 10 14 -12 31 0
-1 16 17 -31 36 10 -2 20 -11 -47 -37 0
1 -40 -35 -23 -33 6 -47 0
1 40 -27 -26 32 -36 -22 -17 -38 -30 0
-1 -16 11 3 -45 21 23 9 -33 -12 -17 -49 0
1 40 -27 26 -36 30 45 -5 -24 0
1 40 -27 -26 -32 -42 -4 34 12 48 0
1 40 27 -31 -42 -13 -15 44 0
1 -40 -35 -23 -33 6 47 0
1 -40 -35 23 -44 -48 -32 8 -10 -38 11 -37 -7 0
1 -40 35 -30 -22 15 -37 -3 -31 0
1 40 -27 -26 -32 -42 -4 -34 33 -50 -45 25 2 0
1 -40 -35 23 -44 48 -24 0
1 40 -27 -26 32 36 31 -24 -3 -33 16 0
1 40 27 -31 42 -39 37 -49 -24 -12 0
1 -40 -35 -23 33 13 11 -39 46 10 -24 0
1 40 -27 -26 32 36 31 -24 -3 33 -34 29 -23 0
1 40 -27 -26 32 36 31 24 -33 -17 0
-1 16 17 31 -34 41 -3 15 29 6 0
-1 -16 11 -3 -45 15 26 -29 -22 8 -2 0
-1 -16 -11 -10 31 -44 -25 0
1 40 27 -31 -42 13 33 41 46 -50 10 0
-1 16 17 31 34 -9 -20 -39 -8 0
-1 -16 -11 10 -14 13 45 0
1 40 -27 -26 -32 42 -13 29 12 -36 -39 0
1 40 27 -31 -42 13 -33 -15 0
-1 -16 11 3 -45 -21 4 -8 -26 0
1 -40 -35 23 44 -5 4 47 -34 0
1 40 -27 -26 32 -36 -22 17 46 11 -21 0
-1 16 17 -31 36 10 2 -45 0
1 -40 35 30 -8 -17 36 29 -21 4 42 -39 0
-1 16 -17 27 13 48 45 -35 28 0
1 40 -27 26 36 12 9 38 13 4 -2 0
1 40 -27 -26 -32 42 -13 29 -12 -28 -46 -23 -44 0
1 40 -27 26 -36 30 -45 20 -33 0
-1 -16 11 3 -45 21 23 -9 -14 24 0
1 40 -27 -26 32 36 31 -24 -3 -33 -16 0
1 -40 35 30 -8 -17 36 29 21 -10 -47 0
1 -40 35 30 8 19 18 38 -6 -49 46 0
1 40 -27 -26 -32 -42 4 -22 -21 7 -24 2 0
1 -40 35 -30 22 7 46 0
1 -40 35 30 -8 17 -31 -43 27 5 0
1 40 -27 -26 32 -36 22 -17 37 -4 0
1 -40 35 30 -8 17 -31 -43 -27 0
1 -40 -35 23 -44 -48 32 -2 0
-1 -16 11 -3 -45 15 26 -29 -22 8 2 0
1 40 -27 -26 -32 42 -13 29 -12 -28 46 -24 0
-1 16 17 -31 36 10 -2 20 -11 47 -21 0
-1 16 17 -31 -36 12 29 -15 -11 0
-1 16 17 31 -34 -41 10 -8 -19 -38 0
-1 16 17 -31 -36 12 29 -15 11 41 0
-1 16 17 31 -34 -41 10 -8 -19 38 26 0
1 40 -27 26 36 12 9 38 13 4 2 0
1 40 -27 -26 -32 -42 -4 -34 33 -50 45 -10 -28 37 -49 0
1 40 -27 -26 -32 -42 -4 34 -12 0
-1 16 17 31 -34 41 -3 15 -29 28 0
1 -40 35 -30 22 7 -46 2 0
1 -40 -35 23 44 5 -13 33 0
1 40 27 -31 42 39 -41 -7 0
1 40 27 31 3 -37 22 -32 0
1 40 27 31 3 37 -18 22 -14 0
1 40 -27 -26 32 -36 -22 17 -46 -12 21 0
1 40 -27 26 -36 -30 -7 23 49 16 -13 0
-1 16 17 31 34 9 -4 45 46 -2 44 43 0
1 40 -27 -26 -32 42 -13 29 -12 28 0
1 40 -27 -26 -32 -42 4 -22 -21 7 24 0
1 40 -27 26 -36 -30 -7 -23 0
-1 -16 11 -3 -45 15 -26 47 6 0
1 -40 -35 23 44 5 13 39 29 0
1 40 -27 26 -36 -30 -7 23 -49 -46 -48 0
1 40 -27 -26 32 36 31 -24 3 -14 -17 -25 0
-1 -16 11 3 45 -18 40 0
1 40 -27 26 -36 -30 7 15 0
1 -40 35 -30 22 -7 27 -16 0
-1 -16 11 -3 45 -6 -43 0
1 -40 -35 23 44 -5 -4 -14 30 0
1 40 27 -31 42 39 41 -11 -28 -13 0
-1 16 17 -31 36 10 -2 -20 49 -50 0
1 -40 35 -30 -22 -15 21 0
1 40 -27 -26 -32 -42 -4 -34 33 50 24 -47 0
1 40 -27 -26 -32 -42 -4 -34 33 -50 -45 -25 -23 0
1 -40 35 30 -8 17 -31 -43 27 -5 0
1 40 -27 -26 -32 -42 4 -22 21 0
1 40 -27 -26 32 36 31 24 -33 17 -42 0
-1 16 -17 -27 -33 -8 -3 -21 0
1 40 -27 -26 -32 -42 -4 -34 33 -50 45 -10 -28 37 49 0
1 40 -27 26 36 12 -9 31 46 0
-1 16 17 -31 -36 12 -29 -37 -33 11 30 0
1 -40 35 30 -8 -17 36 29 -21 4 -42 0
-1 -16 11 3 -45 -21 -4 -38 0
-1 -16 11 -3 -45 15 26 -29 -22 -8 10 50 -40 0
1 40 27 -31 -42 13 33 41 -46 -36 0
1 -40 35 30 -8 17 31 37 -2 0
-1 -16 11 3 -45 21 23 9 -33 -12 -17 49 40 0
1 40 -27 -26 32 36 31 -24 3 -14 17 -28 0
-1 -16 11 3 45 18 0
1 -40 35 -30 -22 -15 -21 23 0
1 -40 -35 23 -44 -48 -32 8 -10 -38 -11 0
-1 -16 11 -3 45 6 0
-1 16 17 -31 36 10 -2 20 -11 -47 37 0
1 40 -27 26 36 12 9 38 13 -4 0
1 40 27 -31 -42 13 -33 15 -36 0
-1 16 17 -31 -36 12 -29 37 -38 -6 -19 34 0
-1 16 17 31 34 -9 -20 39 6 -21 4 -41 0
1 -40 -35 23 -44 48 24 -3 8 0
1 40 -27 -26 -32 42 -13 29 -12 -28 -46 -23 44 0
-1 -16 -11 10 -14 13 -45 5 0
1 40 27 -31 -42 13 33 41 46 -50 -10 0
1 40 27 31 -3 -36 0
1 40 -27 -26 32 -36 -22 17 46 -11 -9 -44 0
1 -40 -35 23 -44 48 24 3 -43 0
1 -40 35 30 8 -19 -26 -20 3 -27 0
1 -40 35 30 8 -19 26 -25 0
1 40 -27 26 36 -12 -44 0
-1 16 17 31 34 9 -4 -45 44 49 29 0
1 -40 35 30 -8 17 31 37 2 0
-1 -16 11 -3 -45 15 26 -29 -22 -8 10 50 40 0
-1 16 17 31 -34 -41 -10 0
-1 16 17 -31 -36 -12 -25 37 -14 4 0
1 -40 35 30 8 -19 -26 20 21 0
1 40 -27 -26 32 -36 -22 -17 -38 30 0
1 40 -27 -26 -32 42 -13 29 12 36 -39 17 0
1 -40 35 -30 -22 15 -37 3 24 0
1 40 27 -31 -42 -13 15 38 0
1 -40 -35 -23 33 13 -11 17 16 0
-1 16 17 -31 36 -10 30 35 -33 32 0
1 40 -27 -26 -32 -42 4 -22 -21 -7 17 -15 38 0
-1 16 17 31 -34 -41 10 8 -4 -36 9 26 -49 0
1 40 -27 -26 -32 -42 4 -22 -21 7 -24 -2 17 0
1 -40 35 30 8 19 18 -38 -21 27 -47 0
1 40 -27 -26 32 -36 -22 17 -46 12 -37 0
1 -40 35 -30 22 7 -46 -2 26 0
1 -40 35 -30 -22 -15 -21 -23 0
-1 16 17 -31 36 10 -2 20 11 34 0
1 40 -27 -26 32 36 31 -24 3 -14 -17 25 -49 0
1 -40 35 30 8 19 18 -38 -21 27 47 0
1 40 -27 -26 -32 42 -13 29 12 -36 39 0
-1 16 17 31 -34 -41 10 8 -4 -36 -9 12 0
-1 -16 11 -3 -45 15 26 -29 22 -10 0
1 -40 35 30 8 19 -18 -22 45 0
-1 16 17 31 34 -9 -20 39 6 21 3 0
1 -40 35 30 -8 -17 36 29 -21 4 42 39 0
1 40 -27 26 -36 30 -45 20 33 -47 0
1 40 -27 -26 -32 42 -13 29 12 36 39 -23 0
1 40 -27 -26 32 -36 -22 -17 38 20 0
-1 -16 -11 10 14 -12 -31 0
1 40 -27 -26 -32 42 -13 -29 44 -39 -19 -37 -45 0
1 40 27 -31 42 39 41 11 0
-1 16 17 31 -34 -41 10 -8 -19 38 -26 0
1 40 -27 -26 32 36 31 -24 -3 33 -34 29 23 0
-1 16 17 31 34 -9 -20 -39 8 -7 -47 0
-1 16 17 31 34 9 4 -46 -37 3 -38 0
-1 -16 11 -3 -45 15 26 -29 -22 -8 -10 -6 0
1 40 -27 -26 32 36 31 -24 -3 33 34 0
-1 16 17 31 34 9 -4 45 46 2 5 0
-1 -16 11 3 -45 21 23 -9 14 47 -6 20 5 0
-1 16 17 31 -34 -41 10 8 -4 36 -13 18 0
-1 16 17 -31 36 10 -2 20 -11 47 21 0
-1 16 17 31 34 -9 -20 39 -6 0
-1 -16 11 3 -45 21 23 -9 -14 -24 0
1 40 -27 -26 -32 -42 -4 -34 33 -50 45 10 41 -19 -13 0
