c NeuroCodeBench 2.0 CNF formula with verdict Unsat
p cnf 34 247
-1 18 5 -14 -6 -33 25 0
-1 18 -5 -6 30 -22 -10 29 0
1 -22 30 -13 -12 19 14 0
1 22 -21 23 -32 -18 33 6 17 34 0
1 -22 30 13 17 -3 0
1 22 21 27 -9 -14 5 -28 -4 -2 -31 11 0
1 -22 -30 33 -19 -12 13 -32 -21 0
1 22 21 -27 26 -12 11 20 -33 -5 0
-1 -18 16 -22 8 -31 12 -9 0
-1 -18 16 -22 -8 -6 0
-1 -18 -16 -24 6 -28 0
-1 -18 16 -22 8 -31 12 9 0
-1 -18 16 -22 -8 6 20 -32 0
1 22 21 27 -9 14 -18 -6 -23 0
1 -22 -30 33 19 32 34 8 0
-1 -18 16 -22 -8 6 20 32 0
1 -22 30 -13 12 25 -17 11 24 0
1 22 -21 23 -32 -18 -33 -11 -14 0
1 22 21 27 -9 -14 -5 -17 -6 -34 -7 11 0
1 -22 -30 -33 -23 -32 4 26 24 0
1 -22 30 -13 -12 -19 -33 -18 0
1 -22 -30 -33 23 11 19 0
-1 -18 16 -22 8 31 -13 -33 0
1 22 -21 23 -32 -18 33 6 -17 0
1 22 -21 -23 -26 32 -29 18 -34 0
1 -22 -30 33 -19 -12 13 32 0
1 -22 -30 -33 -23 32 25 -15 0
1 22 21 -27 26 -12 11 20 33 6 0
1 -22 30 13 -17 -6 -24 0
1 -22 30 -13 12 25 17 -32 24 2 0
-1 18 -5 6 0
1 22 21 27 -9 -14 5 -28 -4 2 3 0
1 -22 30 13 -17 6 0
-1 -18 16 -22 -8 6 -20 0
1 22 21 -27 26 12 31 34 -5 0
-1 18 -5 -6 30 22 26 -12 0
-1 18 5 14 29 0
1 22 21 -27 -26 -23 -5 -11 17 -12 7 0
1 22 21 27 9 5 12 2 -34 -19 29 -16 0
1 -22 -30 -33 23 -11 18 0
-1 18 5 14 -29 -26 -3 0
-1 -18 16 -22 8 -31 -12 -19 30 0
1 22 21 27 -9 14 -18 6 -15 -11 -13 -17 0
-1 -18 16 -22 8 31 -13 33 0
-1 -18 -16 -24 -6 -5 19 14 -21 0
1 -22 -30 -33 -23 32 25 15 0
-1 18 5 -14 6 -4 22 0
-1 -18 -16 24 3 0
-1 -18 -16 -24 -6 5 0
1 22 -21 23 32 -34 -10 -33 9 7 16 0
1 22 -21 23 -32 -18 -33 11 -9 0
1 22 21 27 9 -5 -7 -19 0
1 22 21 27 -9 14 18 -30 -16 -19 0
-1 -18 16 22 -9 21 0
1 -22 30 13 -17 -6 24 0
1 -22 30 -13 12 25 17 32 29 0
1 22 -21 23 -32 -18 -33 11 9 0
1 22 21 -27 26 12 -31 20 -2 -17 -18 16 -32 0
1 22 21 -27 26 12 -31 20 -2 -17 -18 16 32 0
1 22 21 -27 26 12 -31 20 -2 -17 -18 -16 -28 0
1 22 -21 -23 -26 32 -29 -18 -2 -27 0
1 22 21 -27 -26 -23 -5 11 17 0
1 22 -21 23 32 -34 10 -5 0
1 22 -21 23 32 -34 -10 33 -28 3 20 17 0
1 22 21 27 -9 -14 5 -28 -4 -2 31 29 0
1 -22 -30 -33 -23 32 -25 -5 0
1 -22 -30 33 19 32 -34 0
1 22 21 27 -9 14 18 30 32 34 0
-1 -18 16 22 9 17 0
1 22 -21 23 -32 -18 33 -6 13 0
1 22 21 -27 26 12 -31 20 -2 -17 18 0
1 22 -21 23 -32 18 13 -31 25 -4 0
1 22 21 27 -9 -14 5 -28 -4 2 -3 8 -33 0
1 -22 -30 -33 -23 32 -25 5 -14 28 0
1 22 21 27 -9 -14 -5 -17 6 0
1 22 21 -27 -26 23 -4 13 0
1 -22 -30 -33 -23 -32 4 26 -24 7 0
-1 18 5 -14 6 -4 -22 0
1 22 21 -27 -26 -23 -5 11 -17 0
1 22 -21 -23 -26 32 -29 18 34 0
1 22 -21 23 32 -34 -10 33 -28 -3 6 0
1 -22 -30 33 -19 -12 -13 17 0
1 22 21 27 9 5 -12 -19 13 -17 0
1 22 21 27 -9 14 18 -30 16 -31 0
1 22 -21 23 32 -34 -10 33 -28 3 20 -17 25 -11 0
1 22 21 27 9 5 12 2 -34 -19 29 16 0
1 22 21 -27 -26 -23 -5 -11 17 -12 -7 0
1 22 -21 23 32 -34 -10 -33 9 7 -16 0
-1 -18 16 22 -9 -21 -14 0
1 22 -21 -23 -26 32 29 12 24 0
1 22 -21 23 32 -34 -10 -33 9 -7 0
1 -22 -30 33 -19 -12 -13 -17 0
1 22 21 27 -9 -14 5 -28 -4 -2 31 -29 23 0
1 -22 -30 -33 -23 32 -25 5 14 -27 0
1 22 21 27 -9 -14 5 -28 -4 -2 31 -29 -23 13 0
1 -22 30 -13 12 25 17 32 -29 -21 0
-1 -18 16 -22 8 -31 -12 -19 -30 0
-1 -18 16 22 -9 -21 14 -4 0
1 22 21 27 9 5 12 2 -34 -19 -29 0
1 22 21 27 -9 -14 5 -28 -4 2 -3 8 33 0
1 22 21 27 -9 14 -18 6 15 29 0
1 22 21 -27 -26 -23 -5 -11 17 12 0
1 22 21 -27 26 -12 11 20 33 -6 0
1 22 -21 23 32 -34 -10 -33 -9 -19 0
1 -22 -30 -33 -23 -32 -4 18 -12 0
1 -22 30 -13 -12 -19 -33 18 0
1 22 21 27 -9 -14 -5 17 0
-1 -18 -16 -24 -6 -5 19 14 21 -23 0
1 22 21 27 -9 14 -18 6 -15 -11 -13 17 0
1 22 21 27 9 -5 7 0
1 22 21 27 9 5 -12 19 32 7 0
1 22 21 27 -9 -14 -5 -17 -6 34 0
1 -22 30 13 17 3 -9 0
1 -22 30 -13 -12 19 -14 31 -32 0
1 22 21 -27 26 12 -31 -20 15 0
1 -22 30 13 17 3 9 -28 0
1 -22 30 -13 -12 19 -14 31 32 0
1 22 21 27 9 -5 -7 19 -32 13 0
-1 -18 -16 -24 -6 -5 -19 -7 -28 0
1 22 21 -27 -26 -23 5 30 -2 0
-1 -18 16 22 9 -17 -32 0
-1 18 -5 -6 30 22 26 12 0
-1 18 5 14 -29 -26 3 0
-1 -18 16 22 9 -17 32 0
1 -22 -30 -33 -23 -32 4 26 -24 -7 0
1 -22 30 -13 -12 -19 33 -34 0
-1 18 -5 -6 30 -22 10 0
1 22 -21 23 32 -34 -10 33 -28 3 20 -17 -25 0
1 -22 30 -13 12 25 -17 -11 0
1 22 21 -27 26 -12 -11 24 -20 0
1 22 21 -27 26 -12 11 20 -33 5 0
-1 -18 -16 -24 6 28 0
1 22 21 27 -9 14 -18 6 -15 11 12 0
1 22 -21 -23 -26 -32 -31 16 0
1 22 -21 23 32 -34 -10 33 -28 -3 -6 15 0
-1 -18 -16 -24 -6 -5 19 14 21 23 -3 0
1 22 21 -27 -26 23 4 0
-1 -18 16 -22 8 -31 -12 19 0
1 -22 -30 -33 -23 -32 4 -26 18 0
1 22 21 27 9 -5 -7 19 32 0
-1 18 -5 -6 30 -22 -10 -29 0
1 22 21 27 9 5 -12 -19 13 17 0
1 22 -21 -23 -26 32 29 12 -24 0
1 22 -21 23 32 -34 -10 33 -28 3 -20 0
1 22 21 27 -9 -14 5 -28 4 0
1 22 21 -27 -26 -23 5 -30 0
1 22 -21 -23 -26 32 -29 -18 2 -33 0
-1 18 5 14 -29 26 0
1 22 21 27 -9 14 -18 -6 23 7 0
1 -22 -30 33 19 -32 -10 0
1 22 21 27 9 5 -12 19 32 -7 0
1 22 -21 -23 -26 -32 -31 -16 8 0
1 22 21 27 9 5 12 2 34 0
1 22 21 -27 26 -12 11 -20 0
1 22 -21 -23 -26 32 -29 -18 -2 27 0
1 22 21 27 -9 -14 5 -28 -4 -2 -31 -11 0
1 22 21 27 -9 14 18 -30 -16 19 0
1 22 21 -27 -26 -23 5 30 2 0
1 22 -21 23 -32 18 13 -31 25 4 0
-1 18 5 -14 -6 33 0
1 -22 30 -13 12 25 17 -32 -24 0
-1 18 -5 -6 -30 -26 0
1 -22 30 -13 -12 -19 33 34 0
1 22 -21 -23 -26 32 -29 -18 2 33 0
1 22 -21 -23 -26 -32 -31 -16 -8 0
1 22 21 -27 26 12 -31 -20 -15 0
-1 -18 -16 -24 -6 -5 19 -14 0
1 22 21 27 9 5 12 -2 0
1 22 21 -27 26 12 -31 20 -2 -17 -18 -16 28 0
1 22 -21 23 -32 -18 33 -6 -13 0
1 -22 -30 33 19 -32 10 0
1 22 21 27 -9 14 -18 6 -15 11 -12 -25 0
1 22 21 -27 -26 23 -4 -13 0
1 22 -21 23 -32 18 13 31 14 0
1 22 21 -27 26 12 31 -34 -18 0
1 22 -21 23 -32 18 13 -31 -25 0
-1 -18 -16 24 -3 0
1 22 -21 -23 26 0
1 22 21 27 -9 14 -18 -6 23 -7 0
1 22 -21 23 32 -34 -10 33 -28 -3 -6 -15 0
1 -22 30 -13 12 -25 0
1 22 21 27 -9 -14 5 28 -2 0
1 22 21 27 -9 14 -18 6 15 -29 -34 0
1 22 21 27 -9 14 18 30 -32 -2 0
1 -22 30 -13 -12 19 -14 -31 0
1 22 -21 -23 -26 32 29 -12 7 0
-1 -18 -16 -24 -6 -5 19 14 21 23 3 0
1 22 21 27 -9 -14 5 -28 -4 -2 31 -29 -23 -13 0
1 22 -21 23 32 -34 -10 33 -28 3 20 -17 25 11 0
1 22 21 27 9 5 -12 19 -32 0
1 -22 -30 -33 -23 -32 4 -26 -18 -10 0
1 -22 -30 -33 -23 32 -25 5 -14 -28 -2 0
1 22 -21 23 32 -34 -10 -33 -9 19 0
1 22 21 27 9 5 -12 -19 -13 0
1 22 -21 23 -32 -18 -33 -11 14 0
1 22 21 -27 -26 -23 -5 -11 -17 0
1 22 21 27 9 -5 -7 19 -32 -13 0
1 22 21 27 -9 14 -18 6 -15 11 -12 25 0
-1 18 5 -14 6 4 -24 0
-1 -18 -16 -24 -6 -5 -19 -7 28 0
1 -22 30 13 17 3 9 28 0
1 22 21 27 -9 -14 5 -28 -4 2 -3 -8 0
1 22 21 27 -9 14 18 30 32 -34 0
-1 -18 16 -22 8 31 13 0
1 22 21 -27 26 12 -31 20 -2 17 0
1 22 -21 23 -32 -18 33 6 17 -34 0
1 22 21 -27 26 12 31 34 5 0
-1 18 -5 -6 -30 26 0
1 -22 -30 33 -19 -12 13 -32 21 0
-1 18 5 -14 -6 -33 -25 0
1 -22 -30 -33 23 11 -19 -18 0
1 22 21 27 -9 -14 5 28 2 0
1 -22 -30 -33 -23 -32 4 -26 -18 10 0
1 22 -21 -23 -26 32 29 -12 -7 0
1 -22 -30 33 -19 12 0
1 -22 -30 33 19 32 34 -8 0
1 -22 -30 -33 23 -11 -18 0
1 22 21 27 -9 14 -18 6 15 -29 34 0
1 22 21 27 -9 14 18 30 -32 2 0
1 22 21 27 -9 14 -18 6 -15 -11 13 0
1 22 21 27 -9 -14 -5 -17 -6 -34 -7 -11 0
-1 18 5 -14 6 4 24 0
1 22 21 -27 26 -12 -11 -24 0
1 -22 -30 -33 23 11 -19 18 0
1 -22 30 -13 12 25 17 32 -29 21 0
1 22 21 27 -9 -14 -5 -17 -6 -34 7 0
1 22 -21 -23 -26 -32 31 0
1 -22 -30 -33 -23 -32 -4 18 12 0
-1 -18 -16 -24 -6 -5 -19 7 -32 0
-1 -18 -16 -24 -6 -5 -19 7 32 0
-1 18 -5 -6 30 22 -26 0
1 22 21 27 9 5 12 2 -34 19 0
1 22 -21 23 32 -34 10 5 0
1 -22 -30 -33 -23 32 -25 5 -14 -28 2 0
1 -22 -30 -33 -23 32 -25 5 14 27 0
1 22 21 -27 26 -12 -11 24 20 0
1 22 -21 23 32 -34 -10 33 28 0
1 22 21 -27 26 12 -31 20 2 0
1 -22 -30 -33 -23 -32 -4 -18 0
-1 -18 16 22 -9 -21 14 4 0
1 22 -21 23 32 34 0
1 22 -21 23 -32 18 -13 0
1 22 21 27 -9 14 18 -30 16 31 0
1 22 -21 23 -32 18 13 31 -14 0
1 22 21 -27 26 12 31 -34 18 0
1 -22 30 -13 12 25 17 -32 24 -2 0
1 -22 30 -13 12 25 -17 11 -24 0
