c NeuroCodeBench 2.0 CNF formula with verdict Unsat
p cnf 12 104
1 6 11 9 -4 5 3 -8 12 0
-1 9 12 11 2 6 3 4 0
-1 9 12 -11 -3 -2 0
1 -6 -12 2 10 8 3 0
1 -6 -12 -2 -10 8 -3 -4 11 -7 0
-1 -9 -6 -5 -7 3 0
1 6 11 9 -4 5 -3 -10 0
1 6 -11 -3 2 9 -12 0
1 6 -11 3 -2 -9 10 -7 0
1 -6 -12 -2 10 -11 0
-1 -9 6 4 11 -10 -3 0
1 -6 -12 -2 -10 8 -3 4 9 5 0
-1 -9 -6 -5 7 10 0
1 6 -11 3 2 -7 0
-1 -9 -6 5 2 -7 11 0
-1 9 -12 3 -6 0
-1 9 12 -11 -3 2 6 7 0
1 6 11 9 -4 -5 -10 0
1 -6 -12 2 10 -8 0
1 -6 -12 -2 -10 8 3 -4 0
-1 -9 -6 5 -2 3 11 7 -10 0
1 -6 -12 -2 -10 8 -3 -4 11 7 9 0
1 -6 12 -10 -9 0
-1 -9 -6 5 -2 3 -11 8 0
1 6 11 9 -4 -5 10 0
1 -6 -12 -2 10 11 0
-1 9 12 -11 -3 2 6 -7 0
-1 -9 -6 5 -2 -3 0
-1 -9 -6 5 -2 3 -11 -8 0
-1 -9 6 -4 -2 7 0
-1 -9 6 4 11 10 5 3 0
1 6 -11 3 -2 -9 10 7 12 0
1 6 -11 3 -2 -9 -10 0
-1 9 12 -11 3 -2 0
-1 -9 -6 5 -2 3 11 7 10 0
-1 9 12 11 -2 5 -4 3 -10 0
1 6 -11 3 2 7 -12 0
1 6 -11 3 2 7 12 8 0
1 -6 -12 -2 -10 8 -3 4 9 -5 0
1 -6 -12 2 -10 8 4 -3 0
1 6 11 9 -4 5 -3 10 0
1 -6 -12 -2 -10 8 -3 4 -9 -11 0
-1 9 12 11 2 6 -3 0
1 6 11 9 -4 5 3 8 12 0
1 6 -11 3 2 7 12 -8 0
-1 9 12 11 -2 -5 0
-1 9 -12 -3 8 0
-1 -9 6 -4 2 0
1 6 11 9 -4 5 3 -8 -12 0
1 -6 12 10 -3 -7 8 0
1 -6 -12 2 10 8 -3 0
-1 9 12 -11 -3 2 -6 0
1 -6 12 -10 9 0
-1 9 -12 -3 -8 6 0
-1 -9 -6 -5 -7 -3 0
-1 9 12 11 -2 5 4 0
-1 -9 6 -4 -2 -7 12 0
1 6 -11 3 -2 9 5 0
-1 -9 6 4 11 10 5 -3 7 12 0
1 -6 12 10 -3 -7 -8 0
1 6 -11 3 -2 -9 10 7 -12 -8 0
1 -6 12 10 -3 7 0
1 6 -11 -3 2 -9 0
-1 9 12 11 -2 5 -4 -3 -7 6 0
1 6 -11 -3 2 9 12 0
-1 -9 6 4 11 -10 3 0
1 6 -11 -3 -2 0
1 -6 12 10 3 -2 7 0
1 -6 -12 -2 -10 8 -3 -4 -11 -9 0
-1 9 12 11 2 6 3 -4 0
1 -6 -12 -2 -10 8 -3 -4 -11 9 0
1 -6 -12 2 -10 -8 0
-1 -9 6 4 -11 7 0
1 -6 -12 2 -10 8 -4 0
-1 -9 6 4 11 10 -5 0
-1 9 12 -11 3 2 0
1 6 -11 3 -2 -9 10 7 -12 8 0
-1 9 -12 -3 -8 -6 0
1 -6 12 10 3 -2 -7 0
-1 -9 -6 5 2 7 0
1 6 11 9 4 8 0
1 -6 -12 -2 -10 8 3 4 0
-1 9 12 11 -2 5 -4 -3 -7 -6 0
1 -6 -12 -2 -10 -8 0
1 -6 12 10 3 2 0
-1 9 12 11 2 -6 0
1 6 -11 3 -2 9 -5 0
-1 9 12 11 -2 5 -4 3 10 7 0
1 -6 -12 -2 -10 8 -3 4 -9 11 0
1 6 11 9 4 -8 0
-1 -9 6 4 -11 -7 0
-1 9 12 11 -2 5 -4 -3 7 0
-1 9 -12 3 6 0
-1 -9 6 4 11 10 5 -3 -7 0
-1 -9 6 4 11 10 5 -3 7 -12 0
1 6 11 9 -4 5 3 8 -12 0
1 6 11 -9 0
-1 -9 -6 5 2 -7 -11 0
1 -6 -12 2 -10 8 4 3 0
-1 -9 -6 5 -2 3 11 -7 0
1 -6 -12 -2 -10 8 -3 -4 11 7 -9 0
-1 -9 -6 -5 7 -10 0
-1 -9 6 -4 -2 -7 -12 0
-1 9 12 11 -2 5 -4 3 10 -7 0
