c NeuroCodeBench 2.0 CNF formula with verdict Unsat
p cnf 100 649
-1 -75 26 -57 -66 87 9 81 -91 -24 5 48 0
1 57 -49 97 77 -62 0
-1 -75 26 -57 -66 87 -9 96 56 12 0
1 57 -49 -97 44 -68 -3 58 -83 52 0
1 -57 59 78 -42 61 -14 79 -47 0
-1 -75 26 57 13 -54 -71 68 5 23 69 0
1 -57 59 -78 -21 35 -38 18 -99 -67 0
1 -57 59 78 -42 61 14 89 3 0
1 -57 59 78 -42 61 -14 79 47 -96 0
-1 75 100 -24 55 23 20 -85 -53 84 80 -32 0
-1 -75 26 57 -13 10 -29 -77 46 0
1 -57 -59 -35 36 -33 -96 62 -60 25 -93 0
-1 -75 26 -57 -66 -87 62 -91 0
-1 -75 -26 32 44 94 -46 -15 0
1 57 49 6 71 -78 -23 -93 0
-1 75 100 -24 55 23 20 85 39 -56 60 0
1 -57 59 -78 -21 -35 -39 -41 25 -2 0
-1 75 100 24 -61 70 -36 29 77 76 -32 0
1 -57 59 78 -42 61 14 -89 72 0
-1 -75 -26 32 -44 100 -4 -11 -58 83 46 87 0
-1 75 100 24 61 -52 -43 18 -16 -88 0
-1 -75 26 57 -13 -10 -78 -86 -16 -18 42 0
-1 -75 26 57 -13 -10 -78 -86 -16 18 32 -7 -11 0
1 57 -49 -97 44 68 21 62 13 12 0
1 -57 59 78 42 -87 0
1 -57 59 -78 21 65 -53 0
-1 -75 -26 -32 -74 14 17 -76 41 -49 -39 0
-1 -75 26 -57 66 -46 68 45 -99 61 72 -90 0
-1 75 100 24 61 52 94 -37 87 -5 -67 0
-1 -75 26 57 -13 10 29 25 -94 70 0
-1 -75 26 -57 66 -46 68 45 -99 -61 -96 0
1 57 49 6 -71 47 65 22 16 -40 -54 -87 0
1 57 -49 -97 44 68 21 62 -13 -32 0
-1 75 -100 61 -12 -18 -74 -23 0
-1 75 100 -24 55 23 20 -85 -53 84 -80 -26 0
-1 -75 -26 -32 -74 -14 36 97 51 23 81 0
-1 -75 26 -57 -66 -87 -62 93 85 51 22 0
1 57 -49 -97 44 68 21 -62 -74 82 -22 51 0
-1 75 -100 -61 -18 -7 -6 -19 33 21 0
-1 -75 -26 -32 -74 -14 36 -97 87 64 0
-1 -75 -26 -32 -74 -14 36 97 51 23 -81 0
-1 -75 26 57 -13 -10 78 0
1 -57 59 -78 -21 -35 -39 -41 25 2 0
1 -57 59 -78 21 -65 25 23 0
1 57 -49 -97 44 68 21 -62 -74 82 22 -50 0
-1 -75 -26 32 -44 -100 64 79 -72 -4 -56 0
-1 -75 26 -57 -66 87 9 81 -91 -24 -5 -30 0
1 -57 -59 35 -93 -7 -31 -27 0
1 -57 -59 35 -93 7 -98 -91 -65 0
-1 -75 26 57 13 54 76 19 -44 -87 -94 0
-1 75 -100 -61 -18 7 -15 -81 -34 54 0
-1 -75 26 57 13 -54 -71 68 5 -23 47 74 36 0
-1 -75 26 57 -13 -10 -78 -86 -16 18 32 -7 11 0
1 -57 59 -78 -21 35 38 33 95 -80 5 0
-1 -75 26 -57 -66 -87 -62 93 85 -51 0
1 -57 -59 35 93 -13 -7 28 80 40 18 86 0
-1 75 100 24 -61 -70 -53 -64 98 -44 0
-1 -75 -26 32 -44 -100 64 79 -72 -4 56 0
1 57 49 -6 -26 41 -10 -82 -66 0
-1 75 -100 61 12 42 33 -56 57 -62 -23 52 7 0
-1 75 -100 -61 18 -86 -35 -41 -10 0
-1 75 -100 61 -12 18 -24 53 -43 8 -85 0
1 57 -49 -97 44 -68 -3 58 83 67 18 -27 0
-1 -75 -26 -32 -74 14 17 -76 -41 70 -55 0
-1 -75 26 57 -13 10 29 25 -94 -70 0
1 -57 -59 35 93 -13 -7 28 -80 82 53 90 24 26 0
-1 75 -100 61 -12 18 24 -30 97 0
-1 -75 -26 32 44 94 46 21 -31 0
-1 -75 26 -57 66 46 63 8 80 -100 0
1 -57 -59 35 93 -13 -7 28 -80 -82 69 51 -20 3 5 0
-1 75 100 -24 55 23 -20 8 -4 66 -69 61 0
1 57 -49 -97 -44 50 -83 61 0
-1 -75 -26 -32 -74 -14 -36 -47 21 0
1 -57 59 -78 -21 -35 39 18 0
-1 75 100 24 61 52 94 -37 87 -5 67 0
-1 75 100 24 -61 -70 53 -83 -2 66 -96 69 0
-1 75 100 24 -61 -70 53 -83 2 72 92 42 -21 0
1 57 -49 -97 44 68 21 62 -13 32 16 -34 31 0
1 -57 -59 35 93 -13 -7 28 80 -40 66 43 -88 0
-1 -75 26 57 13 54 -76 -93 -3 -79 -87 0
-1 75 -100 -61 -18 7 -15 81 -91 -55 0
1 -57 -59 35 93 -13 -7 28 -80 -82 69 -51 -75 46 -44 0
-1 -75 26 -57 -66 87 9 -81 30 -31 -11 61 0
-1 -75 26 -57 -66 -87 -62 -93 -95 -100 0
1 -57 -59 35 93 -13 7 83 -49 0
-1 -75 -26 -32 -74 14 17 76 45 -86 -85 57 0
-1 -75 26 -57 66 -46 68 45 -99 61 72 90 94 0
-1 75 100 24 -61 70 36 -58 -50 39 87 0
-1 75 -100 -61 18 -86 35 0
1 57 49 6 -71 47 65 22 -16 -85 0
1 57 49 6 -71 47 65 22 16 -40 54 -42 0
-1 75 -100 61 12 42 33 -56 57 -62 -23 52 -7 0
1 -57 59 -78 -21 -35 -39 -41 -25 0
-1 75 -100 61 12 42 -33 2 69 0
1 -57 59 -78 21 -65 25 -23 0
1 -57 -59 35 -93 7 98 27 -64 40 67 -66 0
-1 75 100 24 61 52 94 -37 -87 42 -35 5 -15 0
1 -57 -59 35 93 13 -38 30 -64 92 -82 91 0
-1 75 -100 -61 -18 -7 -6 19 -70 -76 68 0
1 -57 59 -78 -21 35 -38 -18 26 0
1 -57 -59 -35 36 -33 -96 62 60 78 0
-1 75 100 24 61 52 94 -37 -87 42 -35 -5 -78 0
-1 75 -100 -61 18 86 26 -88 -70 -20 0
-1 -75 26 57 -13 -10 -78 86 -94 14 -81 82 -91 0
-1 75 -100 -61 -18 -7 -6 19 70 24 -47 0
1 57 -49 -97 44 68 21 62 13 -12 0
1 57 -49 -97 44 -68 -3 58 83 67 -18 24 30 0
1 -57 -59 35 93 13 -38 30 64 70 29 0
1 -57 59 -78 -21 35 -38 18 99 6 71 0
1 -57 59 78 -42 61 14 89 -3 27 0
1 -57 -59 35 93 -13 -7 28 80 40 18 -86 0
1 57 -49 -97 44 -68 -3 -58 51 -67 -11 0
1 -57 -59 35 93 -13 -7 28 80 -40 -66 2 -46 77 0
-1 -75 26 -57 -66 87 -9 96 56 -12 3 0
1 -57 -59 -35 -36 63 42 0
1 -57 -59 35 93 -13 7 83 49 0
1 57 -49 -97 44 -68 3 28 -77 94 0
-1 -75 -26 32 -44 100 -4 -11 -58 -83 0
-1 -75 26 57 13 54 76 19 44 -85 0
1 -57 -59 35 93 -13 -7 28 -80 -82 69 51 -20 3 -5 0
1 -57 59 -78 -21 -35 39 -18 41 0
-1 -75 26 -57 -66 87 9 81 -91 -24 5 -48 95 0
1 57 -49 -97 44 68 -21 -46 0
-1 -75 26 57 13 54 76 -19 -15 55 43 0
-1 75 -100 61 -12 18 24 30 43 31 -38 97 0
-1 -75 26 57 13 -54 -71 68 5 -23 47 -74 0
-1 -75 26 -57 66 46 63 -8 48 86 -45 0
-1 -75 26 57 13 54 76 -19 15 97 71 0
-1 -75 26 -57 -66 87 -9 -96 83 0
-1 -75 26 -57 -66 -87 -62 93 -85 43 -67 0
-1 75 100 24 -61 70 -36 -29 84 -89 0
1 -57 -59 -35 36 -33 -96 62 -60 25 93 0
-1 75 -100 61 -12 18 24 30 43 31 38 0
-1 75 -100 -61 18 86 -26 -93 -62 97 0
-1 -75 -26 32 -44 100 -4 11 0
-1 -75 26 57 -13 -10 -78 -86 16 9 0
1 -57 59 -78 -21 35 38 33 95 -80 -5 76 0
-1 75 -100 -61 -18 -7 6 -52 -95 3 0
1 -57 -59 35 -93 -7 -31 27 -30 0
-1 -75 26 -57 -66 87 -9 96 -56 47 0
1 -57 59 -78 -21 -35 39 -18 -41 5 0
1 -57 59 78 42 87 50 97 -9 52 -49 83 -58 0
1 -57 -59 35 93 -13 -7 28 -80 -82 69 51 20 0
1 -57 -59 -35 -36 63 -42 -11 0
-1 -75 -26 -32 74 -87 3 63 0
-1 75 -100 -61 -18 -7 -6 19 -70 -76 -68 0
-1 -75 26 57 -13 10 -29 77 -21 -98 0
-1 -75 -26 32 -44 -100 64 -79 -43 0
-1 -75 26 -57 -66 87 9 -81 -30 0
1 -57 59 78 42 87 50 97 -9 52 -49 -83 0
-1 -75 26 57 13 54 76 -19 -15 -55 46 0
-1 -75 -26 -32 -74 14 17 -76 41 -49 39 0
1 57 49 6 71 -78 23 -63 -15 0
-1 -75 -26 32 44 94 46 -21 89 -83 0
-1 75 100 -24 55 23 20 -85 -53 -84 72 0
1 -57 -59 35 93 -13 -7 28 -80 -82 69 -51 -75 46 44 0
1 -57 59 -78 -21 35 -38 18 -99 67 -31 0
1 -57 -59 35 93 13 38 98 -66 77 -69 -97 0
-1 -75 26 -57 66 -46 68 -45 8 -87 0
1 -57 -59 35 93 13 38 98 66 -6 -29 -34 0
-1 75 -100 -61 -18 7 15 81 5 36 0
-1 75 -100 61 -12 -18 74 0
-1 75 -100 61 -12 18 -24 -53 94 -20 -37 32 0
-1 75 100 -24 55 23 20 -85 -53 84 80 32 0
-1 75 -100 61 12 42 33 -56 57 62 -67 0
1 -57 -59 35 93 -13 7 -83 0
1 57 49 -6 -26 41 10 70 -39 0
1 -57 -59 35 93 -13 -7 28 80 -40 -66 2 -46 -77 0
-1 75 -100 -61 -18 -7 -6 19 70 -24 -81 -94 0
-1 75 100 -24 55 23 20 -85 -53 -84 -72 0
-1 -75 26 -57 -66 87 9 81 -91 -24 -5 30 96 0
-1 75 100 24 -61 70 36 -58 50 69 0
-1 -75 -26 32 -44 -100 -64 81 -84 -7 0
-1 75 100 24 -61 -70 53 -83 2 72 92 -42 -16 0
-1 -75 -26 -32 -74 14 17 -76 -41 -70 0
-1 75 100 24 -61 70 -36 29 77 76 32 0
1 -57 -59 35 93 -13 -7 28 -80 82 53 90 -24 0
1 -57 -59 35 -93 7 98 27 64 14 -52 0
-1 75 -100 61 12 42 33 -56 -57 62 97 -80 0
-1 -75 -26 32 -44 100 -4 -11 -58 83 46 -87 0
1 57 49 6 -71 -47 48 -12 -27 -74 0
-1 75 100 -24 55 23 20 -85 53 0
1 -57 59 78 42 87 50 97 -9 52 -49 83 58 0
1 -57 -59 35 93 -13 -7 28 -80 82 53 90 24 -26 0
1 -57 -59 -35 36 -33 -96 62 -60 -25 0
1 -57 -59 35 -93 7 -98 91 -79 31 0
-1 -75 26 57 13 54 -76 -93 -3 79 52 0
-1 75 -100 61 -12 -18 -74 23 0
-1 -75 -26 32 44 -94 -71 13 0
1 57 49 -6 -26 -41 11 0
-1 -75 -26 -32 -74 -14 36 97 -51 -82 88 0
1 -57 59 78 42 87 -50 -51 96 10 0
-1 -75 26 -57 -66 87 -9 96 56 -12 -3 0
1 -57 59 78 42 87 50 97 9 -16 -58 0
-1 75 100 -24 55 -23 -77 56 -67 0
-1 75 -100 -61 -18 7 -15 81 -91 55 0
1 57 49 6 -71 -47 48 12 -100 0
1 -57 -59 35 -93 7 98 -27 -48 0
-1 75 100 24 -61 70 -36 29 77 -76 -97 0
1 -57 59 -78 -21 -35 39 -18 -41 -5 0
-1 -75 26 -57 -66 -87 -62 93 -85 -43 0
-1 -75 26 -57 66 -46 -68 22 0
-1 75 -100 61 12 42 33 -56 57 -62 -23 -52 45 76 0
-1 75 100 24 -61 70 -36 29 -77 -63 0
1 -57 59 -78 -21 35 -38 18 99 -6 0
-1 75 100 24 61 52 94 -37 -87 42 35 0
-1 -75 26 -57 -66 87 9 81 -91 -24 5 -48 -95 20 0
-1 75 -100 -61 -18 -7 -6 -19 33 -21 -24 0
1 57 -49 -97 44 -68 -3 58 83 67 -18 -24 0
1 -57 59 -78 -21 35 38 -33 67 87 0
1 -57 -59 35 93 13 -38 -30 0
1 -57 -59 35 -93 -7 31 -90 23 -54 0
-1 -75 -26 32 -44 100 4 -17 61 0
1 -57 -59 -35 36 -33 -96 -62 0
1 -57 -59 35 93 13 38 98 66 6 43 -64 0
1 -57 -59 35 93 13 -38 30 -64 92 -82 -91 53 0
-1 75 -100 61 12 42 33 -56 57 62 67 0
1 -57 59 -78 -21 35 -38 -18 -26 0
1 57 49 6 71 -78 23 63 0
-1 75 -100 -61 18 86 -26 -93 62 39 92 0
1 -57 -59 35 93 -13 -7 28 80 -40 66 -43 0
1 57 -49 -97 44 68 21 62 -13 32 -16 -43 50 0
1 -57 59 -78 -21 -35 -39 41 5 17 -82 -47 0
-1 75 -100 -61 -18 -7 6 -52 -95 -3 0
-1 -75 26 -57 66 46 63 -8 48 86 45 -50 0
-1 75 -100 61 12 -42 -20 -77 66 13 0
-1 -75 -26 -32 -74 -14 36 97 -51 -82 -88 0
-1 75 100 24 61 52 94 -37 87 5 0
1 -57 -59 35 93 -13 -7 -28 0
-1 -75 -26 -32 -74 14 -17 83 85 0
1 57 49 6 -71 47 65 -22 0
1 -57 59 -78 -21 -35 -39 41 5 17 -82 47 0
-1 75 -100 -61 -18 7 15 -81 -74 0
-1 -75 26 57 -13 10 -29 77 -21 98 0
-1 -75 26 -57 66 -46 68 45 -99 61 -72 -13 0
-1 75 -100 61 -12 18 -24 -53 94 -20 -37 -32 13 0
-1 -75 26 57 13 54 76 -19 -15 -55 -46 -59 0
1 -57 59 78 42 87 50 97 9 -16 58 0
-1 -75 26 -57 66 -46 68 -45 -8 0
-1 -75 26 57 13 54 -76 93 -61 33 0
1 57 -49 -97 44 68 -21 46 0
-1 75 100 -24 55 -23 -77 56 67 0
-1 -75 26 -57 66 46 63 -8 48 86 45 50 81 0
1 -57 59 78 -42 -61 18 -86 16 69 -32 96 0
1 57 49 6 71 78 100 94 0
-1 75 100 -24 55 -23 77 0
1 57 49 -6 -26 41 10 -70 0
1 -57 59 78 42 87 50 -97 94 0
1 -57 59 78 -42 -61 -18 0
-1 75 -100 61 -12 18 -24 53 -43 8 85 81 0
-1 75 -100 -61 -18 7 15 -81 74 0
-1 75 100 24 -61 70 -36 29 -77 63 31 0
-1 -75 -26 32 -44 100 4 -17 -61 0
-1 75 100 -24 55 23 -20 8 -4 -66 0
1 57 -49 -97 44 68 21 62 -13 32 16 -34 -31 0
1 -57 -59 35 -93 7 98 27 -64 -40 12 0
1 -57 -59 35 93 -13 -7 28 80 -40 66 43 88 0
-1 75 -100 61 -12 18 -24 53 -43 8 85 -81 0
1 57 49 6 -71 -47 48 -12 27 0
-1 75 -100 61 12 42 33 56 -32 52 0
-1 -75 -26 -32 -74 -14 -36 47 0
1 57 -49 -97 44 -68 -3 58 -83 -52 0
-1 75 -100 61 -12 18 -24 -53 -94 0
-1 -75 -26 32 -44 100 -4 -11 58 -52 -12 0
1 -57 -59 35 93 -13 -7 28 80 40 -18 -47 0
-1 -75 -26 32 44 -94 -71 -13 -84 0
-1 75 100 24 -61 70 -36 -29 -84 0
1 -57 -59 -35 36 -33 96 98 0
-1 -75 26 57 13 -54 -71 68 5 -23 -47 58 0
1 57 -49 -97 44 68 21 62 -13 32 -16 43 -18 0
1 -57 -59 35 93 -13 -7 28 80 40 -18 47 0
-1 -75 26 -57 66 -46 68 45 -99 61 72 90 -94 0
-1 75 -100 -61 -18 7 -15 -81 -34 -54 0
-1 75 -100 61 12 -42 -20 77 44 0
1 -57 -59 35 93 13 38 98 66 -6 29 27 0
1 -57 -59 35 -93 7 98 27 -64 -40 -12 68 0
1 -57 59 78 42 87 50 97 9 16 0
-1 -75 -26 32 -44 -100 -64 -81 56 96 23 0
-1 75 -100 61 -12 18 -24 -53 94 -20 37 0
-1 -75 -26 -32 74 -87 -3 80 0
-1 -75 26 57 13 -54 -71 68 5 -23 47 74 -36 0
1 -57 -59 35 93 -13 -7 28 80 -40 -66 2 46 0
1 -57 -59 35 -93 -7 -31 27 30 0
1 57 -49 -97 44 -68 -3 58 83 67 18 27 0
-1 75 -100 -61 18 86 -26 93 -39 0
1 57 -49 -97 -44 50 83 0
-1 -75 26 57 13 -54 -71 68 -5 0
-1 75 -100 61 -12 18 -24 -53 94 20 0
-1 -75 26 57 -13 -10 -78 86 -94 -14 0
-1 -75 26 -57 -66 87 9 -81 30 31 62 0
-1 -75 26 -57 66 46 63 -8 48 86 45 50 -81 42 0
-1 -75 26 -57 -66 -87 62 91 -9 0
-1 -75 26 57 -13 -10 -78 -86 16 -9 73 0
-1 -75 26 57 -13 10 29 -25 8 0
1 57 49 -6 -26 41 -10 82 0
-1 -75 26 -57 -66 -87 -62 93 -85 43 67 98 0
1 -57 59 78 42 87 -50 -51 -96 0
-1 75 -100 61 12 42 33 56 -32 -52 0
1 -57 -59 35 93 -13 -7 28 -80 -82 69 -51 -75 -46 0
-1 -75 26 57 -13 10 29 25 94 0
1 -57 59 78 42 87 -50 -51 96 -10 0
1 57 49 6 -71 -47 48 12 100 0
-1 -75 26 -57 66 46 63 -8 -48 3 0
-1 75 -100 61 -12 18 24 30 43 -31 25 -99 0
1 -57 59 -78 21 -65 -25 0
-1 -75 -26 -32 -74 -14 36 -97 -87 35 0
1 57 -49 -97 44 -68 3 28 -77 -94 0
1 57 -49 97 77 62 0
1 -57 -59 35 93 13 -38 30 64 70 -29 0
-1 -75 26 57 -13 -10 -78 -86 -16 18 -32 -69 0
-1 75 100 -24 55 23 -20 8 -4 66 69 0
-1 75 100 -24 55 23 -20 8 -4 66 -69 -61 0
1 57 49 -6 -26 41 10 70 39 0
1 57 -49 -97 -44 50 -83 -61 0
1 -57 59 -78 21 65 53 -35 0
-1 -75 -26 32 44 -94 -71 -13 84 -42 0
-1 75 100 24 61 52 94 -37 -87 -42 0
-1 -75 26 -57 66 -46 68 45 99 0
-1 75 -100 -61 18 86 26 -88 70 59 0
1 -57 -59 35 93 13 38 98 -66 -77 64 0
-1 -75 26 -57 -66 -87 -62 -93 95 82 0
-1 75 100 24 61 52 94 37 -72 0
-1 -75 -26 32 -44 -100 -64 -81 56 96 -23 0
-1 -75 -26 -32 -74 14 -17 -83 6 0
1 -57 59 78 42 87 -50 51 0
-1 -75 26 -57 -66 87 9 -81 30 -31 -11 -61 0
-1 -75 -26 -32 74 87 -71 56 0
1 -57 59 78 42 87 50 97 -9 52 49 0
-1 75 -100 -61 18 86 26 -88 -70 20 0
-1 -75 26 57 13 54 -76 93 61 0
-1 75 -100 -61 18 86 -26 -93 62 -39 94 0
-1 -75 -26 -32 74 87 71 0
1 57 -49 -97 44 -68 -3 58 83 67 -18 24 -30 33 0
-1 -75 26 -57 -66 87 9 81 -91 -24 -5 30 -96 0
1 57 -49 97 -77 26 0
1 57 -49 -97 44 68 21 62 -13 32 16 34 -46 0
1 -57 -59 35 -93 7 98 27 -64 -40 -12 -68 0
-1 -75 -26 32 -44 -100 64 79 72 0
-1 -75 26 57 -13 10 -29 -77 -46 0
-1 -75 -26 -32 -74 14 17 76 -45 -71 0
1 -57 -59 35 -93 7 98 -27 48 0
1 -57 59 78 -42 61 14 89 -3 -27 0
1 57 -49 -97 -44 -50 48 12 0
1 57 49 6 -71 47 65 22 16 -40 -54 87 -99 0
1 57 49 6 -71 47 65 22 -16 85 0
-1 -75 26 -57 -66 87 -9 96 -56 -47 0
-1 75 100 24 -61 70 36 58 0
-1 75 -100 -61 18 86 26 88 -29 0
1 -57 -59 35 93 13 38 98 -66 77 -69 97 0
-1 -75 26 57 13 54 -76 93 -61 -33 17 0
1 57 -49 -97 44 68 21 -62 -74 -82 -67 0
1 -57 -59 35 -93 -7 31 90 0
1 57 -49 -97 44 -68 3 28 77 0
1 57 -49 -97 44 -68 -3 -58 51 -67 11 0
-1 75 100 24 -61 -70 53 -83 2 -72 0
-1 -75 -26 32 -44 -100 -64 81 -84 7 0
-1 75 -100 61 12 -42 -20 -77 -66 24 0
-1 75 -100 -61 -18 -7 6 52 -30 0
1 -57 -59 35 93 13 38 98 66 -6 -29 34 0
1 57 -49 -97 44 -68 -3 -58 -51 -30 0
-1 -75 26 -57 66 46 63 8 -80 58 -6 0
-1 75 100 24 -61 -70 53 -83 2 72 92 -42 16 0
-1 -75 26 57 13 54 76 -19 15 -97 0
1 -57 -59 35 -93 7 -98 91 -79 -31 0
-1 -75 26 57 13 -54 -71 -68 -97 0
-1 75 100 24 61 52 94 -37 -87 42 -35 -5 78 0
-1 -75 -26 -32 74 -87 3 -63 0
-1 -75 26 57 13 54 76 19 44 85 0
-1 -75 -26 32 44 -94 -71 -13 84 42 0
-1 -75 26 -57 -66 -87 -62 -93 -95 100 25 0
-1 -75 26 -57 66 46 63 -8 -48 -3 0
-1 75 -100 -61 -18 -7 -6 -19 -33 68 0
-1 75 100 24 -61 70 -36 29 77 -76 97 0
-1 -75 26 57 -13 -10 -78 -86 16 -9 -73 -74 0
-1 -75 -26 -32 -74 14 17 76 45 -86 -85 -57 0
1 -57 59 -78 -21 35 38 33 95 80 0
1 -57 -59 35 -93 7 -98 -91 65 83 68 -60 0
-1 75 -100 -61 -18 -7 -6 19 -70 76 0
-1 75 100 -24 55 23 -20 -8 0
1 -57 -59 -35 -36 63 -42 11 0
-1 -75 -26 -32 -74 14 17 -76 -41 70 55 0
-1 75 100 -24 55 23 20 85 -39 0
-1 75 -100 -61 -18 7 -15 -81 34 20 0
-1 75 100 -24 55 23 20 85 39 -56 -60 0
-1 -75 -26 32 44 94 46 -21 89 83 0
-1 -75 26 -57 -66 -87 -62 -93 -95 100 -25 0
1 -57 59 -78 -21 -35 -39 41 5 -17 0
1 -57 -59 35 93 13 -38 30 -64 -92 -88 0
-1 75 -100 -61 -18 7 15 81 5 -36 0
1 -57 59 -78 21 65 53 35 0
1 -57 -59 -35 36 -33 96 -98 0
-1 -75 -26 -32 -74 14 17 76 45 -86 85 0
1 57 49 -6 -26 -41 -11 28 0
1 -57 59 78 -42 -61 18 -86 16 69 -32 -96 0
1 57 -49 -97 44 -68 -3 58 83 -67 0
1 -57 -59 -35 -36 -63 82 7 0
-1 -75 -26 -32 -74 14 17 76 45 86 0
-1 75 -100 61 12 42 33 56 32 0
1 -57 59 -78 -21 -35 -39 41 -5 45 0
-1 75 -100 -61 18 -86 -35 -41 10 0
-1 -75 -26 -32 -74 14 17 -76 41 49 0
1 57 -49 -97 -44 -50 -48 -92 0
-1 -75 -26 32 44 -94 71 -20 0
1 -57 -59 35 -93 7 -98 -91 65 83 -68 0
1 57 49 6 -71 -47 48 -12 -27 74 0
-1 75 100 24 -61 -70 53 -83 2 72 -92 0
-1 75 -100 61 12 42 33 -56 57 -62 23 0
1 57 49 -6 -26 41 -10 -82 66 0
-1 -75 26 57 -13 -10 -78 86 94 30 0
1 57 -49 -97 -44 -50 48 -12 0
-1 75 100 24 61 -52 -43 -18 0
-1 -75 26 -57 -66 -87 -62 93 85 51 -22 0
1 -57 -59 35 93 13 38 98 66 6 -43 40 0
-1 75 -100 -61 18 86 -26 93 39 0
-1 -75 -26 32 44 94 -46 15 89 0
-1 75 100 24 -61 70 -36 29 -77 63 -31 0
-1 -75 -26 -32 -74 -14 36 -97 -87 -35 0
1 -57 -59 -35 -36 -63 82 -7 0
-1 -75 26 -57 -66 -87 -62 93 -85 43 67 -98 0
1 57 49 6 71 78 100 -94 0
-1 75 100 24 -61 -70 53 -83 -2 -66 0
-1 -75 -26 -32 -74 14 -17 -83 -6 28 0
1 -57 59 78 42 87 50 -97 -94 0
-1 -75 26 -57 -66 -87 -62 -93 95 -82 0
-1 -75 26 -57 66 46 63 -8 48 86 45 50 -81 -42 0
-1 75 100 24 61 52 -94 66 0
1 57 -49 -97 44 68 21 -62 -74 82 22 50 -25 0
1 -57 59 78 -42 -61 18 -86 16 -69 0
1 -57 -59 35 -93 7 98 27 -64 40 -67 0
1 -57 -59 -35 -36 -63 -82 0
-1 -75 26 57 13 54 -76 -93 -3 79 -52 0
-1 -75 26 57 13 -54 71 95 70 0
-1 75 -100 -61 -18 -7 -6 -19 -33 -68 0
-1 75 -100 61 -12 18 -24 53 -43 -8 0
-1 75 100 24 61 -52 43 17 0
1 -57 -59 35 -93 7 98 27 -64 40 67 66 0
-1 -75 26 -57 66 46 63 -8 48 -86 0
1 -57 -59 35 93 13 38 98 66 -6 29 -27 84 0
1 -57 -59 35 93 -13 -7 28 -80 82 -53 0
-1 -75 26 -57 66 -46 68 -45 8 87 0
-1 75 -100 61 12 42 -33 -2 96 0
1 -57 -59 35 -93 7 -98 -91 65 83 68 60 0
1 57 -49 -97 44 68 21 62 -13 32 16 34 46 0
-1 75 -100 61 12 42 33 -56 -57 62 -97 0
-1 75 -100 -61 -18 -7 6 -52 95 0
1 -57 -59 -35 36 33 72 -20 -51 0
1 -57 -59 35 93 13 -38 30 -64 -92 88 -60 0
1 -57 59 -78 -21 35 -38 18 99 6 -71 0
-1 75 100 24 61 -52 -43 18 16 0
1 57 49 6 71 -78 23 -63 15 0
-1 75 100 24 -61 70 36 -58 -50 39 -87 0
1 -57 59 -78 -21 35 38 -33 -67 -88 0
1 57 -49 97 -77 -26 0
-1 -75 26 57 13 54 76 19 -44 87 -18 0
-1 -75 26 -57 -66 87 9 81 -91 24 -68 0
1 -57 -59 -35 36 -33 -96 62 60 -78 0
-1 75 -100 61 12 42 -33 2 -69 0
-1 -75 26 57 13 -54 -71 68 5 -23 -47 -58 -74 0
-1 -75 26 -57 66 46 63 8 -80 -58 19 0
-1 -75 26 57 13 54 76 19 -44 87 18 0
-1 -75 26 57 13 -54 -71 -68 97 81 0
1 -57 59 78 -42 61 -14 -79 0
1 -57 59 78 -42 61 14 -89 -72 0
-1 -75 26 57 -13 -10 -78 -86 -16 18 32 7 0
-1 -75 26 -57 -66 87 9 81 91 52 -17 -2 0
1 57 49 6 71 78 -100 -76 0
-1 -75 26 57 13 -54 -71 -68 97 -81 0
1 -57 -59 35 93 -13 -7 28 -80 -82 -69 -88 0
-1 -75 26 57 13 54 -76 93 -61 -33 -17 0
-1 -75 26 57 13 -54 71 -95 0
-1 -75 26 57 13 54 76 -19 15 97 -71 0
-1 -75 -26 32 -44 100 4 17 0
-1 -75 26 57 13 -54 71 95 -70 0
1 -57 -59 35 -93 7 98 27 64 -14 0
-1 -75 -26 32 -44 100 -4 -11 -58 83 -46 -55 0
1 57 -49 -97 44 -68 3 -28 0
1 57 -49 -97 44 68 21 62 -13 32 -16 43 18 0
-1 -75 26 57 13 54 -76 -93 3 0
-1 -75 -26 32 -44 -100 64 79 -72 4 0
-1 -75 -26 32 -44 -100 -64 -81 -56 0
1 57 -49 -97 44 -68 -3 58 83 67 -18 24 -30 -33 0
-1 -75 26 57 13 -54 -71 68 5 -23 -47 -58 74 0
-1 -75 -26 32 -44 100 -4 -11 58 -52 12 -53 0
-1 -75 26 57 -13 -10 -78 86 94 -30 0
-1 -75 26 -57 -66 87 9 -81 30 -31 11 0
-1 75 -100 61 12 42 33 -56 -57 62 97 80 0
1 -57 -59 35 -93 -7 31 -90 23 54 -55 0
1 57 -49 -97 44 68 21 62 -13 32 -16 -43 -50 0
-1 -75 26 -57 66 -46 68 45 -99 61 -72 13 0
-1 75 -100 -61 -18 -7 6 52 30 0
1 -57 -59 35 93 13 38 98 -66 77 69 0
-1 -75 26 -57 -66 -87 62 91 9 0
-1 -75 26 57 13 54 -76 -93 -3 -79 87 5 0
1 -57 -59 35 93 13 -38 30 -64 92 82 28 0
1 57 49 -6 -26 -41 -11 -28 0
1 57 -49 -97 44 -68 -3 -58 -51 30 0
1 -57 59 78 -42 61 -14 79 47 96 0
-1 75 -100 -61 -18 -7 -6 -19 33 -21 24 0
-1 -75 26 -57 -66 87 9 81 91 52 -17 2 0
1 57 49 6 -71 -47 -48 0
1 57 49 -6 26 0
-1 -75 26 57 -13 -10 -78 86 -94 14 -81 -82 0
-1 75 100 24 -61 -70 -53 -64 -98 0
-1 75 -100 61 -12 18 24 30 43 -31 25 99 0
-1 75 100 24 -61 -70 53 -83 -2 66 96 0
-1 75 -100 61 12 -42 -20 -77 -66 -24 0
1 -57 -59 35 93 -13 -7 28 80 -40 -66 -2 89 0
-1 -75 26 57 13 54 76 19 -44 -87 94 0
1 -57 -59 -35 36 33 72 -20 51 0
-1 75 100 24 61 52 94 37 72 0
1 57 49 6 71 78 -100 76 0
-1 -75 -26 -32 -74 -14 36 97 -51 82 0
-1 75 -100 -61 18 86 -26 -93 62 -39 -94 0
1 -57 -59 35 93 13 -38 30 -64 -92 88 60 0
1 -57 59 78 -42 -61 18 -86 16 69 32 0
-1 -75 26 -57 66 -46 68 45 -99 -61 96 0
-1 -75 -26 -32 74 87 -71 -56 0
-1 75 100 24 61 52 -94 -66 0
-1 -75 -26 -32 -74 -14 36 97 51 -23 0
1 57 -49 -97 44 68 21 -62 74 -93 0
-1 -75 -26 32 -44 100 -4 -11 58 52 0
-1 -75 -26 -32 -74 14 -17 -83 -6 -28 0
-1 75 -100 61 12 -42 20 0
1 -57 -59 35 93 13 38 98 66 -6 29 -27 -84 0
-1 75 -100 61 -12 18 24 30 43 -31 -25 0
-1 -75 -26 32 -44 -100 -64 -81 56 -96 0
-1 -75 26 -57 66 46 -63 2 84 0
-1 75 100 24 -61 70 36 -58 -50 -39 0
1 -57 59 -78 -21 35 38 33 95 -80 -5 -76 0
1 -57 -59 35 93 13 38 98 66 6 43 64 0
-1 -75 -26 32 44 94 46 21 31 0
-1 -75 26 57 -13 -10 -78 86 -94 14 81 -62 0
1 -57 -59 35 -93 -7 31 -90 -23 0
-1 -75 26 57 -13 10 -29 77 21 0
1 -57 -59 35 93 -13 -7 28 -80 82 53 -90 0
-1 -75 26 57 13 54 -76 -93 -3 -79 87 -5 0
1 -57 59 78 42 87 50 97 -9 -52 0
1 57 49 6 -71 47 65 22 16 -40 -54 87 99 0
-1 -75 26 -57 -66 87 -9 -96 -83 0
-1 75 -100 -61 -18 -7 -6 19 70 24 47 0
-1 75 100 -24 55 23 -20 8 4 0
-1 75 100 24 -61 70 36 -58 50 -69 0
1 57 -49 -97 44 -68 -3 -58 51 67 0
-1 -75 -26 32 44 94 -46 15 -89 0
-1 -75 -26 32 -44 -100 64 -79 43 0
-1 75 100 -24 55 23 20 -85 -53 84 -80 26 0
1 -57 -59 -35 36 33 72 20 0
1 -57 59 -78 -21 35 38 33 -95 0
-1 -75 26 -57 66 46 -63 -2 -44 0
-1 -75 26 -57 66 46 63 8 -80 -58 -19 0
1 -57 -59 35 93 13 -38 30 -64 92 -82 -91 -53 0
-1 -75 -26 -32 -74 -14 36 -97 87 -64 0
1 -57 -59 35 -93 7 -98 -91 65 -83 0
-1 75 100 24 61 -52 43 -17 0
-1 75 -100 61 -12 18 24 30 -43 0
-1 -75 26 -57 -66 87 9 81 91 52 17 0
1 -57 59 -78 -21 35 38 -33 67 -87 0
-1 -75 -26 32 -44 100 -4 -11 58 -52 12 53 0
1 57 49 6 -71 47 -65 0
-1 -75 26 57 13 54 76 -19 -15 55 -43 0
1 57 49 6 71 -78 -23 93 0
-1 -75 26 57 -13 -10 -78 -86 -16 18 -32 69 0
-1 75 -100 61 -12 18 -24 53 43 0
1 -57 -59 35 -93 7 98 27 64 14 52 0
-1 -75 -26 -32 -74 -14 -36 -47 -21 0
-1 75 100 24 61 52 94 -37 -87 42 -35 5 15 0
-1 -75 26 -57 66 -46 -68 -22 0
-1 75 -100 -61 -18 7 15 81 -5 0
-1 -75 26 57 13 -54 -71 68 5 23 -69 0
-1 -75 26 -57 -66 87 9 81 91 -52 0
-1 75 -100 -61 18 86 26 88 29 0
-1 75 -100 -61 18 86 26 -88 70 -59 0
-1 75 100 -24 -55 0
1 -57 -59 35 93 13 38 98 66 6 -43 -40 0
1 57 49 6 -71 47 65 22 16 -40 54 42 0
1 -57 -59 35 93 13 -38 30 -64 92 82 -28 0
-1 75 100 24 -61 -70 53 83 0
1 57 -49 -97 44 68 21 -62 -74 -82 67 0
-1 75 -100 -61 -18 7 -15 -81 34 -20 0
-1 75 -100 61 -12 18 24 30 43 31 -38 -97 0
-1 -75 -26 32 -44 100 -4 -11 -58 83 -46 55 0
1 -57 59 -78 -21 -35 -39 41 5 17 82 0
1 -57 -59 35 93 13 38 -98 0
-1 75 -100 61 12 42 33 -56 57 -62 -23 -52 45 -76 0
-1 75 100 -24 55 -23 -77 -56 70 0
1 -57 59 78 -42 -61 18 86 0
-1 -75 26 57 -13 -10 -78 -86 16 -9 -73 74 0
-1 75 -100 -61 18 86 -26 -93 -62 -97 0
1 -57 -59 35 -93 -7 31 -90 23 54 55 0
-1 75 -100 -61 18 -86 -35 41 -9 0
-1 75 -100 61 12 -42 -20 -77 66 -13 0
-1 75 100 -24 55 23 20 85 39 56 0
-1 75 -100 61 12 42 33 -56 -57 -62 0
1 -57 -59 35 93 -13 -7 28 -80 -82 69 -51 75 0
-1 75 -100 61 12 42 -33 -2 -96 0
-1 -75 26 57 -13 -10 -78 -86 -16 -18 -42 0
-1 -75 26 57 13 54 76 -19 -15 -55 -46 59 0
-1 75 -100 -61 18 -86 -35 41 9 0
-1 -75 26 -57 66 46 63 8 80 100 0
-1 75 100 24 -61 -70 -53 64 0
-1 -75 26 -57 -66 87 9 81 -91 24 68 70 0
-1 -75 26 -57 -66 87 9 81 -91 -24 5 -48 -95 -20 0
-1 75 -100 61 -12 18 -24 -53 94 -20 -37 -32 -13 0
-1 -75 -26 32 -44 -100 -64 81 84 0
-1 -75 26 -57 66 46 -63 2 -84 0
-1 75 100 24 -61 -70 -53 -64 98 44 16 0
-1 75 -100 -61 -18 -7 -6 19 70 -24 81 0
-1 75 -100 61 12 -42 -20 77 -44 -9 0
-1 75 -100 61 -12 18 24 -30 -97 -11 0
1 -57 -59 35 -93 7 -98 91 79 0
-1 -75 -26 -32 -74 14 -17 83 -85 0
1 57 -49 -97 44 68 21 -62 -74 82 22 50 25 0
-1 -75 -26 -32 74 -87 -3 -80 0
1 57 -49 -97 44 68 21 -62 -74 82 -22 -51 0
-1 75 -100 61 12 -42 -20 77 -44 9 0
-1 75 -100 -61 -18 7 -15 81 91 0
1 -57 59 -78 -21 -35 -39 41 -5 -45 0
-1 -75 26 57 -13 10 29 -25 -8 0
1 -57 59 78 -42 -61 18 -86 -16 0
1 57 49 6 -71 47 65 22 16 40 0
1 -57 59 -78 -21 35 38 -33 -67 88 0
-1 -75 26 57 -13 -10 -78 86 -94 14 -81 82 91 0
-1 75 -100 -61 18 86 -26 -93 62 39 -92 0
-1 -75 -26 32 44 94 46 -21 -89 0
-1 -75 26 57 -13 -10 -78 86 -94 14 81 62 0
-1 -75 26 -57 -66 87 9 -81 30 31 -62 0
-1 75 -100 61 12 42 33 -56 57 -62 -23 -52 -45 0
-1 75 -100 -61 -18 -7 -6 19 70 -24 -81 94 0
1 57 -49 -97 -44 -50 -48 92 0
1 -57 -59 35 93 -13 -7 28 -80 -82 69 51 -20 -3 0
-1 75 100 -24 55 -23 -77 -56 -70 0
-1 75 100 24 -61 -70 -53 -64 98 44 -16 0
-1 75 100 24 61 -52 -43 18 -16 88 0
-1 -75 -26 -32 -74 14 17 76 -45 71 0
1 -57 59 -78 -21 35 -38 18 -99 67 31 0
1 -57 -59 35 93 13 38 98 -66 -77 -64 0
1 -57 -59 35 93 13 -38 30 64 -70 0
-1 75 100 24 -61 70 -36 -29 84 89 0
1 -57 -59 -35 36 33 -72 0
1 -57 -59 35 93 -13 -7 28 80 -40 -66 -2 -89 0
1 57 -49 -97 44 68 21 -62 74 93 0
-1 -75 -26 32 44 -94 71 20 0
1 -57 -59 35 93 -13 -7 28 -80 -82 -69 88 0
-1 -75 26 -57 -66 87 9 81 -91 24 68 -70 0
-1 -75 26 -57 66 46 63 8 -80 58 6 0
-1 75 -100 61 -12 18 24 -30 -97 11 0
-1 75 100 24 -61 -70 53 -83 -2 66 -96 -69 0
-1 -75 26 -57 66 46 -63 -2 44 0
-1 75 100 24 -61 -70 53 -83 2 72 92 42 21 0
