c NeuroCodeBench 2.0 CNF formula with verdict Unsat
p cnf 81 649
1 -59 -38 18 -8 -15 -48 -5 -72 -42 -26 -35 77 -67 0
-1 -62 52 -37 -38 18 -4 48 32 -3 0
-1 -62 -52 -13 72 44 28 -70 -63 0
1 -59 38 21 -35 68 46 48 -10 3 81 16 13 -45 -56 0
1 -59 -38 -18 49 77 -61 -3 -30 0
1 -59 -38 -18 49 77 61 -42 -33 75 27 48 0
1 59 -75 -2 -73 -48 -5 79 -54 -41 -80 0
-1 62 53 55 71 -78 69 -46 -59 32 -31 0
1 -59 -38 -18 -49 -78 -29 -11 -69 12 77 0
1 -59 38 21 -35 68 46 48 -10 3 -81 53 61 0
1 59 75 -81 32 36 -29 35 -76 61 0
1 -59 38 21 35 39 69 2 15 33 81 30 0
-1 62 53 55 71 -78 69 -46 -59 -32 -20 -43 73 0
1 -59 38 -21 79 -24 49 -2 -22 0
-1 -62 -52 -13 72 44 -28 74 43 -56 0
-1 62 -53 -63 21 81 -2 41 -35 73 0
1 -59 -38 -18 49 77 -61 3 -35 -64 -41 65 -69 0
-1 62 53 -55 -29 -2 -38 -44 79 -27 -8 54 0
1 -59 38 21 -35 -68 9 -25 0
-1 -62 52 -37 -38 18 4 19 71 0
-1 62 -53 63 77 46 -39 -58 24 -49 -32 4 0
1 59 75 -81 32 -36 -60 0
-1 62 53 55 71 -78 69 46 0
1 -59 -38 -18 49 77 -61 3 -35 64 9 24 69 -58 0
1 -59 38 21 -35 68 46 48 -10 3 81 16 13 -45 56 0
-1 62 53 -55 -29 -2 -38 -44 79 27 -46 0
-1 62 -53 -63 21 -81 24 -65 80 -7 -72 -13 0
-1 -62 -52 -13 72 -44 23 -15 29 71 25 0
1 -59 38 -21 -79 -56 24 -52 -65 -76 28 0
1 59 -75 -2 -73 48 58 -46 -51 -57 5 0
-1 -62 -52 -13 72 44 -28 74 43 56 0
-1 62 53 -55 29 50 -7 -45 25 -47 15 0
1 59 75 -81 32 36 29 -33 -26 17 0
1 -59 38 21 -35 68 -46 19 -30 45 50 17 32 0
1 59 75 -81 -32 67 62 25 0
1 -59 -38 -18 49 -77 -15 6 74 -70 0
-1 62 53 -55 29 -50 -70 31 47 0
1 -59 38 21 35 -39 -42 80 36 -6 -22 0
-1 -62 52 -37 -38 18 -4 48 -32 -20 0
1 -59 38 -21 79 -24 -49 43 0
1 -59 38 21 -35 -68 -9 24 -17 -37 0
1 59 75 -81 -32 -67 -73 70 -41 0
-1 62 -53 -63 21 -81 -24 -74 60 -45 32 0
-1 62 -53 63 77 46 -39 58 -57 -49 51 0
1 59 -75 -2 73 47 11 69 -78 -80 0
1 59 -75 2 8 -67 37 36 47 -44 -51 0
1 -59 38 21 35 -39 42 24 80 57 -50 0
-1 62 53 55 71 78 27 0
1 -59 -38 -18 49 77 -61 3 35 -66 0
-1 62 53 -55 -29 2 70 35 -4 0
1 -59 38 21 35 39 69 2 15 -33 23 71 -32 30 0
-1 62 -53 -63 -21 44 -9 -72 -18 40 79 54 0
-1 -62 -52 -13 -72 -64 55 58 10 -48 -53 66 0
1 -59 38 21 35 39 69 2 15 33 -81 0
-1 62 53 -55 -29 2 -70 80 -37 -42 39 0
1 -59 -38 -18 49 -77 -15 -6 40 -37 0
1 -59 -38 -18 -49 -78 -29 -11 -69 -12 31 16 -20 0
1 -59 38 21 35 -39 42 -24 -67 9 -64 0
-1 -62 -52 -13 -72 -64 55 58 -10 0
-1 -62 -52 13 -71 4 -16 9 55 -61 -44 27 0
-1 62 -53 -63 21 -81 24 -65 -80 49 45 0
-1 62 53 -55 -29 2 -70 -80 13 71 16 -79 -58 0
-1 62 53 -55 -29 2 -70 -80 -13 79 7 0
1 -59 -38 18 8 36 37 44 0
1 -59 -38 18 -8 -15 -48 -5 -72 -42 -26 -35 77 67 0
1 -59 38 21 -35 68 46 48 -10 3 81 16 -13 -61 0
1 -59 38 21 -35 68 46 48 -10 -3 75 41 0
1 59 -75 -2 -73 48 58 46 -74 -79 32 0
1 -59 38 21 35 -39 42 24 80 -57 76 0
1 59 75 -81 32 36 -29 35 -76 -61 -15 0
-1 -62 52 -37 -38 18 -4 -48 -11 0
1 -59 -38 18 -8 -15 -48 5 3 37 0
-1 -62 -52 -13 72 -44 23 -15 -29 0
-1 -62 52 37 -56 -79 -73 11 -59 0
-1 -62 -52 -13 -72 -64 55 -58 -68 -59 0
-1 62 53 -55 -29 2 -70 80 -37 42 0
-1 62 53 -55 -29 2 70 -35 -76 -40 -60 0
1 -59 38 21 35 -39 -42 80 36 6 0
-1 62 -53 -63 -21 -44 -19 -17 -73 0
1 59 -75 -2 -73 -48 -5 79 -54 -41 80 76 -68 0
-1 62 53 55 71 78 -27 -40 0
1 -59 38 21 -35 -68 -9 -24 53 -60 0
-1 62 53 -55 -29 2 -70 -80 -13 79 -7 0
-1 62 -53 63 77 46 -39 58 57 74 -27 5 34 -2 0
-1 62 -53 -63 -21 44 9 30 3 57 0
1 -59 -38 -18 -49 -78 29 -20 0
1 -59 -38 18 -8 -15 -48 -5 -72 -42 -26 -35 -77 13 0
-1 62 -53 63 77 46 -39 -58 -24 0
1 59 -75 -2 -73 48 -58 -32 0
1 59 -75 -2 -73 48 58 -46 -51 -57 -5 0
1 -59 -38 -18 -49 -78 -29 -11 69 79 -52 0
-1 62 -53 -63 -21 44 9 30 -3 -12 46 0
1 -59 38 21 35 -39 42 24 -80 -10 -12 0
1 59 -75 -2 73 47 11 69 78 0
1 -59 -38 18 -8 -15 -48 -5 -72 -42 26 0
-1 -62 52 37 -56 -79 -73 -11 0
-1 -62 -52 13 71 80 32 16 2 -17 0
-1 62 53 -55 -29 2 -70 -80 13 71 16 -79 58 0
1 59 -75 2 -8 70 21 4 -35 0
-1 62 -53 63 77 -46 -79 0
-1 62 -53 63 77 46 -39 -58 24 -49 32 -72 26 54 -71 0
-1 -62 -52 -13 72 -44 -23 -32 -70 -3 0
1 59 -75 2 8 -67 37 36 47 -44 51 0
1 -59 38 21 -35 68 46 48 -10 -3 -75 -60 15 -11 0
1 59 -75 2 8 -67 37 36 -47 -39 0
-1 62 53 -55 -29 -2 38 78 24 -4 0
-1 62 53 55 71 -78 69 -46 -59 -32 -20 -43 -73 -45 0
-1 62 53 -55 -29 -2 -38 -44 -79 -74 0
-1 62 -53 -63 -21 44 -9 72 17 22 -78 -15 0
1 59 -75 -2 -73 -48 -5 79 54 -17 0
1 -59 38 21 35 39 69 2 15 -33 -23 -12 71 0
1 -59 -38 -18 49 77 61 -42 -33 75 -27 0
1 -59 38 21 35 -39 42 24 80 -57 -76 56 72 0
1 -59 38 -21 -79 -56 24 52 -60 0
1 -59 -38 -18 49 77 -61 3 -35 -64 -41 -65 0
1 -59 38 21 35 39 -69 3 -16 22 -33 0
-1 -62 -52 13 -71 4 16 -55 33 -37 6 0
-1 62 -53 63 77 46 -39 -58 24 -49 32 -72 26 -54 -36 0
-1 62 53 -55 29 50 -7 -45 25 47 39 0
1 -59 38 21 35 39 69 2 15 -33 23 71 32 0
1 59 75 81 -51 -45 0
1 -59 -38 -18 -49 -78 -29 11 0
-1 -62 -52 13 71 80 32 16 -2 -29 0
1 -59 -38 -18 49 77 -61 -3 30 14 -76 24 6 36 0
1 -59 38 21 35 -39 42 24 80 -57 -76 -56 25 0
1 -59 38 -21 -79 -56 24 52 60 20 0
-1 62 53 -55 -29 -2 -38 -44 -79 74 0
-1 62 -53 63 77 46 -39 -58 24 -49 32 72 -6 0
1 59 -75 2 8 -67 -37 -16 72 13 52 0
-1 62 53 -55 -29 2 70 -35 -76 -40 60 0
-1 62 -53 -63 21 81 -2 -41 -34 15 8 0
-1 -62 -52 13 -71 4 -16 9 55 -61 -44 -27 -72 0
1 -59 -38 -18 49 77 61 -42 33 53 -62 0
1 -59 38 21 -35 68 46 48 -10 -3 -75 -60 -15 0
1 -59 38 -21 -79 56 -16 2 0
-1 62 -53 -63 -21 44 -9 -72 -18 -40 0
-1 -62 52 37 -56 -79 73 68 46 0
1 -59 38 21 -35 -68 -9 -24 53 60 0
1 -59 -38 -18 49 77 61 -42 -33 -75 -51 -15 0
-1 62 53 -55 -29 -2 38 78 -24 54 0
-1 62 53 -55 -29 -2 -38 -44 79 27 46 0
1 -59 -38 -18 49 -77 -15 6 -74 0
-1 -62 52 -37 38 64 -80 79 0
1 59 -75 2 8 67 57 77 0
-1 62 -53 -63 21 81 -2 -41 34 0
1 59 75 -81 32 -36 60 -77 23 0
-1 62 -53 -63 21 -81 24 -65 80 -7 72 52 -4 0
-1 62 53 -55 29 -50 -70 -31 6 3 0
1 -59 38 21 35 39 69 2 15 -33 -23 12 0
-1 62 -53 -63 21 81 -2 41 35 -46 0
1 59 75 81 51 -12 0
-1 62 -53 -63 -21 44 -9 -72 18 49 0
1 59 -75 -2 73 47 -11 -32 0
-1 62 53 -55 -29 -2 38 78 -24 -54 0
-1 62 -53 63 77 -46 79 -39 0
1 -59 -38 -18 -49 78 2 0
1 -59 38 -21 79 24 -4 48 0
-1 -62 -52 -13 72 -44 -23 32 68 0
1 59 -75 2 8 -67 37 36 -47 39 -80 0
1 -59 -38 -18 -49 -78 -29 -11 -69 12 -77 -53 79 0
1 -59 38 21 -35 68 46 48 -10 3 81 16 -13 61 -43 0
1 -59 38 21 35 -39 42 24 -80 -10 12 -65 0
-1 -62 52 -37 -38 -18 19 22 0
1 -59 -38 -18 49 77 61 42 -15 0
-1 -62 -52 -13 72 44 28 70 48 0
-1 62 -53 -63 21 81 2 -45 0
-1 -62 -52 13 71 -80 -3 -29 56 6 0
1 59 -75 2 -8 -70 66 25 0
-1 -62 -52 13 71 -80 -3 29 15 -35 -46 -66 0
-1 -62 -52 13 -71 4 -16 -9 -30 0
-1 62 -53 -63 -21 44 -9 72 17 22 78 0
1 -59 -38 -18 49 77 61 -42 -33 -75 51 0
-1 -62 52 -37 38 64 -80 -79 0
1 59 -75 2 -8 70 21 4 35 0
-1 -62 -52 -13 72 44 -28 74 -43 0
1 -59 38 21 -35 68 -46 19 30 41 0
1 -59 -38 -18 49 77 -61 3 -35 -64 41 -37 0
1 -59 -38 -18 49 -77 15 63 17 -8 29 0
-1 -62 -52 13 71 -80 -3 29 15 35 0
1 -59 38 -21 -79 -56 24 -52 65 16 0
1 -59 38 21 35 -39 42 24 -80 -10 12 65 0
1 -59 -38 18 -8 -15 -48 5 -3 63 0
1 59 75 -81 -32 -67 73 17 -61 0
1 -59 38 21 -35 68 -46 -19 -66 34 0
1 -59 -38 -18 49 77 -61 -3 30 14 -76 24 -6 0
1 -59 -38 -18 -49 78 -2 -15 -35 -80 0
1 -59 38 21 35 -39 -42 -80 0
-1 -62 52 37 -56 79 -78 13 66 0
1 -59 -38 18 -8 -15 -48 5 -3 -63 0
-1 62 53 -55 29 50 -7 -45 25 -47 -15 33 0
1 -59 38 21 -35 -68 -9 -24 -53 0
1 -59 -38 -18 -49 -78 -29 -11 -69 12 -77 -53 -79 0
-1 62 -53 63 77 46 -39 -58 24 49 7 0
1 59 75 -81 -32 -67 -73 70 41 0
1 -59 38 21 -35 -68 -9 24 17 7 0
1 -59 38 21 35 39 -69 3 -16 -22 0
1 59 -75 2 8 67 57 -77 0
-1 62 -53 63 77 46 -39 58 57 74 -27 -5 0
-1 -62 -52 -13 -72 -64 55 58 10 -48 53 0
-1 62 -53 63 77 46 -39 58 57 74 27 -25 0
1 59 75 81 -51 45 -37 0
1 -59 -38 -18 49 77 61 -42 -33 -75 -51 15 13 0
1 -59 38 21 35 -39 42 -24 67 -44 26 4 0
-1 -62 -52 13 -71 4 16 -55 33 37 -64 0
-1 62 53 55 71 -78 -69 -52 -50 -11 0
-1 -62 52 -37 38 -64 74 -80 0
1 -59 38 21 35 -39 42 -24 -67 -9 74 -50 0
1 -59 -38 18 -8 -15 -48 -5 -72 -42 -26 -35 -77 -13 -66 -69 0
-1 62 53 55 71 -78 -69 52 -50 6 0
-1 62 -53 63 77 46 -39 -58 24 49 -7 0
-1 62 -53 63 77 46 -39 -58 24 -49 32 -72 -26 80 10 0
1 -59 -38 -18 49 77 61 -42 33 53 62 0
-1 -62 -52 -13 72 -44 -23 32 -68 0
-1 -62 -52 -13 72 44 28 70 -48 -20 0
-1 62 53 -55 29 50 -7 -45 -25 -69 0
1 -59 38 21 -35 -68 -9 24 17 -7 0
-1 62 -53 -63 -21 44 9 -30 -69 -6 -55 24 0
1 -59 38 21 -35 68 46 48 -10 3 81 -16 78 69 -63 0
-1 62 53 -55 29 -50 -70 31 -47 0
1 -59 -38 -18 49 77 -61 -3 30 14 -76 -24 -19 80 0
-1 62 -53 63 -77 -60 0
-1 -62 -52 -13 -72 64 39 0
-1 -62 -52 13 -71 -4 7 0
-1 62 53 -55 -29 -2 -38 44 -59 11 -9 0
-1 62 53 55 71 78 -27 40 12 -57 -74 0
-1 62 53 -55 -29 -2 -38 -44 79 -27 -8 -54 0
-1 -62 52 37 56 74 -72 -6 -9 0
1 59 -75 -2 -73 48 -58 32 0
-1 -62 52 37 56 74 -72 -6 9 0
-1 62 -53 63 77 46 -39 58 57 74 -27 5 -34 0
-1 -62 -52 -13 72 44 -28 -74 -78 0
-1 -62 52 -37 38 -64 -74 -56 79 0
1 -59 -38 -18 49 -77 -15 -6 40 37 -29 0
1 -59 -38 18 -8 -15 -48 -5 -72 -42 -26 -35 -77 -13 66 63 0
1 -59 38 21 35 39 69 2 -15 77 -14 3 40 0
1 -59 38 21 35 -39 -42 80 -36 77 0
1 -59 38 21 -35 68 46 48 10 0
-1 62 53 55 71 78 -27 40 12 -57 74 0
1 -59 38 -21 -79 -56 24 -52 -65 -76 -28 -22 0
-1 62 -53 -63 21 81 -2 -41 -34 15 -8 0
1 -59 38 21 -35 68 46 48 -10 3 -81 53 -61 0
1 -59 -38 18 -8 -15 -48 -5 -72 -42 -26 -35 -77 -13 66 -63 0
1 -59 38 21 35 -39 42 -24 67 44 -51 0
1 -59 38 -21 79 -24 49 -2 22 -8 0
-1 -62 -52 13 -71 -4 -7 0
1 -59 -38 -18 49 -77 15 63 -17 0
-1 62 -53 -63 -21 44 -9 -72 -18 40 79 -54 0
-1 62 -53 -63 21 81 -2 41 35 46 0
-1 -62 52 37 -56 -79 73 -68 17 0
-1 62 53 -55 -29 -2 38 -78 -47 0
-1 62 53 -55 29 50 -7 45 -20 -36 70 0
-1 62 53 -55 -29 2 70 -35 76 0
1 -59 -38 -18 49 -77 -15 -6 -40 -39 66 0
-1 -62 -52 13 71 -80 -3 29 15 -35 46 0
1 -59 -38 18 8 -36 -47 -54 78 0
-1 -62 52 -37 -38 18 -4 48 -32 20 0
-1 -62 -52 13 -71 4 -16 9 55 61 0
1 -59 -38 -18 49 77 -61 3 -35 64 9 24 69 58 66 0
-1 62 -53 -63 21 -81 24 -65 -80 49 -45 0
-1 62 -53 63 77 46 -39 58 57 -74 -34 52 0
-1 62 53 55 71 -78 69 -46 -59 -32 20 0
1 59 -75 2 -8 70 -21 11 10 69 0
-1 -62 -52 -13 -72 -64 -55 45 0
1 -59 38 21 -35 68 46 48 -10 3 -81 -53 0
1 -59 -38 -18 49 77 -61 -3 30 -14 -8 0
1 59 -75 -2 -73 48 58 46 74 0
-1 -62 52 -37 38 -64 -74 -56 -79 0
1 -59 -38 18 -8 -15 -48 5 3 -37 30 -17 0
1 59 -75 -2 73 47 11 -69 0
1 59 -75 -2 73 -47 23 0
-1 62 53 55 71 -78 69 -46 -59 32 31 0
-1 -62 -52 13 71 -80 3 -74 49 0
1 -59 38 -21 79 -24 -49 -43 0
1 -59 38 -21 79 24 4 0
1 -59 -38 -18 -49 -78 -29 -11 -69 -12 31 16 20 0
-1 -62 52 37 -56 79 -78 -13 0
1 -59 -38 -18 49 77 -61 3 -35 -64 41 37 0
-1 -62 52 37 -56 -79 -73 11 59 -55 0
-1 62 -53 -63 21 -81 24 -65 80 -7 -72 13 0
-1 -62 -52 13 71 -80 3 -74 -49 -41 0
-1 -62 52 37 56 -74 30 0
-1 -62 52 -37 -38 18 -4 -48 11 0
1 -59 -38 -18 -49 78 -2 -15 -35 80 -27 0
-1 -62 -52 -13 -72 -64 55 58 10 48 36 56 0
1 -59 -38 -18 49 77 -61 3 -35 -64 -41 65 69 0
-1 62 -53 63 77 -46 79 39 0
-1 -62 -52 13 71 -80 -3 29 15 -35 -46 66 47 0
1 59 -75 2 8 -67 -37 -16 72 -13 27 33 0
-1 62 53 -55 29 50 -7 -45 -25 69 0
-1 -62 -52 13 -71 4 -16 9 55 -61 44 65 -2 -36 0
1 59 -75 -2 -73 48 58 -46 -51 57 0
-1 -62 -52 13 -71 4 16 55 -57 0
1 -59 38 21 35 -39 -42 80 36 -6 22 0
1 -59 38 21 35 39 69 2 -15 77 14 0
-1 62 53 -55 -29 2 70 35 4 0
1 -59 -38 -18 49 77 -61 -3 30 14 -76 -24 19 0
1 -59 38 -21 -79 -56 -24 0
-1 62 53 -55 29 50 7 -43 0
-1 62 53 -55 29 50 -7 45 -20 -36 -70 0
1 59 75 -81 32 -36 60 77 0
1 -59 38 21 -35 68 -46 -19 66 -15 26 0
1 -59 -38 -18 49 77 -61 -3 30 14 76 0
-1 62 -53 63 77 46 -39 58 57 74 -27 5 34 2 0
-1 -62 -52 13 -71 4 -16 -9 30 0
-1 -62 52 -37 -38 18 4 -19 0
1 -59 38 21 35 -39 -42 80 -36 -77 0
1 59 75 -81 -32 -67 73 -17 -79 -11 0
1 -59 -38 -18 49 -77 -15 -6 -40 39 -73 52 61 0
-1 62 -53 -63 21 -81 -24 -74 -60 -20 0
1 -59 -38 -18 49 -77 15 -63 0
1 -59 -38 -18 49 77 -61 -3 30 14 -76 -24 -19 -80 16 0
-1 62 53 55 71 -78 69 -46 59 -49 -27 0
-1 62 -53 -63 21 -81 -24 -74 60 45 0
-1 -62 -52 13 -71 4 -16 9 55 -61 44 -65 42 0
1 -59 -38 -18 -49 -78 29 20 0
-1 -62 -52 13 -71 4 -16 9 -55 45 0
1 59 -75 2 8 -67 -37 -16 72 -13 -27 0
-1 -62 52 -37 38 64 80 0
1 59 -75 -2 73 47 -11 32 0
1 -59 38 21 35 -39 42 24 80 -57 -76 56 -72 79 0
-1 -62 -52 -13 -72 -64 -55 -45 -65 0
1 59 75 81 -51 45 37 0
-1 -62 -52 13 -71 4 -16 9 55 -61 -44 -27 72 50 0
1 -59 38 21 -35 68 46 48 -10 -3 -75 60 -44 -8 0
-1 62 -53 -63 -21 44 -9 -72 18 -49 0
1 -59 38 21 35 -39 42 -24 67 44 51 0
1 -59 -38 -18 -49 78 -2 -15 35 57 0
-1 -62 -52 13 -71 4 16 -55 -33 -21 19 74 72 0
-1 62 -53 63 77 46 -39 -58 24 -49 32 -72 -26 80 -10 0
1 -59 38 21 35 39 69 2 -15 -77 -40 0
1 59 -75 -2 73 -47 -23 0
1 -59 38 21 -35 68 46 48 -10 -3 75 -41 0
-1 -62 -52 -13 -72 -64 55 58 10 48 36 -56 75 0
-1 -62 -52 -13 -72 -64 -55 -45 65 0
-1 -62 -52 13 -71 4 16 -55 -33 -21 19 74 -72 0
1 59 -75 2 8 -67 -37 16 0
1 -59 -38 -18 49 77 -61 -3 30 14 -76 -24 -19 -80 -16 0
1 59 -75 2 -8 70 -21 -11 -61 0
1 -59 38 21 -35 68 46 48 -10 -3 -75 -60 15 11 0
-1 62 -53 63 77 46 -39 -58 24 -49 32 -72 26 -54 36 0
-1 -62 -52 -13 -72 -64 55 58 10 -48 -53 -66 0
1 59 -75 -2 73 47 11 69 -78 80 0
-1 62 53 -55 -29 -2 -38 -44 79 -27 8 0
-1 62 53 -55 29 50 -7 -45 25 -47 -15 -33 0
-1 -62 -52 13 71 80 32 -16 0
1 59 75 -81 32 36 -29 35 -76 -61 15 0
-1 62 53 -55 29 50 -7 45 20 0
-1 -62 -52 13 -71 4 16 -55 -33 21 40 0
-1 -62 52 -37 -38 -18 -19 -67 0
1 -59 38 21 35 -39 42 24 80 -57 -76 56 -72 -79 0
1 -59 -38 -18 49 77 -61 -3 30 14 -76 24 6 -36 0
1 -59 38 21 35 39 -69 -3 25 -63 -45 0
-1 -62 -52 -13 72 -44 23 -15 29 -71 0
-1 62 53 55 -71 -21 -20 0
1 59 75 -81 32 36 -29 35 76 0
1 -59 38 21 -35 68 46 48 -10 3 81 16 -13 61 43 0
1 -59 38 21 35 39 69 2 -15 -77 40 0
-1 -62 52 37 56 -74 -30 0
-1 62 -53 63 77 46 39 0
-1 62 53 -55 29 50 -7 45 -20 36 0
-1 62 53 -55 -29 -2 38 78 24 4 0
1 59 -75 -2 -73 -48 5 0
-1 62 53 -55 -29 -2 -38 44 59 50 72 17 0
1 -59 -38 -18 49 77 -61 3 -35 64 9 -24 0
1 59 75 -81 32 36 29 -33 -26 -17 0
-1 62 53 -55 -29 2 70 -35 -76 40 0
-1 -62 52 -37 -38 18 4 19 -71 0
-1 62 -53 -63 -21 -44 19 -7 36 0
-1 -62 52 -37 -38 -18 -19 67 28 0
1 -59 -38 18 -8 15 0
1 -59 38 21 -35 -68 -9 24 -17 37 -11 0
-1 -62 52 -37 -38 18 -4 48 32 3 0
1 -59 38 21 35 -39 42 -24 -67 9 64 0
1 59 -75 2 8 -67 -37 -16 72 13 -52 0
-1 62 -53 -63 -21 44 9 30 -3 12 0
-1 62 -53 -63 -21 44 9 30 3 -57 0
1 -59 -38 18 -8 -15 -48 5 3 -37 30 17 81 0
-1 62 -53 -63 -21 44 9 -30 -69 -6 -55 -24 0
-1 -62 -52 13 -71 4 16 -55 -33 -21 -19 -36 0
-1 -62 -52 -13 72 -44 -23 -32 70 47 0
-1 62 -53 -63 -21 44 9 -30 69 -23 0
1 -59 -38 18 -8 -15 -48 -5 -72 42 0
-1 62 53 -55 -29 -2 -38 44 59 50 72 -17 -74 0
1 -59 38 21 -35 68 46 48 -10 -3 -75 60 44 0
1 -59 -38 -18 49 -77 15 63 17 -8 -29 0
-1 62 -53 -63 21 -81 24 65 -32 0
1 -59 -38 18 -8 -15 -48 5 3 -37 30 17 -81 0
-1 62 53 -55 -29 2 -70 -80 13 71 -16 0
-1 62 -53 -63 21 -81 -24 74 -37 0
1 -59 38 21 -35 68 -46 -19 66 15 0
1 -59 38 21 35 39 -69 -3 25 63 49 0
-1 62 -53 -63 -21 -44 -19 17 0
-1 62 -53 63 77 46 -39 58 57 74 27 25 0
1 -59 -38 18 -8 -15 -48 -5 -72 -42 -26 35 0
-1 62 -53 -63 -21 -44 -19 -17 73 0
1 -59 -38 -18 49 77 -61 3 35 66 0
1 -59 -38 -18 -49 78 -2 15 -60 0
-1 62 53 -55 -29 -2 -38 44 59 50 72 -17 74 0
-1 62 -53 63 77 46 -39 -58 24 -49 32 -72 26 54 71 0
1 -59 -38 -18 -49 -78 -29 -11 -69 -12 -31 -51 0
1 -59 38 21 -35 68 -46 19 -30 -45 0
-1 -62 -52 13 71 80 -32 0
1 -59 -38 -18 49 -77 -15 -6 -40 39 73 0
1 -59 -38 18 8 -36 -47 54 -9 0
-1 62 -53 -63 21 -81 24 -65 80 -7 72 52 4 0
1 -59 38 21 -35 68 46 48 -10 3 81 -16 78 69 63 26 0
1 -59 38 21 35 -39 42 24 80 57 50 0
1 59 -75 -2 -73 48 58 -46 51 0
-1 62 -53 63 77 46 -39 -58 24 -49 32 72 6 0
-1 -62 -52 -13 -72 -64 55 58 10 48 36 -56 -75 0
-1 -62 -52 -13 -72 -64 55 -58 68 0
-1 -62 -52 13 -71 4 16 -55 -33 21 -40 -79 0
1 -59 38 21 35 39 69 2 -15 77 -14 3 -40 0
1 -59 38 21 -35 68 46 -48 -34 0
-1 62 -53 63 77 46 -39 58 57 -74 34 0
1 -59 38 21 -35 68 -46 -19 66 -15 -26 0
1 -59 -38 -18 49 -77 15 63 17 8 40 0
1 -59 -38 18 -8 -15 48 70 0
-1 62 53 -55 29 -50 70 -39 51 47 0
-1 62 53 -55 29 -50 -70 -31 6 -3 0
1 -59 38 21 -35 68 -46 19 -30 45 -50 72 0
1 -59 -38 -18 49 77 61 -42 33 -53 80 0
-1 62 -53 63 -77 60 -23 -51 0
-1 -62 -52 13 71 -80 -3 -29 -56 0
-1 -62 -52 -13 -72 -64 55 -58 -68 59 0
1 -59 38 21 -35 68 -46 -19 -66 -34 0
1 -59 38 -21 -79 -56 24 -52 -65 76 0
-1 62 53 55 -71 21 0
1 59 -75 -2 -73 -48 -5 79 -54 41 61 0
-1 62 -53 -63 -21 44 9 -30 -69 -6 55 0
1 59 -75 2 8 -67 -37 -16 72 -13 27 -33 0
1 59 -75 -2 -73 -48 -5 79 -54 -41 80 -76 0
1 -59 38 21 -35 68 -46 19 -30 45 -50 -72 0
-1 -62 -52 -13 72 44 28 -70 63 0
1 -59 38 21 35 39 -69 -3 25 -63 45 -40 0
1 59 -75 2 -8 70 -21 11 10 -69 73 0
-1 -62 52 37 -56 79 78 24 0
-1 62 53 -55 -29 -2 -38 44 -59 11 9 0
-1 62 53 55 71 -78 -69 -52 -50 11 0
1 -59 38 21 -35 68 -46 19 30 -41 0
-1 -62 -52 -13 72 -44 23 15 -37 0
1 -59 -38 -18 49 77 61 42 15 0
1 59 -75 -2 -73 48 58 46 -74 79 0
-1 -62 -52 13 71 -80 3 -74 -49 41 0
1 -59 38 -21 79 24 -4 -48 0
-1 -62 -52 13 -71 4 -16 9 55 -61 44 -65 -42 0
-1 62 -53 -63 -21 -44 19 7 49 0
-1 62 53 -55 29 -50 70 -39 -51 12 0
1 -59 38 21 35 39 69 2 15 -33 -23 -12 -71 0
-1 -62 52 37 -56 -79 73 68 -46 0
1 -59 -38 -18 -49 -78 -29 -11 -69 -12 -31 51 0
-1 62 -53 -63 -21 44 9 -30 -69 6 0
1 -59 -38 -18 -49 78 -2 15 60 0
1 -59 38 21 35 39 69 2 -15 77 -14 -3 0
-1 -62 -52 -13 72 44 28 70 -48 20 0
-1 -62 -52 -13 72 -44 -23 -32 -70 3 0
1 -59 -38 18 -8 -15 48 -70 0
1 -59 38 21 -35 68 -46 19 -30 45 50 -17 0
1 -59 38 21 -35 68 46 48 -10 3 81 -16 78 -69 25 0
-1 -62 52 -37 -38 -18 -19 67 -28 0
1 59 -75 2 8 -67 37 36 -47 39 80 0
1 59 75 -81 32 36 29 -33 26 0
-1 62 53 55 71 -78 69 -46 -59 -32 -20 43 0
-1 62 53 -55 -29 -2 38 -78 47 -37 0
-1 62 -53 -63 21 81 -2 41 -35 -73 75 0
-1 -62 -52 13 -71 4 16 -55 -33 -21 19 -74 0
1 59 75 81 51 12 66 0
-1 62 -53 -63 21 -81 24 -65 80 7 54 0
1 59 -75 2 8 -67 37 -36 12 0
1 -59 38 21 35 39 -69 -3 -25 0
1 59 75 -81 -32 67 -62 0
-1 62 -53 63 77 46 -39 58 -57 49 0
1 -59 38 21 35 39 -69 -3 25 -63 45 40 0
1 -59 -38 18 8 -36 -47 -54 -78 28 0
1 59 75 -81 32 36 29 33 0
1 59 -75 -2 -73 -48 -5 79 -54 41 -61 0
-1 -62 -52 13 -71 4 16 -55 33 -37 -6 0
-1 62 53 -55 -29 -2 -38 44 59 -50 40 0
1 59 -75 2 8 -67 -37 -16 -72 0
1 -59 38 21 -35 68 46 48 -10 3 81 -16 78 -69 -25 0
1 -59 -38 -18 -49 -78 -29 -11 69 79 52 0
-1 62 -53 -63 21 -81 24 -65 80 7 -54 0
-1 -62 -52 13 71 -80 -3 29 -15 5 0
-1 -62 52 -37 38 -64 -74 56 0
-1 -62 52 37 -56 79 -78 13 -66 0
1 -59 -38 -18 49 -77 -15 -6 40 37 29 0
-1 -62 52 37 56 74 -72 6 0
1 -59 -38 18 8 36 -37 68 0
-1 62 53 55 71 -78 69 -46 59 49 0
-1 -62 -52 13 71 -80 -3 29 15 -35 -46 66 -47 0
-1 -62 -52 -13 72 -44 23 -15 29 71 -25 0
1 -59 -38 18 -8 -15 -48 -5 -72 -42 -26 -35 -77 -13 -66 69 0
1 59 75 -81 -32 67 62 -25 0
-1 62 53 55 71 -78 -69 -52 50 0
-1 62 53 -55 29 50 7 43 0
-1 62 -53 63 -77 60 23 0
1 -59 38 21 -35 -68 9 25 -44 0
-1 62 -53 63 -77 60 -23 51 0
-1 62 53 55 71 78 -27 40 12 57 0
1 -59 38 21 35 -39 42 24 -80 10 33 0
-1 62 -53 -63 21 -81 -24 74 37 0
1 59 75 -81 -32 -67 -73 -70 15 -18 26 0
1 -59 -38 18 8 -36 47 0
1 59 -75 2 -8 70 -21 11 -10 28 0
1 -59 38 21 -35 68 46 48 -10 3 81 -16 -78 0
-1 -62 -52 13 -71 4 16 -55 -33 -21 -19 36 66 0
1 -59 -38 -18 -49 78 -2 -15 -35 80 27 0
1 -59 -38 -18 49 -77 -15 -6 -40 39 -73 52 -61 -53 0
1 -59 -38 -18 49 77 -61 3 -35 64 9 24 -69 0
-1 62 -53 -63 21 -81 24 -65 -80 -49 0
1 59 75 -81 32 36 -29 -35 -57 63 0
-1 -62 -52 13 -71 4 -16 9 55 -61 44 65 -2 36 0
-1 62 -53 -63 -21 44 -9 72 17 -22 0
1 -59 38 21 35 -39 42 -24 -67 -9 -74 0
1 -59 38 21 -35 68 46 48 -10 3 81 16 13 45 0
1 -59 38 21 -35 68 -46 19 -30 45 50 17 -32 0
1 59 -75 -2 -73 -48 -5 -79 0
-1 62 -53 63 77 46 -39 58 57 -74 -34 -52 0
1 -59 -38 -18 49 77 61 -42 -33 75 27 -48 0
1 -59 -38 -18 49 77 -61 3 -35 64 -9 0
1 59 -75 2 8 67 -57 0
-1 -62 52 -37 38 -64 74 80 0
-1 62 -53 -63 21 -81 -24 -74 60 -45 -32 0
1 -59 -38 18 -8 -15 -48 -5 72 21 0
1 59 75 -81 32 36 -29 -35 -57 -63 0
-1 -62 -52 -13 72 44 -28 -74 78 0
1 -59 38 -21 -79 -56 24 -52 -65 -76 -28 22 0
1 -59 -38 -18 -49 -78 -29 -11 69 -79 0
-1 62 53 -55 -29 2 -70 -80 13 71 16 79 0
-1 62 53 55 71 -78 69 -46 59 -49 27 0
-1 62 53 55 71 -78 69 -46 -59 -32 -20 -43 -73 45 0
1 -59 38 21 35 39 69 2 15 33 81 -30 0
-1 -62 -52 13 71 -80 -3 -29 56 -6 0
1 -59 38 21 -35 68 46 48 -10 3 81 -16 78 69 63 -26 0
1 59 75 -81 -32 -67 73 -17 79 0
1 -59 38 -21 -79 -56 24 52 60 -20 0
-1 62 53 -55 29 -50 70 -39 -51 -12 0
-1 -62 -52 13 71 -80 -3 29 -15 -5 0
-1 62 -53 -63 -21 44 9 -30 69 23 0
-1 -62 -52 13 -71 4 -16 9 -55 -45 0
1 59 -75 -2 -73 48 58 46 -74 -79 -32 0
-1 -62 -52 -13 -72 64 -39 0
-1 -62 -52 13 -71 4 16 -55 33 37 64 0
1 59 -75 2 -8 70 -21 -11 61 3 0
1 59 75 -81 -32 -67 73 -17 -79 11 0
1 -59 38 21 35 39 -69 3 16 0
-1 62 -53 -63 21 -81 24 65 32 0
1 59 -75 2 8 -67 37 -36 -12 0
1 -59 38 -21 -79 56 -16 -2 0
1 -59 38 21 35 39 69 -2 0
1 59 -75 2 8 -67 37 36 47 44 0
-1 -62 52 -37 -38 -18 19 -22 0
-1 62 -53 -63 21 -81 -24 -74 -60 20 0
1 -59 -38 18 8 36 -37 -68 0
1 -59 38 21 35 39 69 2 15 -33 23 71 -32 -30 0
-1 62 -53 -63 -21 44 -9 -72 -18 40 -79 0
-1 -62 -52 -13 -72 -64 55 58 10 48 -36 0
-1 62 -53 -63 21 81 -2 41 -35 -73 -75 0
-1 62 53 -55 -29 -2 -38 44 -59 -11 0
-1 62 53 -55 -29 2 -70 80 -37 -42 -39 0
1 -59 38 -21 79 -24 49 2 0
-1 -62 -52 13 71 -80 3 74 0
1 59 75 -81 -32 -67 -73 -70 15 18 0
1 -59 38 21 35 39 -69 -3 25 63 -49 0
1 59 -75 2 -8 70 -21 11 10 -69 -73 0
1 59 75 81 51 12 -66 0
1 -59 -38 -18 49 -77 -15 -6 -40 -39 -66 0
-1 62 -53 -63 21 -81 24 -65 80 -7 72 -52 0
-1 -62 -52 -13 72 -44 23 15 37 0
1 -59 -38 -18 49 77 -61 3 -35 64 9 24 69 58 -66 0
-1 -62 -52 13 71 80 32 16 -2 29 0
1 -59 -38 -18 49 -77 -15 -6 -40 39 -73 -52 0
1 -59 38 21 35 -39 42 -24 67 -44 -26 0
1 -59 -38 -18 49 77 61 -42 33 -53 -80 0
-1 -62 -52 -13 72 -44 -23 -32 70 -47 0
1 -59 38 -21 79 -24 49 -2 22 8 0
1 -59 -38 18 8 -36 -47 -54 -78 -28 0
-1 62 53 -55 29 -50 -70 -31 -6 0
1 -59 -38 -18 -49 -78 -29 -11 -69 -12 31 -16 0
-1 62 53 -55 -29 -2 38 -78 47 37 0
-1 62 53 -55 -29 -2 -38 44 59 50 -72 0
1 59 -75 2 -8 70 21 -4 0
-1 62 53 55 71 -78 -69 52 -50 -6 0
-1 62 53 -55 -29 2 -70 -80 13 -71 0
1 -59 38 21 -35 -68 9 25 44 0
1 -59 38 21 35 -39 42 24 80 -57 -76 -56 -25 0
1 59 75 -81 -32 -67 73 17 61 0
-1 62 53 55 -71 -21 20 0
-1 -62 -52 13 -71 4 16 -55 -33 21 -40 79 0
1 -59 38 21 35 -39 42 -24 -67 -9 74 50 0
1 -59 -38 -18 49 77 -61 -3 30 -14 8 0
-1 62 -53 -63 -21 -44 19 -7 -36 0
1 -59 -38 18 -8 -15 -48 -5 72 -21 0
-1 62 -53 -63 21 81 2 45 0
-1 -62 52 37 -56 -79 73 -68 -17 0
-1 -62 -52 13 -71 4 -16 9 55 -61 -44 -27 72 -50 0
-1 -62 -52 13 -71 4 16 -55 -33 -21 -19 36 -66 0
1 -59 -38 -18 49 77 61 -42 -33 -75 -51 15 -13 0
-1 -62 52 37 -56 79 78 -24 0
1 -59 -38 -18 49 -77 15 63 17 8 -40 0
1 59 -75 2 -8 70 -21 11 -10 -28 0
1 59 75 -81 32 36 -29 -35 57 0
1 -59 -38 -18 49 -77 -15 -6 -40 39 -73 52 -61 53 0
-1 62 -53 63 77 46 -39 -58 24 -49 32 -72 -26 -80 0
-1 -62 -52 13 -71 4 -16 9 55 -61 44 65 2 0
1 -59 38 21 35 -39 42 -24 67 -44 26 -4 0
1 -59 38 21 -35 -68 -9 24 -17 37 11 0
-1 62 -53 -63 -21 44 -9 72 -17 0
-1 62 -53 -63 -21 44 -9 72 17 22 -78 15 0
-1 -62 52 37 56 74 72 -47 0
-1 -62 -52 13 71 80 32 16 2 17 0
1 -59 38 21 -35 68 46 -48 34 0
-1 -62 52 37 -56 -79 -73 11 59 55 0
1 -59 -38 18 8 36 37 -44 0
1 -59 -38 18 8 -36 -47 54 9 0
-1 62 53 55 71 78 -27 40 -12 -56 0
-1 62 -53 63 77 46 -39 -58 24 -49 -32 -4 0
-1 -62 52 37 56 74 72 47 0
-1 62 -53 -63 -21 44 9 30 -3 -12 -46 0
-1 62 53 -55 29 -50 70 39 0
1 -59 38 21 35 39 -69 3 -16 22 33 0
-1 62 -53 63 77 46 -39 58 -57 -49 -51 0
1 59 -75 2 -8 70 -21 -11 61 -3 0
1 -59 -38 -18 -49 78 -2 -15 35 -57 0
1 -59 -38 18 -8 -15 -48 5 3 -37 -30 0
1 59 75 -81 -32 -67 -73 -70 15 -18 -26 0
-1 62 53 55 71 78 -27 40 -12 56 0
-1 62 53 -55 29 -50 70 -39 51 -47 0
1 -59 38 -21 -79 56 16 0
-1 62 -53 -63 -21 -44 19 7 -49 0
-1 62 53 -55 29 50 -7 -45 25 47 -39 0
1 59 -75 2 -8 -70 66 -25 0
1 59 -75 2 -8 -70 -66 0
1 59 75 -81 32 -36 60 -77 -23 0
1 59 -75 -2 -73 -48 -5 79 54 17 0
1 -59 38 21 -35 68 46 48 -10 -3 -75 60 -44 8 0
1 -59 -38 -18 -49 -78 -29 -11 -69 12 -77 53 0
-1 62 53 -55 -29 2 -70 -80 -13 -79 0
1 -59 -38 -18 49 -77 -15 6 74 70 0
1 -59 38 21 35 39 69 2 15 -33 23 -71 0
1 -59 38 -21 -79 -56 24 -52 65 -16 0
-1 62 53 -55 -29 2 -70 80 37 0
-1 62 53 55 71 -78 -69 52 50 0
-1 -62 -52 13 -71 4 16 55 57 0
1 59 75 -81 -32 -67 -73 -70 -15 0
1 -59 38 21 35 -39 42 24 -80 10 -33 0
1 59 -75 -2 -73 -48 -5 79 -54 -41 80 76 68 0
-1 62 -53 -63 21 81 -2 -41 -34 -15 0
-1 62 53 -55 -29 -2 -38 44 59 -50 -40 0
