c NeuroCodeBench 2.0 CNF formula with verdict Unsat
p cnf 81 685
-1 -29 -64 -9 -41 74 24 50 54 0
1 26 76 -39 -72 -50 -27 73 48 67 0
1 -26 -10 30 13 60 -64 8 -7 66 -12 -4 0
1 26 -76 77 7 31 63 0
1 26 76 -39 -72 -50 -27 -73 25 -14 45 0
-1 29 7 3 -38 -47 67 0
1 26 76 39 -6 -19 -29 -63 15 -9 40 80 0
-1 29 -7 58 54 73 17 35 38 41 78 0
1 26 76 -39 72 -30 -66 -44 -68 -61 28 -3 0
1 26 76 39 -6 19 3 42 -47 -81 -31 -9 0
1 26 76 39 -6 19 3 42 -47 -81 31 -16 0
-1 -29 -64 9 68 44 61 30 0
1 26 76 -39 72 30 -45 -33 -75 0
1 26 76 39 -6 19 3 42 -47 -81 -31 9 0
-1 -29 64 -6 -62 -9 -59 -46 -77 0
1 -26 10 -22 -67 80 -34 -70 -14 66 -60 7 -5 -46 0
1 -26 10 22 -43 -49 -15 -28 27 -14 -62 0
-1 29 7 -3 38 8 -64 -75 -76 -58 -20 -9 0
1 -26 10 22 -43 49 -34 -15 14 0
1 26 76 -39 -72 -50 -27 -73 -25 -13 43 0
-1 29 7 -3 38 8 64 10 15 23 0
1 -26 10 -22 67 68 14 -52 -70 0
-1 29 7 -3 38 8 -64 -75 -76 -58 -20 9 0
1 -26 10 22 43 -33 37 -49 -46 0
1 -26 -10 30 13 -60 29 40 -71 28 -41 -49 0
1 26 76 -39 72 30 45 2 17 -8 81 65 0
-1 -29 64 -6 -62 -9 -59 46 -22 66 -8 0
1 -26 10 -22 -67 -80 -73 57 27 51 0
1 -26 -10 30 13 -60 29 40 -71 -28 -62 -68 -78 0
1 26 76 39 -6 -19 29 -48 44 32 -56 -34 0
1 -26 10 -22 -67 80 -34 -70 -14 -66 -46 0
-1 -29 64 6 33 -22 -38 25 -32 14 35 20 80 0
-1 29 7 -3 -38 36 45 47 -52 0
1 -26 10 -22 67 68 14 52 66 35 24 0
1 -26 -10 30 13 -60 29 40 71 -77 -42 0
-1 -29 -64 -9 -41 -74 -36 -59 -28 47 0
-1 29 7 3 -38 47 43 40 0
1 26 76 -39 72 -30 66 -64 37 22 0
-1 29 -7 58 54 -73 -62 81 -23 0
-1 29 7 -3 38 8 -64 -75 -76 58 -80 0
1 -26 10 22 43 -33 37 49 -34 68 40 -6 0
1 -26 10 22 -43 49 34 -3 -69 58 0
-1 -29 64 -6 -62 -9 -59 46 -22 -66 79 0
1 26 76 39 -6 -19 29 -48 -44 72 -66 -45 -27 -5 3 70 0
1 26 -76 77 7 31 -63 15 -62 0
-1 -29 -64 -9 -41 74 24 50 -54 -45 0
1 -26 10 -22 67 -68 42 56 -7 80 0
1 26 76 39 -6 -19 -29 -63 15 -9 -40 -34 67 61 0
1 -26 10 22 -43 49 -34 -15 -14 -28 0
1 -26 10 -22 -67 80 -34 -70 14 -21 0
1 -26 -10 30 13 -60 29 40 -71 28 -41 49 0
1 -26 10 22 43 -33 -37 -73 -50 -24 0
-1 29 -7 58 54 73 -17 15 0
-1 -29 64 -6 62 -56 -68 -9 0
1 -26 -10 30 13 -60 -29 41 0
1 -26 10 -22 67 -68 42 -56 44 0
1 -26 10 -22 67 68 -14 35 41 33 50 0
1 -26 10 -22 -67 80 34 -18 -39 59 -6 0
-1 29 -7 58 54 73 17 -35 -48 62 0
-1 29 7 -3 -38 -36 -28 66 -79 -67 0
-1 -29 -64 9 68 -44 -56 45 22 -47 81 -13 -38 -52 0
1 -26 10 -22 67 68 -14 35 41 -33 0
-1 -29 -64 9 68 -44 -56 45 -22 36 27 0
1 26 76 -39 -72 -50 -27 73 -48 65 64 0
1 -26 -10 30 -13 -3 -45 -6 -74 -7 33 0
-1 -29 -64 9 68 -44 -56 45 22 -47 81 -13 38 0
1 -26 -10 -30 9 -16 -49 0
1 26 -76 77 -7 -79 9 -18 -33 64 0
-1 -29 64 -6 -62 -9 -59 46 -22 -66 -79 0
1 26 76 39 -6 -19 29 -48 -44 72 -66 -45 -27 -5 3 -70 0
1 -26 10 22 -43 49 -34 15 -75 27 72 0
1 -26 -10 30 -13 -3 -45 6 14 -56 0
1 -26 10 -22 -67 80 -34 -70 -14 -66 46 56 35 5 11 0
1 26 76 39 -6 -19 29 -48 -44 72 66 12 0
-1 -29 -64 9 -68 17 -55 75 -67 0
1 -26 -10 30 13 -60 -29 -41 78 75 61 57 53 -80 0
1 -26 10 -22 67 -68 42 56 -7 -80 15 0
1 -26 -10 -30 -9 57 -54 68 0
-1 -29 -64 9 -68 -17 -54 -19 0
-1 -29 64 6 -33 60 -61 -47 -30 -58 50 -73 -81 52 0
1 -26 -10 30 13 60 -64 8 -7 66 -12 4 -20 0
1 26 76 39 -6 -19 -29 -63 15 -9 -40 -34 67 -61 0
1 -26 -10 30 13 -60 29 40 71 -77 42 -19 9 4 0
1 26 76 -39 -72 -50 -27 -73 25 -14 -45 75 0
1 26 76 39 -6 -19 29 48 67 53 -22 74 44 72 0
-1 29 -7 58 54 -73 -62 -81 0
1 -26 10 22 -43 -49 -15 28 37 6 0
1 26 76 39 -6 -19 29 48 67 -53 44 -79 0
1 26 76 -39 72 -30 66 64 -61 79 0
1 26 76 39 -6 -19 29 48 67 53 -22 74 44 -72 0
1 -26 -10 -30 9 -16 49 0
1 26 76 -39 -72 50 11 19 42 48 -55 37 0
-1 29 7 3 -38 -47 -67 -46 0
1 -26 -10 30 -13 3 -38 -27 4 0
1 26 76 -39 -72 50 -11 -68 32 45 65 80 -81 -31 0
1 -26 -10 30 13 -60 -29 -41 78 75 61 -57 0
1 26 76 -39 72 30 45 2 17 8 0
1 26 76 39 -6 -19 29 -48 -44 72 -66 -45 27 -17 20 0
-1 -29 64 -6 -62 -9 59 -72 38 51 0
1 26 76 -39 -72 50 11 -19 -16 34 -73 30 -25 0
1 -26 -10 -30 -9 -57 -22 0
-1 -29 -64 9 68 -44 -56 -45 2 18 -76 0
1 26 -76 77 -7 -79 9 18 0
1 -26 10 -22 -67 80 -34 70 -45 -76 9 0
1 26 76 -39 -72 -50 -27 -73 -25 13 -10 0
1 26 76 -39 -72 50 11 19 42 -48 43 -36 0
1 -26 10 22 43 -33 37 49 34 -6 50 0
1 26 76 -39 72 30 45 2 -17 -77 -57 0
-1 29 7 -3 -38 -36 -28 -66 0
1 26 76 39 -6 -19 29 48 67 -53 -44 73 32 0
-1 -29 64 6 33 -22 38 -63 -34 47 -58 -57 0
-1 -29 -64 9 68 -44 -56 45 22 -47 81 13 0
1 -26 -10 30 -13 -3 -45 6 -14 59 -33 0
-1 -29 64 6 33 -22 -38 25 -32 14 -35 -51 -31 56 39 0
1 -26 10 22 -43 49 34 3 -16 -69 0
-1 29 -7 58 -54 -15 0
1 -26 -10 30 13 60 -64 -8 58 33 -78 0
1 -26 -10 30 -13 -3 45 -14 -70 -35 0
-1 -29 -64 9 68 -44 56 78 -42 0
-1 -29 64 -6 -62 9 -57 -73 0
1 26 76 -39 -72 50 -11 -68 32 45 65 -80 13 0
-1 -29 -64 -9 -41 74 24 -50 0
1 26 76 39 -6 -19 29 -48 44 -32 -54 -28 -7 0
1 -26 -10 30 13 60 64 -20 -32 49 -45 0
1 26 76 -39 -72 50 11 -19 -16 34 -73 -30 0
1 -26 -10 30 13 60 -64 8 -7 -66 -62 0
-1 -29 64 -6 -62 9 57 32 43 -69 0
1 26 -76 77 7 -31 79 22 -63 45 0
1 -26 -10 30 13 60 64 20 11 9 0
1 -26 10 -22 67 -68 -42 -60 0
1 26 76 -39 -72 50 -11 -68 32 45 65 80 81 -71 -63 0
-1 29 -7 58 54 73 17 35 38 -41 0
1 -26 10 22 43 -33 37 49 -34 -68 0
-1 -29 -64 9 68 -44 -56 45 22 47 58 -40 -31 -11 0
-1 -29 -64 9 -68 17 55 0
-1 -29 -64 -9 -41 74 24 50 -54 45 52 0
1 -26 -10 30 13 -60 29 -40 18 -52 0
-1 -29 -64 9 -68 -17 54 -2 0
-1 -29 64 -6 -62 -9 -59 -46 77 -47 -66 0
-1 29 -7 58 54 -73 62 40 -39 23 37 -52 14 16 -68 0
1 -26 10 -22 67 68 -14 -35 -52 -54 0
1 -26 10 -22 -67 80 -34 70 45 -75 -57 -76 0
1 -26 -10 -30 -9 57 -54 -68 0
1 26 76 -39 -72 50 -11 -68 32 -45 -27 0
1 26 76 39 -6 19 -3 25 -42 0
1 -26 -10 30 -13 -3 -45 6 -14 59 33 43 0
1 -26 -10 30 13 60 64 20 -11 -38 0
-1 29 7 -3 38 -8 15 -65 23 -64 0
1 26 76 39 -6 -19 29 -48 -44 72 66 -12 0
1 -26 -10 30 13 -60 -29 -41 -78 63 0
-1 29 7 -3 -38 36 45 -47 0
-1 -29 -64 9 68 -44 56 -78 59 0
-1 -29 64 6 33 -22 -38 25 -32 14 35 20 -80 0
-1 -29 64 6 -33 60 -61 -47 -30 -58 50 -73 81 -35 0
-1 -29 64 6 33 -22 -38 25 32 -45 -11 0
1 26 76 -39 -72 50 11 -19 16 -17 47 0
1 -26 10 22 -43 -49 -15 28 -37 6 0
1 -26 -10 30 13 60 -64 8 7 -24 -39 0
1 -26 10 -22 -67 80 34 -18 39 76 -77 -72 -29 0
1 26 76 39 -6 19 -3 25 42 47 0
-1 -29 -64 9 -68 -17 54 2 0
1 -26 10 22 43 33 29 17 -62 0
1 -26 10 22 43 -33 -37 -73 -50 24 40 0
1 26 76 39 -6 -19 29 48 67 53 -22 -74 23 75 0
1 -26 10 -22 67 -68 42 -56 -44 0
1 26 76 -39 -72 -50 27 -63 -22 0
-1 -29 64 6 33 -22 -38 25 -32 14 -35 51 0
1 26 76 -39 72 30 45 2 -17 77 -13 -67 0
-1 -29 64 6 -33 60 61 0
1 26 76 -39 -72 -50 -27 -73 25 -14 -45 -75 0
1 -26 10 -22 67 68 14 52 66 35 -24 0
1 -26 10 -22 67 68 -14 35 -41 -20 0
1 -26 10 22 43 -33 -37 -73 50 6 58 53 70 0
-1 -29 -64 9 68 -44 -56 45 22 47 58 40 52 78 0
-1 -29 64 -6 -62 9 57 32 -43 -39 0
1 26 76 -39 72 30 45 -2 68 -29 66 0
1 26 76 -39 -72 -50 -27 -73 -25 -13 -43 -36 0
-1 29 7 3 38 0
1 26 76 39 -6 19 3 42 -47 -81 31 16 0
-1 29 -7 58 54 -73 -62 81 23 0
-1 29 7 -3 38 8 64 -10 31 0
1 -26 10 -22 67 68 -14 -35 52 12 0
1 26 -76 77 7 -31 79 -22 -6 0
1 26 76 -39 72 -30 -66 44 69 -63 54 -46 0
1 26 -76 77 7 -31 -79 78 59 40 20 0
1 26 76 -39 72 -30 -66 -44 -68 -61 28 3 27 0
1 26 76 -39 -72 50 11 19 42 48 -55 -37 0
1 26 -76 77 -7 -79 -9 0
1 -26 -10 30 -13 -3 -45 6 14 56 -63 0
-1 -29 -64 9 68 -44 56 78 42 17 0
1 -26 -10 30 -13 3 38 46 32 0
-1 29 7 -3 38 -8 15 -65 -23 0
1 -26 -10 30 13 -60 -29 -41 78 -75 -69 -67 -71 0
-1 -29 -64 9 68 -44 -56 45 22 47 -58 -81 0
1 -26 -10 30 13 60 -64 8 -7 -66 62 -78 -6 0
-1 29 -7 58 54 73 -17 -15 0
1 -26 -10 30 13 60 -64 -8 58 -33 -20 0
-1 29 -7 58 54 73 17 35 -38 0
-1 -29 64 6 -33 60 -61 -47 -30 58 0
1 26 76 -39 -72 50 -11 68 55 31 0
1 -26 -10 30 -13 -3 45 -14 -70 35 0
-1 -29 64 -6 -62 -9 59 -72 -38 0
1 26 76 39 -6 -19 29 -48 44 32 -56 34 0
-1 -29 -64 9 68 -44 -56 45 22 -47 -81 60 -16 0
1 -26 10 -22 -67 80 -34 -70 -14 66 -60 -7 -69 0
-1 29 7 -3 -38 -36 28 22 -8 0
-1 -29 64 6 33 -22 -38 25 -32 14 35 -20 -68 0
1 26 76 -39 72 30 45 2 -17 77 -13 67 0
1 -26 10 22 43 -33 -37 -73 50 6 58 53 -70 0
-1 29 7 3 -38 -47 -67 46 0
1 26 76 -39 -72 50 11 -19 -16 -34 61 0
1 -26 10 22 -43 49 34 3 -16 69 45 0
1 -26 -10 30 13 -60 29 40 -71 28 41 20 0
1 -26 10 22 43 -33 -37 -73 50 6 -58 36 -60 0
1 26 76 -39 72 -30 -66 44 -69 -70 63 0
1 26 76 -39 72 -30 -66 44 -69 70 -52 0
-1 -29 -64 -9 -41 -74 -36 -59 -28 -47 0
-1 29 7 -3 -38 36 -45 0
-1 -29 -64 9 68 44 -61 36 80 0
1 -26 10 -22 67 -68 42 56 7 0
1 -26 10 -22 -67 80 34 -18 39 76 77 0
1 26 76 39 6 7 -34 -43 0
-1 29 7 -3 38 -8 15 65 -80 0
1 -26 10 22 43 -33 -37 -73 50 6 -58 -36 8 -78 0
-1 -29 64 -6 -62 -9 59 72 68 -46 19 0
-1 -29 64 6 33 -22 -38 -25 0
-1 -29 64 -6 -62 9 57 32 -43 39 49 33 0
1 -26 -10 30 13 60 64 20 11 -9 -51 -80 4 0
1 26 76 -39 72 -30 -66 44 -69 -70 -63 0
1 -26 10 -22 67 -68 42 56 -7 -80 -15 0
1 26 76 -39 -72 50 11 19 -42 31 0
1 -26 10 -22 67 68 14 52 -66 76 -25 0
-1 -29 64 6 -33 60 -61 -47 -30 -58 50 73 0
1 -26 -10 30 13 -60 -29 -41 78 75 61 57 -53 0
1 26 76 39 -6 19 3 -42 -28 0
1 -26 -10 30 13 60 64 -20 -32 -49 0
1 -26 10 22 -43 49 34 -3 69 59 0
1 26 76 39 -6 19 3 42 47 11 14 0
1 -26 -10 30 -13 3 38 46 -32 0
1 26 76 39 -6 -19 29 48 67 -53 44 79 78 0
1 26 76 -39 72 -30 -66 -44 68 -34 25 42 0
-1 -29 -64 -9 41 57 -47 0
-1 -29 64 6 -33 60 -61 -47 -30 -58 50 -73 81 35 0
1 26 76 -39 72 -30 -66 -44 -68 -61 -28 2 0
1 26 76 -39 72 -30 -66 -44 -68 61 0
1 -26 -10 30 13 60 -64 8 7 24 -18 22 0
1 26 76 -39 72 30 45 -2 -68 -18 17 0
1 26 76 -39 72 -30 66 -64 -37 -31 -9 0
1 -26 10 -22 67 68 -14 -35 -52 54 18 -44 0
-1 -29 -64 9 68 -44 -56 -45 -2 17 0
-1 -29 64 -6 -62 9 57 -32 50 2 3 0
1 -26 -10 30 -13 -3 -45 6 -14 -59 -20 -49 0
1 -26 10 22 -43 49 34 3 16 0
-1 -29 -64 -9 41 57 47 0
1 26 76 -39 72 -30 66 -64 -37 -31 9 0
-1 -29 64 -6 -62 -9 59 -72 38 -51 0
1 -26 -10 30 -13 3 38 -46 0
1 26 76 39 -6 -19 29 48 67 53 -22 -74 23 -75 0
-1 -29 64 -6 62 -56 -68 9 0
1 -26 10 22 43 33 29 17 62 0
1 -26 -10 30 13 60 64 -20 32 -69 0
-1 -29 -64 9 68 -44 -56 45 -22 -36 0
-1 -29 64 -6 -62 -9 -59 46 22 -75 28 0
-1 29 7 3 -38 47 -43 0
-1 -29 64 6 33 -22 -38 25 -32 -14 81 77 3 0
1 -26 10 -22 -67 80 34 -18 -39 -59 -12 -15 0
-1 29 -7 58 54 -73 62 40 -39 23 -37 -61 0
1 26 76 -39 72 30 45 -2 -68 18 0
1 26 76 39 -6 -19 -29 -63 -15 -25 0
1 -26 10 22 43 -33 -37 73 5 -64 0
1 26 76 -39 72 30 45 -2 68 -29 -66 0
-1 29 -7 58 54 -73 62 40 -39 -23 0
1 26 76 39 -6 -19 -29 -63 15 9 45 69 0
1 26 76 39 -6 -19 29 -48 -44 72 -66 45 0
-1 -29 -64 -9 -41 -74 36 0
-1 -29 -64 9 -68 -17 -54 19 -39 0
1 -26 10 -22 -67 80 -34 -70 -14 -66 46 56 35 -5 0
1 26 76 -39 72 30 45 2 -17 -77 57 73 0
1 26 76 -39 -72 -50 -27 -73 -25 -13 -43 36 5 -4 0
-1 29 7 -3 -38 -36 28 -22 -4 0
1 26 76 -39 -72 -50 -27 73 -48 -65 0
1 -26 10 -22 67 68 14 52 -66 76 25 42 0
1 26 76 39 -6 19 3 42 -47 81 0
-1 -29 64 -6 -62 9 57 -32 50 -2 0
-1 -29 64 -6 -62 9 57 32 -43 39 -49 66 71 0
1 -26 -10 30 -13 -3 -45 6 -14 -59 -20 49 0
1 26 76 39 -6 19 3 42 47 11 -14 0
1 26 76 -39 -72 50 -11 -68 32 45 -65 0
-1 29 -7 58 54 -73 62 40 39 45 0
-1 29 7 -3 38 8 -64 75 5 0
-1 29 -7 58 54 -73 62 40 -39 23 -37 61 -28 0
1 -26 -10 30 13 -60 29 40 -71 -28 -62 -68 78 0
1 26 76 -39 -72 50 -11 -68 -32 35 -73 -70 -75 -4 0
1 -26 10 22 43 -33 -37 -73 50 6 -58 -36 -8 -64 0
1 26 76 -39 -72 50 -11 -68 32 45 65 80 81 -71 63 -53 -74 0
1 -26 10 22 -43 49 -34 15 75 55 -60 -71 0
-1 -29 -64 9 68 -44 -56 45 22 -47 -81 60 16 -69 0
1 26 76 -39 -72 50 11 -19 -16 34 -73 30 25 0
1 -26 10 22 43 -33 37 -49 46 23 70 12 0
1 -26 -10 30 13 60 -64 8 7 -24 39 0
-1 -29 64 6 33 -22 38 -63 34 -69 0
-1 29 -7 58 54 -73 62 40 -39 23 37 -52 14 -16 0
1 -26 -10 30 13 -60 29 40 71 77 -63 25 0
1 -26 -10 30 -13 -3 45 14 0
1 -26 10 22 -43 -49 -15 -28 27 -14 62 0
-1 29 7 -3 38 -8 -15 0
1 26 76 -39 -72 50 -11 -68 32 45 65 80 81 71 0
-1 -29 64 -6 62 56 0
1 26 76 39 -6 -19 -29 -63 15 9 45 -69 42 0
1 26 76 -39 -72 50 -11 -68 -32 -35 -31 0
-1 -29 -64 9 68 -44 -56 -45 2 -18 0
1 26 76 -39 -72 50 -11 -68 32 45 65 80 81 -71 63 -53 74 0
1 26 76 39 6 7 34 0
1 -26 10 22 43 -33 37 49 -34 68 40 6 0
-1 29 -7 -58 66 0
1 -26 -10 30 13 60 -64 8 -7 66 -12 4 20 0
-1 -29 64 -6 -62 -9 59 72 68 46 40 -58 0
-1 -29 -64 9 68 -44 56 78 42 -17 0
1 26 76 -39 -72 50 -11 -68 -32 35 -73 70 0
-1 -29 -64 9 -68 17 -55 75 67 0
-1 -29 64 6 33 -22 38 63 42 0
1 -26 10 22 43 33 -29 0
1 -26 10 -22 -67 80 -34 -70 -14 66 -60 7 -5 46 0
1 -26 -10 -30 -9 57 54 0
-1 -29 64 6 -33 60 -61 -47 -30 -58 50 -73 -81 -52 0
-1 -29 64 -6 -62 9 57 -32 50 2 -3 0
1 -26 -10 30 13 60 64 -20 32 69 0
1 -26 10 -22 -67 80 -34 70 45 -75 57 0
-1 -29 64 6 33 -22 -38 25 -32 -14 81 -77 47 0
-1 -29 -64 9 68 44 61 -30 78 -67 0
1 26 -76 77 7 -31 -79 -78 -6 0
1 26 76 -39 -72 50 11 19 42 -48 43 36 0
1 26 -76 77 7 31 -63 15 62 0
1 -26 10 -22 67 68 14 52 -66 -76 45 81 0
-1 29 7 -3 38 8 -64 -75 -76 58 80 0
-1 29 7 -3 -38 -36 28 -22 4 0
1 -26 10 -22 67 68 -14 -35 -52 54 18 44 0
1 -26 10 22 43 -33 -37 -73 -50 24 -40 0
-1 -29 -64 9 68 -44 -56 45 22 -47 -81 -60 61 0
1 -26 10 -22 67 68 14 52 -66 -76 45 -81 0
-1 29 7 -3 38 8 -64 75 -5 -74 0
-1 29 7 3 -38 47 43 -40 45 0
1 26 76 39 -6 -19 -29 -63 15 -9 40 -80 0
1 26 76 39 -6 19 3 -42 28 0
1 -26 10 -22 -67 80 34 -18 -39 59 6 0
1 26 76 39 -6 19 3 42 47 -11 0
1 26 76 -39 72 -30 -66 -44 68 -34 -25 12 0
1 26 76 -39 72 30 -45 33 0
-1 -29 64 -6 62 -56 68 -52 33 0
1 -26 10 22 -43 49 -34 15 -75 -27 19 0
1 26 76 39 -6 -19 29 -48 44 -32 -54 28 -62 0
-1 -29 64 -6 -62 9 57 -32 -50 0
-1 -29 64 -6 -62 -9 59 72 -68 0
-1 -29 64 -6 -62 -9 -59 -46 77 47 0
1 26 -76 77 7 -31 79 22 -63 -45 0
-1 29 7 -3 38 8 -64 -75 76 45 0
1 26 76 -39 -72 50 11 -19 16 -17 -47 0
-1 -29 64 -6 -62 -9 -59 46 22 -75 -28 0
1 26 76 -39 72 -30 -66 -44 68 34 29 0
-1 -29 -64 -9 -41 -74 -36 59 0
1 26 76 -39 -72 50 -11 -68 32 -45 27 0
-1 29 7 -3 38 8 -64 75 -5 74 0
1 -26 10 -22 67 -68 -42 60 3 -44 0
1 26 76 39 -6 19 -3 25 42 -47 0
-1 -29 64 -6 -62 -9 59 72 68 46 40 58 0
1 -26 -10 30 13 60 -64 8 -7 66 12 0
-1 -29 -64 9 68 -44 -56 -45 2 18 76 0
1 -26 10 22 -43 -49 -15 28 37 -6 3 -69 -21 0
1 -26 10 22 43 33 29 -17 0
-1 -29 -64 9 68 -44 -56 45 22 47 58 -40 -31 11 0
1 -26 -10 30 13 -60 -29 -41 -78 -63 0
1 26 76 -39 -72 50 11 -19 16 17 0
1 -26 -10 30 13 -60 29 40 -71 -28 62 33 0
1 26 76 39 -6 -19 29 -48 44 32 56 -33 -11 0
-1 -29 64 -6 -62 -9 59 72 68 -46 -19 -47 -20 0
-1 29 -7 58 54 73 17 35 38 41 -78 0
-1 -29 64 6 33 -22 38 -63 -34 47 58 0
-1 -29 -64 9 68 44 61 -30 78 67 0
1 26 76 -39 -72 50 -11 -68 32 45 65 80 -81 31 0
1 -26 -10 30 13 -60 29 40 -71 -28 62 -33 31 0
1 26 -76 77 7 -31 -79 78 -59 5 -65 0
-1 -29 64 -6 -62 9 57 32 -43 39 49 -33 0
1 -26 10 22 43 -33 37 -49 46 23 70 -12 0
1 -26 -10 -30 -9 -57 22 0
1 -26 10 -22 67 68 14 52 -66 76 25 -42 77 0
1 26 76 39 -6 -19 29 -48 -44 72 -66 -45 -27 -5 -3 0
1 26 76 -39 -72 50 -11 68 55 -31 0
1 -26 -10 30 13 -60 -29 -41 78 75 61 57 53 80 0
1 -26 10 22 -43 -49 -15 -28 -27 0
1 -26 10 22 -43 -49 -15 28 37 -6 -3 0
-1 -29 -64 -9 -41 74 24 50 -54 45 -52 0
1 26 76 -39 72 30 45 2 17 -8 -81 0
1 -26 10 -22 67 68 -14 35 41 33 -50 -29 0
1 26 76 39 6 -7 0
1 26 76 -39 -72 50 -11 -68 -32 35 73 -30 0
1 26 76 39 -6 -19 29 48 67 53 -22 74 -44 0
1 26 76 -39 -72 -50 -27 73 -48 65 -64 0
1 26 76 -39 72 -30 -66 -44 68 -34 25 -42 0
1 26 -76 77 -7 -79 9 -18 -33 -64 0
-1 -29 -64 -9 41 -57 14 0
1 26 -76 77 7 -31 -79 78 -59 5 65 0
1 -26 10 -22 -67 80 -34 -70 -14 66 -60 7 5 -58 0
1 -26 10 22 43 -33 37 49 34 -6 -50 0
1 -26 -10 30 -13 -3 -45 -6 74 0
1 -26 -10 30 13 -60 29 -40 -18 52 0
1 -26 10 -22 -67 80 -34 70 45 -75 -57 76 0
1 26 76 39 -6 -19 -29 63 65 -36 0
1 26 76 -39 -72 50 -11 -68 -32 -35 31 79 0
1 26 -76 -77 0
-1 -29 64 6 33 -22 -38 25 32 -45 11 0
1 -26 10 -22 -67 80 -34 70 45 75 0
1 -26 10 22 -43 -49 -15 28 37 -6 3 69 42 0
1 -26 10 -22 -67 80 -34 -70 -14 -66 46 -56 54 0
1 26 76 39 -6 -19 29 -48 44 32 56 33 0
1 -26 -10 30 -13 -3 -45 6 -14 59 33 -43 0
-1 -29 -64 9 68 -44 -56 45 22 47 -58 81 0
-1 29 -7 58 54 -73 62 40 -39 23 -37 61 28 0
1 -26 -10 30 13 60 -64 -8 58 33 78 0
-1 29 7 -3 -38 -36 -28 66 -79 67 64 81 0
1 -26 -10 30 13 -60 29 40 71 -77 42 -19 -9 0
1 26 76 39 -6 -19 29 -48 44 32 56 -33 11 0
1 26 -76 77 7 -31 -79 78 59 -40 0
1 -26 10 -22 67 -68 -42 60 -3 7 0
1 -26 10 -22 -67 80 34 18 73 0
1 26 76 -39 72 30 45 2 -17 77 13 0
1 26 -76 77 7 -31 -79 78 -59 -5 0
1 -26 -10 30 13 -60 29 40 -71 -28 -62 68 0
-1 -29 64 6 33 22 0
-1 29 7 -3 -38 -36 -28 66 -79 67 64 -81 0
-1 29 -7 58 54 -73 62 40 -39 23 37 52 0
1 26 76 -39 -72 50 11 19 -42 -31 0
1 26 -76 77 7 -31 79 22 63 0
1 -26 10 -22 -67 80 -34 -70 -14 -66 46 -56 -54 0
1 26 76 -39 72 -30 66 -64 37 -22 0
1 -26 10 -22 -67 80 -34 -70 -14 66 60 77 0
1 -26 10 22 -43 -49 15 -32 0
1 26 76 -39 -72 -50 -27 -73 -25 -13 -43 36 -5 0
1 -26 -10 30 13 60 64 20 11 -9 -51 80 0
1 -26 10 22 -43 -49 -15 -28 27 14 0
1 26 76 -39 72 -30 66 64 -61 -79 -65 0
1 -26 10 -22 67 68 -14 35 -41 20 0
1 -26 10 22 43 -33 -37 73 -5 0
1 -26 10 22 43 -33 37 -49 46 23 -70 0
1 26 76 39 -6 -19 29 48 67 -53 -44 -73 0
-1 -29 -64 9 -68 -17 -54 19 39 0
-1 -29 64 6 33 -22 -38 25 -32 -14 -81 -11 0
-1 -29 64 6 33 -22 -38 25 32 45 0
1 26 76 39 -6 -19 -29 -63 15 -9 -40 34 0
1 26 76 -39 72 -30 -66 -44 68 -34 -25 -12 0
1 -26 -10 30 13 -60 -29 -41 78 75 -61 0
1 -26 10 -22 -67 -80 -73 57 -27 31 0
-1 -29 64 6 -33 60 -61 47 0
-1 29 7 -3 -38 36 45 47 52 0
-1 29 7 -3 -38 -36 -28 66 -79 67 -64 0
-1 -29 64 -6 -62 9 57 32 -43 39 -49 -66 0
-1 29 7 -3 -38 -36 -28 66 79 -42 0
1 26 76 -39 72 -30 -66 44 69 -63 -54 0
1 26 76 -39 72 -30 -66 44 69 63 -67 0
1 -26 10 -22 67 -68 -42 60 -3 -7 0
1 26 76 -39 -72 50 -11 -68 -32 -35 31 -79 0
1 26 76 -39 -72 50 11 19 42 -48 -43 0
1 -26 10 -22 -67 80 -34 -70 -14 66 -60 7 5 58 0
-1 -29 -64 9 68 -44 56 -78 -59 0
1 26 76 -39 72 -30 66 64 -61 -79 65 0
1 26 76 -39 72 -30 -66 -44 -68 -61 -28 -2 -53 0
1 26 76 -39 72 -30 66 -64 -37 31 16 0
1 26 76 -39 -72 -50 27 -63 22 0
1 -26 10 -22 67 68 -14 -35 52 -12 -42 0
1 -26 -10 30 -13 3 -38 27 0
1 -26 10 -22 67 68 14 52 -66 76 25 -42 -77 0
-1 -29 -64 -9 41 -57 -14 0
1 26 76 39 -6 -19 29 48 67 53 -22 -74 -23 0
1 -26 -10 30 13 60 -64 -8 58 -33 20 0
1 -26 10 22 -43 49 34 3 -16 69 -45 0
1 26 76 39 -6 -19 29 -48 44 -32 -54 28 62 0
1 -26 10 -22 67 -68 -42 60 3 44 0
1 -26 10 22 -43 49 -34 15 -75 -27 -19 0
-1 -29 -64 9 68 44 -61 -36 0
-1 -29 64 6 33 -22 -38 25 -32 -14 -81 11 0
1 26 76 39 -6 -19 29 -48 -44 -72 0
1 26 76 39 -6 -19 -29 -63 15 9 45 -69 -42 0
1 26 76 -39 72 -30 66 -64 -37 31 -16 0
-1 -29 64 -6 -62 9 -57 73 0
-1 -29 64 -6 -62 9 57 32 43 69 -4 0
1 26 76 -39 -72 -50 -27 -73 -25 13 10 0
1 26 76 39 -6 -19 -29 -63 -15 25 0
-1 -29 -64 -9 -41 74 -24 0
1 26 76 -39 72 -30 -66 -44 68 34 -29 63 0
1 26 76 -39 -72 50 11 -19 -16 -34 -61 0
-1 29 -7 58 54 -73 62 -40 0
1 -26 -10 30 13 -60 29 40 71 -77 42 19 -51 0
-1 -29 -64 9 68 -44 -56 45 22 -47 81 -13 -38 52 0
1 -26 -10 30 13 60 -64 -8 -58 0
1 26 76 39 -6 19 -3 -25 -9 0
1 -26 -10 30 13 60 -64 8 7 24 18 0
-1 -29 64 6 33 -22 38 -63 -34 47 -58 57 0
1 26 76 -39 72 -30 -66 44 69 63 67 0
1 26 76 39 -6 19 -3 -25 9 0
-1 -29 64 6 33 -22 38 63 -42 0
1 26 76 39 -6 -19 -29 -63 15 9 -45 0
-1 29 7 -3 38 8 64 10 -15 0
1 26 76 -39 72 -30 -66 -44 68 34 -29 -63 0
-1 29 -7 58 54 -73 62 40 -39 23 37 -52 -14 0
1 -26 10 -22 -67 80 -34 -70 -14 66 60 -77 0
1 -26 -10 30 13 -60 29 40 71 -77 42 -19 9 -4 0
-1 -29 64 6 -33 60 -61 -47 30 56 -65 0
1 26 76 -39 -72 50 11 19 42 48 55 0
-1 29 7 -3 38 -8 15 -65 23 64 0
1 26 -76 77 7 -31 79 -22 6 0
1 -26 10 22 43 -33 37 49 34 6 12 0
1 26 76 39 -6 -19 29 -48 -44 72 -66 -45 -27 5 0
-1 29 7 -3 -38 -36 -28 66 79 42 0
1 -26 10 -22 -67 80 -34 -70 -14 -66 46 56 -35 0
1 -26 10 22 -43 49 -34 15 75 55 60 0
1 -26 10 -22 -67 80 -34 -70 -14 66 -60 -7 69 0
1 -26 -10 30 13 60 -64 8 -7 -66 62 -78 6 0
1 -26 10 22 43 -33 -37 -73 50 6 58 -53 78 0
1 -26 10 -22 -67 80 -34 -70 -14 -66 46 56 35 5 -11 0
-1 -29 64 6 33 -22 -38 25 -32 14 -35 -51 31 30 -76 0
1 26 76 -39 72 -30 66 64 61 0
-1 -29 64 6 -33 60 -61 -47 30 56 65 0
1 -26 10 22 43 -33 -37 -73 50 6 -58 36 60 0
1 -26 10 -22 67 68 14 52 66 -35 0
-1 -29 64 -6 -62 -9 -59 -46 77 -47 66 0
-1 -29 64 6 33 -22 38 -63 -34 -47 0
1 -26 -10 30 -13 3 -38 -27 -4 0
-1 -29 64 6 -33 60 -61 -47 30 -56 0
-1 29 -7 -58 -66 -63 -30 0
-1 -29 64 -6 62 -56 68 -52 -33 0
1 26 76 39 -6 -19 29 -48 -44 72 -66 -45 27 17 0
1 -26 10 -22 67 68 -14 -35 52 -12 42 0
-1 -29 -64 9 68 -44 -56 45 -22 36 -27 0
1 -26 10 22 43 -33 37 49 -34 68 -40 0
1 26 -76 77 7 31 -63 -15 0
1 -26 10 22 -43 -49 -15 28 37 -6 3 -69 21 0
-1 29 7 -3 38 8 64 10 15 -23 0
1 -26 -10 30 13 -60 -29 -41 78 -75 -69 -67 71 0
-1 29 -7 58 -54 15 13 -65 0
1 26 -76 77 -7 79 0
1 -26 10 22 43 -33 -37 -73 50 6 -58 -36 8 78 0
1 -26 -10 30 -13 -3 -45 -6 -74 7 8 0
1 -26 10 22 -43 49 34 -3 69 -59 0
1 26 76 39 -6 -19 29 -48 44 -32 -54 -28 7 70 0
-1 -29 64 -6 -62 9 57 32 43 69 4 0
1 26 76 -39 -72 50 11 -19 -16 34 73 0
1 26 76 -39 72 -30 -66 44 69 -63 54 46 0
1 26 -76 77 -7 -79 9 -18 33 0
-1 -29 64 6 -33 60 -61 -47 -30 -58 -50 0
1 26 76 39 -6 -19 29 48 -67 43 -55 21 0
-1 29 -7 58 54 -73 62 40 39 -45 0
1 26 76 -39 -72 50 -11 -68 32 45 65 -80 -13 0
-1 29 -7 58 -54 15 -13 -2 0
1 -26 -10 30 13 60 64 20 11 -9 51 0
1 26 76 -39 -72 50 -11 -68 -32 35 -73 -70 75 0
-1 -29 -64 9 68 -44 -56 45 22 47 58 40 -52 0
1 -26 10 22 43 -33 -37 -73 50 6 58 -53 -78 -9 0
-1 29 -7 58 -54 15 13 65 0
1 26 76 -39 -72 50 -11 68 -55 5 0
-1 29 -7 58 54 -73 62 40 -39 23 37 -52 14 16 68 0
-1 -29 64 6 -33 -60 0
1 26 76 -39 -72 50 -11 -68 -32 35 73 30 0
1 -26 10 -22 67 68 -14 -35 -52 54 -18 0
1 26 76 39 -6 -19 29 -48 -44 72 -66 -45 27 -17 -20 0
1 -26 10 22 43 -33 -37 -73 50 6 58 -53 -78 9 0
1 -26 10 22 -43 49 -34 15 -75 27 -72 0
1 26 76 -39 -72 -50 -27 -73 25 14 0
1 -26 -10 30 13 -60 -29 -41 78 -75 69 -56 0
1 26 76 -39 72 -30 -66 -44 -68 -61 -28 -2 53 0
1 -26 10 22 -43 -49 -15 28 -37 -6 0
1 -26 -10 30 13 60 -64 8 -7 -66 62 78 0
-1 -29 -64 9 -68 17 -55 -75 0
-1 29 7 -3 -38 -36 28 22 8 0
-1 -29 64 6 33 -22 -38 25 -32 -14 81 -77 -47 0
1 26 76 39 -6 -19 -29 63 -65 0
1 -26 10 22 43 -33 37 -49 46 -23 0
-1 -29 -64 9 68 -44 -56 45 22 47 58 -40 31 0
-1 29 7 -3 38 -8 15 65 80 0
1 -26 -10 30 -13 -3 45 -14 70 0
-1 -29 64 -6 -62 -9 -59 46 -22 66 8 0
-1 -29 64 6 33 -22 -38 25 -32 14 -35 -51 31 30 76 0
1 -26 -10 30 13 -60 -29 -41 78 -75 69 56 0
1 -26 -10 30 13 -60 29 -40 18 52 0
1 26 76 -39 -72 -50 -27 -73 -25 -13 -43 36 5 4 0
1 -26 10 22 -43 -49 -15 28 37 -6 3 69 -42 0
-1 29 -7 58 -54 15 -13 2 0
-1 29 -7 58 54 73 17 -35 48 0
1 26 76 39 -6 -19 29 -48 44 -32 -54 -28 7 -70 0
-1 -29 64 -6 62 -56 68 52 0
-1 -29 64 6 33 -22 -38 25 -32 14 -35 -51 31 -30 0
1 26 76 39 -6 -19 29 48 -67 43 55 0
1 -26 -10 30 13 -60 29 40 -71 -28 62 -33 -31 0
-1 -29 64 6 33 -22 -38 25 -32 -14 81 77 -3 0
-1 -29 -64 9 68 -44 -56 45 22 47 58 40 52 -78 0
1 26 76 -39 -72 50 -11 -68 -32 35 -73 -70 -75 4 0
1 -26 10 -22 -67 80 -34 70 -45 -76 -9 0
1 -26 -10 30 13 60 64 -20 -32 49 45 0
1 -26 10 -22 -67 80 34 -18 -39 -59 -12 15 0
1 -26 10 22 43 -33 37 49 34 6 -12 0
1 -26 10 22 43 -33 -37 -73 50 -6 0
1 -26 10 -22 -67 80 34 -18 39 76 -77 72 -69 0
-1 -29 -64 9 68 44 -61 36 -80 0
-1 29 7 3 -38 47 43 -40 -45 0
1 26 76 -39 -72 50 -11 -68 32 45 65 80 81 -71 63 53 0
1 26 76 -39 72 30 -45 -33 75 0
-1 -29 64 6 33 -22 -38 25 -32 14 -35 -51 -31 -56 54 0
1 -26 -10 30 -13 -3 -45 -6 -74 -7 -33 21 0
-1 29 7 -3 38 8 64 -10 -31 0
1 26 76 -39 -72 50 -11 68 -55 -5 0
-1 -29 64 -6 -62 -9 -59 46 22 75 0
-1 -29 -64 9 68 -44 -56 45 22 -47 -81 60 16 69 0
1 26 76 39 -6 -19 -29 -63 15 -9 -40 -34 -67 0
1 26 76 39 -6 -19 29 -48 44 -32 54 0
1 -26 -10 30 13 -60 29 40 71 77 63 0
-1 -29 64 6 33 -22 38 -63 34 69 0
-1 -29 64 -6 -62 -9 59 72 68 46 -40 0
1 -26 10 22 -43 -49 15 32 0
1 26 76 -39 72 30 45 -2 68 29 0
-1 -29 -64 9 68 44 61 -30 -78 0
-1 29 7 -3 38 8 -64 -75 76 -45 0
1 26 76 -39 -72 -50 27 63 0
1 26 76 -39 72 30 45 -2 -68 -18 -17 0
1 -26 -10 30 13 -60 -29 -41 78 -75 -69 67 0
-1 -29 -64 9 68 -44 -56 -45 -2 -17 0
1 -26 -10 30 -13 -3 -45 6 -14 -59 20 0
-1 -29 -64 9 68 -44 -56 45 22 -47 -81 -60 -61 0
-1 -29 64 6 33 -22 -38 25 -32 14 -35 -51 -31 -56 -54 0
1 -26 -10 30 13 -60 29 40 71 77 -63 -25 79 0
1 -26 10 -22 -67 -80 73 0
1 -26 10 -22 -67 -80 -73 -57 0
1 26 76 39 -6 -19 29 48 -67 43 -55 -21 0
-1 29 7 -3 38 8 -64 -75 -76 -58 20 0
-1 -29 64 6 33 -22 -38 25 -32 14 35 -20 68 0
1 -26 10 -22 -67 80 34 -18 39 -76 0
1 -26 10 -22 -67 80 34 18 -73 -74 0
1 -26 -10 30 13 -60 29 40 71 -77 42 19 51 7 0
-1 -29 -64 -9 -41 -74 -36 -59 28 0
1 -26 10 22 -43 49 -34 -15 -14 28 0
1 -26 10 22 -43 49 -34 15 75 55 -60 71 0
1 -26 10 22 43 -33 -37 73 5 64 0
1 -26 -10 30 13 60 64 20 -11 38 0
1 26 76 39 -6 -19 29 48 67 53 22 0
1 -26 10 -22 -67 -80 -73 57 27 -51 0
1 -26 10 -22 -67 -80 -73 57 -27 -31 0
1 26 76 -39 72 30 45 2 -17 -77 57 -73 0
1 -26 -10 -30 9 16 0
1 26 -76 77 7 -31 -79 78 59 40 -20 0
1 26 76 39 -6 -19 29 48 67 -53 -44 73 -32 0
1 26 76 -39 -72 -50 -27 73 48 -67 0
1 -26 10 -22 -67 80 34 -18 39 76 -77 -72 29 0
-1 -29 64 -6 -62 -9 59 72 68 -46 -19 -47 20 0
1 26 76 39 -6 -19 -29 63 65 36 0
1 26 76 39 -6 -19 29 48 67 -53 44 79 -78 0
1 -26 10 -22 -67 80 -34 70 -45 76 -56 0
1 -26 10 -22 -67 80 34 18 -73 74 0
-1 29 -7 58 54 73 17 -35 -48 -62 0
1 -26 -10 30 13 -60 29 40 71 77 -63 -25 -79 0
1 -26 10 -22 -67 80 34 -18 -39 -59 12 0
1 -26 10 22 -43 49 -34 15 75 -55 0
1 -26 -10 30 13 60 64 20 11 -9 -51 -80 -4 0
-1 29 -7 -58 -66 63 0
1 -26 -10 30 13 -60 29 40 71 -77 42 19 51 -7 0
1 26 -76 77 7 -31 -79 -78 6 0
1 26 76 -39 72 -30 -66 44 -69 70 52 0
1 -26 10 22 43 -33 -37 -73 50 6 -58 -36 -8 64 0
1 26 76 39 6 7 -34 43 0
1 -26 10 -22 -67 80 -34 -70 14 21 0
1 -26 10 -22 67 68 14 -52 70 0
1 -26 10 -22 67 68 -14 35 41 33 -50 29 0
1 -26 10 -22 -67 80 -34 70 -45 76 56 0
1 -26 -10 30 -13 -3 -45 6 14 56 63 0
1 26 76 -39 72 -30 -66 -44 -68 -61 28 3 -27 0
1 26 76 39 -6 -19 29 48 -67 -43 0
1 -26 10 -22 67 68 14 52 -66 -76 -45 0
1 -26 -10 30 13 -60 29 40 -71 28 41 -20 0
-1 29 -7 -58 -66 -63 30 0
-1 -29 64 -6 -62 9 57 32 -43 39 -49 66 -71 0
-1 -29 64 6 33 -22 -38 25 -32 14 -35 -51 -31 56 -39 0
1 -26 10 -22 -67 80 34 -18 39 76 -77 72 69 0
1 -26 -10 30 13 60 -64 8 7 24 -18 -22 0
1 -26 -10 30 -13 -3 -45 -6 -74 7 -8 0
-1 -29 64 -6 -62 -9 59 72 68 -46 -19 47 0
1 -26 -10 30 13 -60 29 -40 -18 -52 0
1 -26 10 22 -43 49 34 -3 -69 -58 0
1 -26 -10 30 -13 -3 -45 -6 -74 -7 -33 -21 0
1 26 76 -39 72 30 45 2 17 -8 81 -65 0
