c NeuroCodeBench 2.0 CNF formula with verdict Unsat
p cnf 29 242
-1 15 9 10 7 22 0
1 -19 -9 -3 29 -17 -15 -16 -27 8 -11 4 10 0
1 -19 -9 -3 -29 6 -21 25 14 0
-1 15 9 10 7 -22 26 0
-1 15 -9 -6 -14 12 -28 -17 25 18 0
1 -19 9 -20 -23 -15 10 6 0
-1 15 -9 -6 -14 12 -28 17 0
-1 -15 28 -22 -8 12 3 -16 0
1 -19 -9 -3 29 -17 15 -10 11 0
1 -19 -9 -3 29 -17 -15 16 11 0
-1 15 -9 -6 14 -20 -8 2 7 -16 13 0
1 -19 9 20 15 4 0
-1 15 -9 -6 14 20 -29 -26 23 0
1 -19 -9 -3 29 -17 -15 16 -11 -27 12 -13 0
-1 15 -9 -6 -14 12 28 -18 2 0
1 -19 -9 -3 -29 6 -21 -25 11 17 18 -2 0
-1 15 -9 -6 14 20 -29 -26 -23 0
-1 15 -9 -6 14 -20 8 -4 -25 26 -22 12 0
1 -19 -9 -3 29 -17 -15 16 -11 -27 -12 8 -22 0
1 -19 -9 -3 -29 6 -21 25 -14 17 0
1 19 9 -21 -24 -7 3 12 0
1 -19 9 20 -15 2 -4 3 -21 13 -25 0
1 19 -9 -3 29 13 -28 0
1 -19 9 20 -15 2 -4 3 -21 -13 0
-1 15 9 10 -7 25 0
1 -19 -9 3 -25 23 11 -20 0
1 -19 9 20 15 -4 -13 5 0
-1 15 9 10 7 -22 -26 21 0
1 -19 9 20 -15 -2 18 -24 -27 6 16 0
-1 -15 28 -22 8 -14 19 0
-1 15 -9 -6 14 -20 -8 2 -7 0
-1 15 9 -10 2 -26 -6 -20 -8 27 11 0
1 -19 -9 -3 29 17 -15 21 -2 25 0
1 -19 -9 3 -25 -23 14 -26 4 0
1 19 -9 3 -15 13 -14 -20 0
-1 15 9 -10 -2 4 -23 20 -29 8 0
1 -19 9 -20 -23 -15 -10 -13 -29 0
1 -19 9 -20 23 15 -4 5 -24 0
1 -19 9 20 -15 2 -4 3 -21 13 25 -24 0
-1 -15 28 -22 -8 -12 -2 -5 0
-1 15 -9 -6 14 -20 8 4 0
1 19 -9 3 -15 13 14 21 4 0
1 19 9 -21 -24 -7 -3 4 16 0
1 -19 -9 3 -25 23 -11 -2 0
-1 -15 28 22 -23 10 14 -16 11 0
-1 15 -9 6 18 -23 11 0
1 -19 -9 -3 -29 6 21 16 27 0
-1 -15 28 -22 -8 12 3 16 0
1 -19 -9 -3 -29 6 -21 -25 -11 -13 0
1 -19 -9 3 -25 -23 14 26 4 0
1 -19 9 20 -15 2 4 25 -26 24 0
-1 15 -9 -6 14 -20 -8 -2 0
-1 15 9 -10 -2 4 -23 20 -29 -8 0
-1 15 -9 -6 14 -20 8 -4 25 28 -24 -13 0
1 -19 9 20 -15 2 -4 3 -21 13 25 24 0
1 -19 -9 -3 29 -17 -15 16 -11 -27 -12 8 22 -26 0
1 -19 9 -20 -23 15 -29 0
-1 -15 28 22 -23 10 -14 0
1 19 9 -21 -24 -7 -3 -4 -14 13 -26 16 0
1 -19 9 -20 -23 -15 -10 13 0
1 -19 9 20 -15 -2 18 -24 -27 6 -16 0
1 19 9 -21 -24 -7 -3 -4 14 0
-1 -15 -28 6 -12 21 -8 -26 0
-1 -15 28 22 -23 10 14 16 -19 0
1 -19 -9 -3 29 -17 15 10 5 0
1 -19 -9 -3 29 -17 -15 -16 -27 -8 0
1 -19 -9 -3 29 -17 -15 -16 -27 8 11 -2 -24 -18 0
-1 15 9 -10 -2 -4 6 0
-1 15 9 -10 -2 -4 -6 7 0
-1 -15 28 22 23 -14 16 0
-1 15 -9 -6 -14 12 -28 -17 -25 -13 0
1 19 9 -21 -24 -7 -3 4 -16 0
-1 15 -9 -6 14 -20 8 -4 25 28 24 0
-1 -15 -28 -6 29 -24 -3 0
-1 -15 28 -22 8 14 -19 0
1 -19 -9 -3 29 -17 -15 16 -11 -27 -12 -8 -22 -26 0
1 -19 9 -20 -23 15 29 -10 0
-1 15 -9 6 18 23 -16 -7 -3 0
-1 -15 28 -22 -8 12 -3 -20 0
1 -19 -9 -3 29 17 15 8 18 0
1 -19 9 20 -15 2 4 25 26 -28 7 0
1 -19 -9 -3 29 -17 -15 -16 -27 8 11 2 0
1 -19 -9 -3 29 -17 -15 16 -11 -27 -12 -8 22 0
1 -19 9 20 15 -4 13 0
-1 15 -9 6 18 23 16 19 0
-1 15 9 -10 2 -26 -6 -20 8 12 0
1 19 -9 3 15 7 20 0
1 -19 9 20 -15 -2 18 -24 27 0
1 -19 -9 -3 29 -17 -15 -16 -27 8 -11 -4 5 0
1 19 9 -21 -24 -7 -3 -4 -14 13 -26 -16 0
1 19 -9 3 15 -7 -13 -17 0
1 -19 9 20 -15 2 4 -25 -24 0
-1 15 -9 -6 14 -20 8 -4 25 -28 0
1 -19 9 20 -15 2 4 25 -26 -24 0
1 -19 9 20 -15 2 -4 3 21 29 0
-1 -15 28 -22 8 14 19 -12 0
1 19 -9 -3 29 -13 -11 0
-1 -15 28 22 23 -14 -16 0
1 -19 -9 3 25 -17 -11 0
1 -19 9 -20 -23 15 29 10 0
1 19 9 -21 24 18 15 0
-1 15 9 -10 -2 -4 -6 -7 0
1 -19 -9 -3 29 -17 -15 -16 27 21 -25 0
1 -19 -9 -3 -29 -6 -27 22 0
-1 15 9 -10 -2 4 -23 20 29 0
1 19 9 -21 24 -18 4 0
-1 15 -9 -6 14 -20 -8 2 7 -16 -13 0
-1 15 9 -10 -2 4 -23 -20 29 0
1 -19 9 20 -15 2 4 -25 24 22 0
1 -19 9 20 -15 2 -4 -3 29 0
1 -19 -9 -3 29 -17 -15 16 -11 -27 -12 8 22 26 0
1 -19 9 -20 23 -15 -5 0
1 -19 9 20 -15 2 4 25 26 -28 -7 0
1 -19 -9 -3 29 17 -15 21 2 0
1 -19 -9 -3 29 -17 -15 -16 27 -21 0
1 19 -9 -3 -29 2 -16 0
-1 -15 -28 6 -12 21 -8 26 0
1 -19 -9 -3 -29 6 -21 -25 11 -17 26 14 -24 0
1 19 -9 -3 29 13 28 0
1 19 9 -21 24 -18 -4 -25 0
1 -19 -9 -3 -29 6 -21 -25 11 17 18 2 0
-1 15 -9 -6 -14 -12 0
-1 15 -9 -6 14 20 29 4 -10 0
-1 15 -9 -6 14 20 -29 26 0
1 -19 -9 3 -25 -23 14 -26 -4 0
-1 -15 -28 -6 29 24 0
1 -19 -9 -3 -29 6 -21 -25 11 17 -18 0
1 -19 -9 -3 29 -17 -15 16 -11 -27 -12 -8 -22 26 0
1 -19 -9 -3 29 -17 -15 -16 -27 8 11 -2 24 0
1 -19 -9 3 -25 23 -11 2 -28 0
-1 15 -9 -6 14 -20 8 -4 -25 26 -22 -12 0
1 19 9 -21 -24 -7 3 -12 0
1 -19 9 20 -15 2 4 -25 24 -22 0
-1 15 9 10 7 -22 -26 -21 0
1 -19 -9 -3 29 -17 -15 -16 -27 8 11 -2 -24 18 0
-1 15 -9 6 18 23 -16 -7 3 0
1 -19 -9 -3 -29 6 -21 -25 11 -17 26 14 24 0
1 -19 -9 -3 29 -17 -15 16 -11 27 0
1 -19 -9 3 -25 -23 -14 0
1 -19 -9 3 -25 23 11 20 0
1 -19 9 -20 23 15 4 0
1 -19 -9 -3 29 -17 -15 -16 27 21 25 0
1 19 -9 -3 29 -13 11 0
1 -19 -9 -3 29 -17 15 10 -5 0
-1 -15 -28 -6 -29 -18 0
1 19 -9 3 15 -7 -13 17 0
1 19 -9 3 -15 13 -14 20 0
-1 -15 -28 6 -12 21 8 0
1 19 9 21 -29 0
1 19 -9 3 -15 -13 -17 0
1 -19 9 -20 -23 -15 -10 -13 29 0
1 19 -9 -3 -29 2 16 0
1 -19 -9 -3 29 17 -15 -21 -11 5 0
1 -19 -9 -3 -29 6 -21 -25 11 -17 26 -14 0
1 19 9 -21 24 18 -15 0
-1 -15 28 22 -23 10 14 16 19 0
-1 15 -9 -6 14 20 29 -4 0
1 19 9 -21 24 -18 -4 25 0
1 -19 -9 -3 29 -17 -15 -16 -27 8 -11 4 -10 0
-1 15 -9 -6 14 -20 8 -4 -25 26 22 0
-1 15 9 -10 2 -26 -6 -20 -8 27 -11 0
1 -19 -9 -3 29 -17 -15 -16 -27 8 -11 -4 -5 0
1 -19 -9 -3 29 -17 -15 16 -11 -27 12 13 0
-1 -15 28 -22 -8 -12 2 17 0
-1 15 -9 -6 -14 12 -28 -17 -25 13 -2 0
1 -19 9 -20 -23 -15 10 -6 24 0
-1 -15 28 22 -23 -10 0
1 -19 9 20 15 -4 -13 -5 0
1 -19 9 20 -15 2 4 25 26 28 0
-1 15 9 -10 -2 4 23 0
1 -19 9 -20 23 15 -4 -5 0
-1 15 9 -10 2 26 -17 0
-1 -15 28 22 -23 10 14 -16 -11 0
-1 15 9 -10 2 -26 6 8 0
1 -19 9 20 -15 -2 18 24 -23 0
-1 -15 28 -22 -8 -12 2 -17 0
-1 -15 28 -22 8 -14 -19 0
-1 15 -9 6 18 -23 -11 0
1 -19 -9 -3 29 17 -15 -21 11 0
-1 15 -9 6 18 23 -16 7 0
1 -19 -9 -3 29 17 15 -8 0
1 19 -9 3 15 -7 13 0
1 19 9 21 29 16 0
1 19 9 -21 -24 -7 -3 -4 -14 13 26 0
1 -19 -9 -3 -29 -6 -27 -22 0
-1 15 9 -10 2 -26 6 -8 0
-1 15 -9 6 -18 0
-1 -15 28 -22 -8 12 -3 20 0
1 -19 9 20 -15 -2 -18 0
-1 15 -9 -6 14 -20 -8 2 7 16 0
1 -19 -9 -3 -29 6 -21 -25 11 -17 -26 0
1 -19 -9 -3 -29 6 -21 -25 -11 13 0
-1 -15 -28 -6 29 -24 3 0
-1 15 9 -10 2 -26 -6 -20 8 -12 0
1 19 -9 3 -15 13 14 -21 0
1 19 -9 3 -15 13 14 21 -4 0
-1 15 -9 -6 14 -20 8 -4 25 28 -24 13 0
-1 -15 28 -22 -8 -12 -2 5 0
-1 -15 -28 6 12 0
1 19 -9 3 -15 -13 17 0
-1 15 9 -10 2 -26 -6 -20 -8 -27 0
1 -19 9 20 -15 -2 18 24 23 -25 0
-1 15 -9 -6 -14 12 -28 -17 -25 13 2 0
1 -19 -9 3 25 -17 11 0
-1 15 9 -10 2 -26 -6 20 0
1 -19 -9 3 -25 -23 14 26 -4 0
1 -19 -9 -3 -29 6 21 16 -27 0
1 -19 -9 -3 29 -17 15 -10 -11 0
1 -19 -9 -3 -29 6 -21 25 -14 -17 0
-1 -15 -28 6 -12 -21 8 0
1 -19 9 -20 23 -15 5 0
1 -19 -9 3 25 17 0
-1 15 -9 -6 14 20 29 4 10 0
-1 15 -9 -6 -14 12 28 18 0
1 -19 9 -20 -23 -15 10 -6 -24 0
-1 -15 -28 -6 -29 18 0
1 -19 -9 -3 -29 6 21 -16 0
1 19 -9 3 15 7 -20 0
1 -19 9 20 -15 -2 18 -24 -27 -6 0
-1 15 -9 -6 -14 12 28 -18 -2 0
1 19 9 21 29 -16 0
1 -19 9 20 -15 2 -4 3 21 -29 0
-1 15 -9 -6 14 -20 8 -4 -25 -26 0
1 19 9 -21 -24 -7 -3 -4 -14 -13 0
1 19 9 -21 -24 7 0
-1 -15 28 -22 8 14 19 12 0
-1 15 9 -10 2 26 17 0
1 -19 -9 -3 -29 -6 27 0
-1 -15 -28 6 -12 -21 -8 0
1 -19 9 -20 23 15 -4 5 24 0
1 -19 -9 -3 29 17 -15 -21 -11 -5 0
1 -19 -9 3 -25 23 -11 2 28 0
-1 15 9 10 -7 -25 0
-1 15 -9 6 18 23 16 -19 0
-1 15 9 -10 -2 4 -23 -20 -29 0
1 -19 9 20 -15 2 -4 -3 -29 0
1 19 -9 -3 -29 -2 0
1 -19 -9 -3 29 17 -15 21 -2 -25 0
-1 -15 28 22 23 14 0
-1 15 -9 -6 -14 12 -28 -17 25 -18 0
1 -19 9 20 -15 -2 18 24 23 25 0
1 -19 -9 -3 29 17 15 8 -18 0
