c NeuroCodeBench 2.0 CNF formula with verdict Unsat
p cnf 12 86
1 3 -4 11 10 -7 0
-1 8 5 -11 -12 -4 -7 6 0
1 -3 -10 4 5 2 -11 0
-1 8 5 -11 12 7 -3 0
-1 -8 12 10 -5 -7 -2 11 -4 6 0
1 3 -4 11 -10 12 2 7 0
1 3 -4 -11 7 2 10 -5 0
-1 8 5 -11 -12 -4 7 -9 -6 0
-1 -8 -12 7 -11 6 -10 -3 0
-1 8 5 11 -9 -6 -10 0
-1 -8 12 -10 -3 -11 0
-1 8 5 11 9 2 0
1 3 -4 -11 7 -2 9 0
-1 -8 -12 -7 11 0
1 -3 10 9 7 0
-1 -8 12 10 -5 -7 -2 -11 0
1 -3 -10 4 -5 7 11 8 0
-1 8 5 -11 -12 -4 7 9 0
-1 -8 12 10 5 0
1 -3 10 9 -7 -6 0
1 -3 10 -9 4 0
-1 8 5 11 -9 6 12 0
1 3 -4 11 -10 12 2 -7 0
-1 8 5 -11 12 -7 2 0
1 -3 -10 4 5 2 11 0
1 -3 -10 4 -5 7 11 -8 0
1 3 -4 -11 7 2 -10 0
1 -3 -10 4 -5 -7 -12 6 0
-1 8 5 -11 -12 -4 -7 -6 0
1 -3 -10 -4 11 -12 0
-1 -8 12 -10 3 -9 0
-1 -8 12 10 -5 -7 -2 11 -4 -6 0
1 3 4 7 8 -2 0
-1 8 5 -11 12 7 3 0
1 -3 -10 4 5 -2 9 0
-1 -8 -12 7 11 -9 0
1 -3 -10 4 -5 -7 12 11 0
-1 -8 -12 7 -11 6 10 0
1 3 -4 -11 -7 -8 2 -12 5 0
-1 -8 -12 7 11 9 0
-1 -8 -12 7 -11 6 -10 3 0
1 3 4 -7 -11 -8 0
-1 -8 -12 7 -11 -6 -10 3 0
1 3 -4 -11 -7 8 0
1 3 -4 11 10 7 -9 -2 0
-1 -8 12 -10 3 9 -4 0
1 -3 -10 4 5 -2 -9 8 0
1 3 4 7 8 2 0
1 -3 -10 4 -5 -7 -12 -6 0
-1 -8 -12 -7 -11 -5 0
-1 8 5 11 -9 -6 10 0
1 3 -4 11 10 7 9 0
1 3 -4 -11 7 2 10 5 0
1 -3 -10 4 5 -2 -9 -8 0
1 3 4 -7 -11 8 0
-1 -8 12 -10 -3 11 0
-1 8 -5 7 0
1 3 -4 -11 -7 -8 2 12 0
1 3 -4 11 -10 12 -2 0
1 3 4 7 -8 0
-1 8 5 11 -9 6 -12 0
-1 -8 -12 -7 -11 5 -2 0
1 3 -4 -11 -7 -8 2 -12 -5 0
1 -3 10 9 -7 6 0
-1 -8 -12 7 -11 -6 10 0
1 3 4 -7 11 0
1 3 -4 -11 -7 -8 -2 0
-1 8 -5 -7 0
-1 8 5 -11 -12 4 0
1 -3 -10 -4 -11 0
-1 8 5 -11 12 -7 -2 0
1 -3 -10 -4 11 12 0
-1 -8 12 -10 3 9 4 0
1 -3 -10 4 -5 7 -11 0
-1 -8 -12 -7 -11 5 2 0
1 3 -4 -11 7 -2 -9 0
1 3 -4 11 10 7 -9 2 0
-1 -8 12 10 -5 -7 -2 11 4 0
1 -3 10 -9 -4 0
-1 -8 -12 7 -11 -6 -10 -3 0
-1 8 5 -11 -12 -4 7 -9 6 0
1 -3 -10 4 -5 -7 12 -11 0
1 3 -4 11 -10 -12 0
-1 -8 12 10 -5 -7 2 0
-1 8 5 11 9 -2 0
-1 -8 12 10 -5 7 0
