c NeuroCodeBench 2.0 CNF formula with verdict Unsat
p cnf 65 466
1 -22 -4 -7 11 61 -40 -49 -53 0
-1 -17 -41 -48 32 62 4 13 -60 -40 56 51 0
-1 17 -64 -59 -41 34 0
1 22 -26 50 2 -34 64 -30 0
1 22 26 52 -45 -38 -25 -3 0
1 -22 4 32 2 -60 31 -55 -17 0
-1 -17 -41 -48 32 62 4 13 60 0
-1 -17 41 5 65 16 -23 -36 58 6 0
1 -22 -4 -7 -11 -3 -27 39 -64 -56 14 58 -60 0
-1 17 64 16 -57 22 -39 0
1 -22 4 32 2 60 -8 -65 37 -16 -61 -24 63 0
1 -22 -4 -7 11 61 40 -16 53 41 20 54 0
1 -22 -4 -7 -11 -3 27 55 -26 -19 0
-1 17 -64 -59 41 -10 -13 -54 50 21 53 0
1 -22 4 -32 41 -3 -40 -33 18 53 -6 0
1 -22 -4 -7 -11 -3 -27 39 64 62 -32 13 0
-1 -17 -41 48 -23 3 -31 53 12 0
-1 17 64 16 57 63 -46 44 34 0
-1 -17 -41 -48 -32 10 -27 -43 -16 62 0
1 22 26 -52 -62 -61 -53 0
-1 17 -64 -59 41 -10 -13 -54 -50 -9 4 -28 0
1 -22 4 32 2 60 -8 -65 37 -16 -61 -24 -63 0
-1 17 64 -16 -56 39 -48 -55 0
-1 17 64 -16 56 24 9 35 -54 0
-1 17 64 -16 -56 39 -48 55 32 -3 0
-1 -17 -41 48 23 -39 -50 0
-1 -17 -41 48 -23 3 31 49 -5 0
-1 -17 -41 -48 -32 -10 24 63 8 0
-1 17 64 -16 56 24 -9 -44 -31 0
-1 17 64 16 57 63 -46 -44 53 -55 51 0
1 -22 4 -32 41 -3 -40 -33 -18 -21 -37 7 0
-1 -17 -41 -48 -32 10 -27 -43 16 5 0
1 -22 -4 -7 11 61 40 16 5 24 -9 0
1 -22 -4 -7 11 -61 38 -26 51 0
1 -22 4 -32 41 -3 -40 -33 18 -53 -24 -38 0
-1 -17 41 5 65 16 -23 36 61 0
1 -22 4 -32 -41 -12 9 -2 0
-1 17 64 -16 56 24 9 35 54 -41 -26 0
1 -22 -4 7 10 -5 47 61 -16 0
-1 -17 -41 48 -23 3 -31 53 -12 40 0
1 22 26 -52 62 58 -14 57 41 30 18 45 0
1 -22 4 -32 -41 12 -15 -37 10 0
1 -22 -4 7 10 5 55 -45 -49 -35 0
1 -22 4 32 2 60 8 -45 -42 0
-1 17 -64 59 -57 -48 0
1 -22 4 -32 -41 -12 9 2 -48 3 -37 0
1 22 26 -52 62 -58 19 2 -64 5 -38 59 0
1 -22 4 -32 41 -3 -40 -33 -18 -21 -37 -7 0
-1 -17 -41 48 -23 3 31 -49 0
1 -22 -4 -7 -11 -3 -27 39 64 62 32 0
-1 17 64 -16 -56 39 48 -2 0
1 22 26 -52 62 58 -14 57 -41 47 -45 0
1 -22 4 32 2 60 8 -45 42 -23 0
1 22 26 -52 -62 -61 53 -54 0
-1 -17 -41 48 -23 -3 -51 5 -12 46 0
-1 -17 -41 48 23 -39 50 -65 0
1 -22 -4 7 -10 21 -57 -64 36 0
1 22 26 -52 62 58 -14 57 41 -30 40 17 19 0
1 -22 -4 -7 -11 -3 -27 39 -64 -56 14 58 60 0
1 -22 -4 -7 -11 3 18 10 52 0
1 22 -26 -50 -23 8 7 48 0
-1 17 -64 -59 41 -10 -13 -54 50 -21 -23 56 0
1 22 26 -52 62 58 -14 57 41 30 -18 -36 0
-1 -17 -41 -48 -32 10 -27 -43 16 -5 0
1 -22 -4 -7 11 61 -40 -49 53 0
1 -22 4 32 2 60 -8 65 -16 -37 3 -63 0
1 -22 4 -32 -41 12 15 27 56 -28 0
-1 -17 -41 48 -23 3 -31 -53 -14 45 0
-1 17 -64 -59 41 -10 -13 -54 50 -21 23 0
-1 17 -64 59 57 63 0
-1 17 64 -16 -56 39 48 2 0
1 -22 -4 -7 11 61 -40 49 48 0
-1 -17 -41 -48 32 62 4 -13 -36 60 0
1 22 26 -52 62 58 14 -38 27 -15 0
1 22 26 52 -45 -38 -25 3 64 48 -35 0
1 -22 -4 -7 -11 3 18 10 -52 -40 0
-1 -17 -41 48 -23 -3 -51 5 12 -11 0
-1 17 64 16 -57 -22 -32 -30 -40 -14 0
1 22 26 -52 62 -58 19 -2 -14 45 0
1 -22 4 -32 41 -3 40 -47 -65 -30 -52 0
1 -22 4 -32 41 -3 40 -47 65 -54 -25 24 -13 0
1 -22 -4 -7 -11 -3 27 55 -26 19 39 0
-1 -17 -41 -48 -32 -10 24 -63 0
1 -22 4 32 2 -60 -31 -5 -52 0
1 -22 -4 -7 -11 3 -18 21 -37 -58 15 9 0
-1 -17 41 5 65 16 -23 -36 58 -6 8 0
1 -22 4 -32 41 3 47 0
1 -22 4 32 2 -60 31 -55 17 8 -62 0
1 22 26 -52 62 58 14 -38 -27 -9 0
1 -22 -4 -7 -11 3 -18 21 37 41 0
1 -22 4 -32 41 -3 40 47 -13 58 0
-1 -17 -41 48 -23 -3 -51 -5 -7 0
1 22 26 -52 62 58 14 -38 -27 9 0
1 22 26 52 -45 38 17 -61 39 0
1 -22 4 -32 -41 12 -15 -37 -10 -29 0
1 22 26 52 -45 -38 25 10 14 0
1 -22 4 -32 41 -3 40 -47 65 54 0
1 -22 -4 -7 -11 -3 -27 39 -64 -56 -14 -50 0
-1 17 -64 -59 41 10 2 63 13 0
-1 -17 41 -5 16 37 36 25 0
-1 17 64 16 -57 -22 32 -65 0
-1 17 64 -16 -56 39 -48 55 -32 -53 0
1 22 26 52 -45 38 -17 48 65 13 0
1 -22 4 -32 -41 -12 9 2 48 0
-1 17 -64 -59 41 -10 -13 -54 50 21 -53 -20 0
1 -22 4 32 2 -60 31 -55 17 -8 -56 0
-1 17 -64 59 57 -63 41 0
1 22 -26 50 -2 -59 -29 19 0
1 -22 -4 -7 -11 3 18 10 -52 40 0
1 22 -26 -50 -23 8 7 -48 -19 -18 0
1 22 -26 -50 -23 8 7 -48 19 -36 -28 0
1 22 -26 50 2 -34 64 30 0
1 22 -26 -50 -23 -8 32 31 0
1 -22 -4 7 10 5 55 -45 -49 35 0
-1 17 -64 -59 41 -10 -13 54 27 0
-1 17 64 16 -57 -22 32 65 0
-1 -17 -41 48 -23 -3 -51 5 -12 -46 57 19 0
-1 -17 41 -5 16 -37 0
-1 17 64 16 57 63 -46 -44 -53 -43 0
-1 -17 41 -5 -16 59 14 -25 0
-1 17 64 -16 -56 -39 -7 9 5 0
-1 17 64 16 -57 22 39 0
-1 17 64 -16 56 -24 -35 31 43 0
1 22 -26 50 2 34 -42 16 0
-1 -17 41 5 65 -16 -23 54 -47 38 0
1 -22 -4 -7 -11 -3 -27 -39 -24 37 0
1 -22 -4 -7 -11 -3 -27 -39 24 -38 -54 0
-1 -17 41 5 65 -16 23 -13 -44 0
1 -22 4 -32 -41 12 15 -27 0
1 22 26 -52 62 58 -14 57 41 -30 -40 17 0
1 22 26 52 -45 38 17 61 0
1 -22 4 32 2 60 -8 65 -16 37 -46 0
1 -22 4 -32 -41 -12 9 2 -48 3 37 0
-1 -17 -41 -48 32 62 4 13 -60 -40 -56 0
1 22 26 52 -45 -38 25 10 -14 0
1 22 -26 50 2 34 -42 -16 0
-1 -17 41 5 65 16 23 64 25 0
1 -22 -4 -7 -11 3 18 -10 27 0
-1 17 -64 -59 -41 -34 15 48 25 35 0
1 22 26 -52 62 58 -14 57 41 -30 40 17 -19 0
1 22 -26 -50 -23 -8 -32 -17 0
1 -22 -4 -7 -11 3 -18 -21 63 12 0
-1 -17 -41 48 -23 3 -31 -53 14 -25 0
-1 -17 -41 -48 -32 10 27 63 0
-1 17 64 -16 56 24 9 -35 59 0
1 -22 -4 -7 -11 -3 -27 39 -64 56 -41 0
1 22 26 52 -45 -38 -25 3 64 48 35 0
-1 -17 41 5 65 16 23 -64 9 -11 0
-1 -17 41 5 -65 -11 -48 27 0
1 22 26 -52 62 -58 19 2 -64 -5 0
-1 -17 -41 -48 -32 10 27 -63 0
1 -22 -4 7 10 -5 -47 -16 36 0
1 -22 4 -32 -41 -12 -9 51 -65 0
-1 -17 41 5 -65 -11 48 -9 0
1 -22 -4 7 10 -5 47 -61 -28 -32 0
1 -22 4 -32 41 3 -47 -19 -64 0
-1 -17 41 5 -65 -11 48 9 0
1 -22 4 -32 -41 12 15 27 56 28 0
-1 17 64 -16 -56 -39 -7 9 -5 0
1 -22 4 -32 41 -3 40 47 13 10 0
1 -22 4 32 2 60 -8 -65 -37 36 -49 0
1 -22 4 32 2 -60 31 55 26 0
-1 -17 -41 -48 32 62 4 13 -60 40 0
1 -22 4 32 2 -60 -31 5 -36 0
1 22 -26 50 2 34 42 -32 0
-1 -17 -41 -48 32 62 -4 0
1 -22 4 -32 -41 -12 -9 51 65 0
1 22 -26 50 -2 59 20 0
1 -22 4 32 2 -60 -31 -5 52 17 -51 13 0
1 -22 4 -32 -41 -12 -9 -51 -2 -59 0
-1 -17 -41 48 -23 3 -31 53 -12 -40 0
-1 -17 -41 -48 -32 -10 -24 0
-1 17 -64 -59 -41 -34 15 -48 18 38 0
1 -22 -4 -7 -11 3 -18 -21 -63 -6 -42 0
1 -22 4 32 2 60 8 -45 42 23 0
1 22 26 -52 62 58 14 38 0
1 -22 -4 -7 11 61 40 -16 53 41 20 -54 0
1 22 -26 50 -2 -59 -29 -19 0
1 -22 -4 7 10 -5 47 61 16 63 -32 0
1 -22 -4 -7 -11 -3 27 -55 0
1 -22 -4 -7 11 61 40 -16 -53 19 -48 0
1 -22 -4 7 10 -5 47 -61 28 37 43 0
1 -22 -4 -7 -11 3 -18 -21 -63 6 36 0
-1 -17 -41 48 -23 -3 -51 -5 7 26 0
-1 -17 41 -5 -16 59 -14 51 -60 0
-1 -17 -41 48 -23 -3 -51 5 -12 -46 57 -19 0
1 -22 -4 -7 -11 3 -18 21 -37 58 0
1 22 -26 -50 -23 8 7 -48 19 -36 28 0
-1 17 64 -16 -56 -39 7 -53 0
1 -22 -4 -7 -11 -3 -27 -39 -24 -37 0
1 -22 -4 -7 -11 3 -18 -21 63 -12 0
1 -22 4 -32 41 -3 40 47 -13 -58 54 0
1 -22 -4 -7 -11 -3 -27 39 -64 -56 14 -58 28 -48 0
-1 17 64 -16 56 24 -9 44 -8 0
1 -22 -4 7 10 -5 -47 16 63 0
-1 17 64 16 -57 -22 -32 -30 -40 14 0
-1 -17 41 -5 -16 -59 0
1 22 -26 -50 23 40 46 -19 -16 0
1 -22 4 32 2 60 8 45 50 0
-1 -17 41 -5 16 37 -36 -64 3 0
-1 17 -64 59 -57 48 6 0
1 -22 4 -32 -41 -12 -9 -51 2 45 0
1 -22 -4 7 10 -5 -47 16 -63 0
1 -22 4 32 2 60 -8 -65 -37 36 49 19 0
1 -22 4 -32 41 -3 -40 -33 -18 21 -34 0
1 -22 4 -32 41 3 -47 19 15 0
-1 -17 41 5 65 16 -23 -36 -58 0
1 22 -26 -50 23 40 -46 7 27 0
1 22 26 -52 62 58 -14 57 41 30 18 -45 0
-1 17 -64 -59 41 -10 -13 -54 50 -21 -23 -56 0
1 -22 -4 -7 11 -61 -38 60 0
1 22 26 -52 -62 61 -28 0
-1 -17 -41 48 23 39 -12 20 45 -49 0
1 -22 4 32 2 60 -8 65 -16 37 46 0
1 -22 -4 -7 11 61 40 -16 53 -41 -36 30 0
1 -22 -4 -7 11 -61 -38 -60 35 0
-1 17 -64 -59 -41 -34 15 48 -25 23 0
-1 -17 -41 48 23 39 -12 -20 0
-1 -17 41 -5 16 37 -36 64 0
-1 -17 41 5 65 16 -23 36 -61 0
1 -22 -4 -7 -11 3 -18 -21 -63 -6 42 0
1 22 26 -52 62 58 -14 57 41 -30 -40 -17 0
1 -22 4 -32 41 3 -47 19 -15 57 21 0
-1 -17 -41 48 23 -39 50 65 0
-1 17 -64 -59 -41 -34 15 48 25 -35 0
-1 17 -64 -59 -41 -34 -15 -11 0
1 -22 4 -32 41 -3 40 47 13 -10 0
1 -22 4 -32 41 -3 -40 -33 18 53 6 0
1 -22 4 -32 -41 -12 9 2 -48 -3 54 0
-1 -17 -41 -48 32 -62 60 -27 -47 -4 0
-1 -17 -41 48 23 39 12 58 0
1 22 26 -52 62 58 -14 -57 0
1 -22 4 -32 41 -3 40 -47 65 -54 25 0
1 -22 -4 7 -10 21 -57 64 0
1 22 -26 -50 -23 -8 32 -31 0
-1 -17 -41 48 -23 3 -31 -53 -14 -45 0
-1 17 -64 -59 41 10 2 -63 -45 48 0
-1 -17 -41 48 23 39 -12 20 45 49 0
1 -22 4 -32 -41 12 -15 37 61 -56 0
1 22 26 -52 62 58 -14 57 -41 -47 -49 0
-1 17 64 -16 56 -24 -35 -31 0
1 -22 -4 -7 11 61 40 -16 53 41 -20 0
1 -22 4 -32 41 -3 -40 -33 18 -53 24 5 0
-1 17 -64 -59 41 -10 -13 -54 -50 9 -36 0
1 -22 4 32 2 -60 31 55 -26 0
1 -22 -4 -7 11 61 40 16 5 -24 -65 0
-1 17 -64 -59 41 10 2 -63 45 0
1 22 26 -52 62 -58 19 -2 -14 -45 0
-1 17 -64 -59 -41 -34 15 48 -25 -23 0
1 22 26 -52 62 -58 19 2 -64 5 -38 -59 0
-1 17 -64 -59 41 10 -2 0
1 -22 4 -32 -41 12 -15 37 61 56 0
-1 -17 41 -5 -16 59 14 25 0
1 22 26 52 -45 38 -17 48 -65 0
1 -22 -4 -7 -11 3 -18 21 37 -41 36 0
-1 17 -64 -59 41 -10 13 45 -28 0
-1 -17 -41 48 -23 -3 -51 5 12 11 0
1 22 -26 -50 -23 8 7 -48 19 36 0
-1 17 64 -16 -56 -39 7 53 0
1 -22 -4 -7 11 61 40 16 5 -24 65 0
-1 -17 41 5 65 -16 23 13 31 0
-1 17 -64 -59 -41 -34 15 -48 -18 0
1 22 26 52 -45 38 -17 -48 3 0
-1 -17 -41 48 -23 -3 -51 5 -12 -46 -57 34 0
1 22 -26 -50 -23 8 7 -48 -19 18 0
1 -22 -4 -7 11 61 40 16 5 24 9 3 0
1 -22 -4 -7 -11 -3 -27 39 -64 56 41 0
-1 17 -64 -59 41 -10 13 -45 29 0
-1 -17 -41 48 -23 -3 51 28 0
1 -22 -4 -7 11 61 40 -16 53 -41 -36 -30 0
1 22 26 -52 62 58 -14 57 -41 -47 49 0
-1 -17 41 5 65 -16 -23 54 -47 -38 0
-1 -17 41 5 65 -16 -23 54 47 -13 0
-1 -17 41 -5 -16 59 -14 -51 0
1 -22 -4 7 10 -5 47 -61 -28 32 0
-1 -17 -41 -48 32 -62 60 -27 -47 4 0
1 -22 -4 -7 11 61 40 -16 53 -41 36 0
1 -22 4 -32 -41 12 -15 37 -61 0
-1 -17 -41 48 -23 -3 -51 -5 7 -26 0
1 -22 4 -32 41 3 -47 19 -15 57 -21 0
-1 -17 -41 -48 -32 -10 24 63 -8 0
-1 17 -64 -59 41 -10 -13 -54 50 21 -53 20 0
-1 -17 -41 -48 32 -62 -60 -23 0
1 -22 -4 7 -10 -21 47 51 0
-1 17 64 -16 56 24 9 35 54 41 2 45 0
1 -22 4 32 2 60 -8 -65 -37 36 49 -19 0
1 -22 4 32 2 60 -8 -65 37 -16 61 -46 0
-1 17 -64 -59 41 -10 -13 54 -27 0
-1 17 64 -16 -56 -39 -7 -9 0
1 22 -26 50 2 34 42 32 0
1 -22 4 -32 41 -3 40 -47 65 -54 -25 -24 0
-1 -17 -41 -48 -32 10 -27 -43 -16 -62 0
1 -22 4 -32 41 -3 40 -47 65 -54 -25 24 13 0
1 -22 4 -32 41 -3 -40 -33 18 -53 24 -5 0
1 -22 4 32 2 -60 -31 -5 52 17 51 0
1 22 -26 -50 -23 8 -7 -39 14 0
1 -22 -4 -7 11 -61 38 26 0
1 22 -26 -50 -23 8 -7 -39 -14 -40 0
1 -22 -4 7 10 5 55 45 0
1 22 26 52 -45 -38 25 -10 0
-1 17 64 16 -57 -22 -32 30 35 -3 42 0
1 -22 -4 -7 11 61 -40 49 -48 0
1 -22 -4 -7 -11 -3 -27 39 -64 -56 14 -58 28 48 0
1 -22 -4 7 10 -5 47 61 16 63 32 0
1 22 -26 50 2 -34 -64 0
1 22 26 52 45 -4 -30 -39 0
-1 -17 -41 -48 32 62 4 -13 36 0
-1 17 64 -16 56 -24 -35 31 -43 0
1 -22 -4 -7 11 -61 -38 -60 -35 0
1 -22 -4 -7 -11 -3 -27 39 64 62 -32 -13 0
-1 -17 41 5 -65 11 0
1 -22 4 -32 41 -3 -40 -33 18 -53 -24 38 -34 0
-1 17 64 16 -57 -22 -32 -30 40 0
1 -22 4 32 2 -60 31 -55 17 8 62 0
1 -22 -4 -7 -11 -3 27 55 -26 19 -39 0
1 -22 -4 -7 11 61 40 16 -5 0
1 22 26 52 45 4 0
1 -22 4 32 2 60 -8 65 16 -27 42 0
1 22 -26 -50 -23 8 -7 -39 -14 40 0
-1 -17 41 5 65 16 23 -64 9 11 0
1 22 -26 50 -2 59 -20 0
1 -22 4 -32 41 -3 40 -47 -65 30 8 19 0
-1 17 64 -16 -56 39 -48 55 -32 53 0
-1 17 -64 -59 -41 -34 15 -48 18 -38 0
1 22 26 -52 -62 61 28 21 0
1 -22 -4 -7 -11 -3 -27 39 -64 -56 14 -58 -28 0
-1 17 64 16 -57 -22 -32 30 -35 0
1 -22 4 -32 41 3 -47 19 -15 -57 59 0
1 22 -26 -50 23 40 46 19 0
-1 -17 -41 48 23 39 12 -58 31 0
1 -22 4 32 2 60 -8 65 16 -27 -42 55 0
1 -22 -4 7 10 5 -55 0
1 -22 4 -32 41 -3 40 -47 -65 30 -8 0
1 22 26 52 45 -4 30 -58 0
1 -22 4 32 2 60 -8 -65 -37 -36 0
1 -22 4 32 2 60 -8 65 16 -27 -42 -55 -51 26 0
-1 -17 -41 48 -23 3 -31 -53 14 25 -58 0
-1 -17 41 5 65 -16 23 -13 44 -11 0
-1 17 -64 -59 41 -10 13 45 28 0
1 22 -26 -50 23 40 46 -19 16 0
-1 -17 -41 48 -23 -3 51 -28 0
1 22 26 52 -45 -38 -25 3 64 -48 0
-1 -17 41 5 65 16 -23 -36 58 -6 -8 0
-1 17 64 -16 56 24 9 -35 -59 0
1 -22 -4 -7 -11 -3 -27 39 64 -62 0
1 -22 4 -32 41 -3 -40 -33 -18 21 34 0
-1 17 64 -16 56 -24 35 0
1 -22 -4 -7 -11 3 -18 -21 -63 6 -36 0
1 -22 4 -32 41 -3 -40 -33 -18 -21 37 0
-1 -17 -41 -48 32 62 4 -13 -36 -60 0
-1 -17 41 5 65 16 23 -64 -9 0
1 -22 4 -32 41 -3 40 47 -13 -58 -54 0
-1 -17 41 5 65 -16 23 -13 44 11 0
-1 17 64 16 57 63 -46 44 -34 0
-1 -17 -41 48 -23 3 -31 -53 14 25 58 0
1 22 26 52 45 -4 30 58 0
-1 17 64 16 57 63 46 -35 0
1 -22 4 32 2 60 -8 -65 37 -16 61 46 0
1 -22 -4 7 10 -5 47 -61 28 37 -43 0
1 22 -26 -50 23 40 -46 -7 0
1 -22 4 -32 -41 -12 -9 -51 2 -45 0
1 -22 -4 7 -10 -21 -47 0
1 22 -26 -50 -23 -8 -32 17 0
1 22 26 -52 62 58 -14 57 -41 47 45 0
1 -22 4 -32 41 3 -47 19 -15 -57 -59 0
1 22 26 -52 -62 61 28 -21 0
1 -22 -4 -7 -11 -3 -27 39 -64 -56 -14 50 0
1 -22 4 32 2 60 -8 -65 37 16 0
1 22 26 -52 62 -58 19 2 64 0
1 22 26 -52 -62 -61 53 54 0
1 22 -26 -50 23 40 -46 7 -27 0
1 -22 4 -32 41 -3 40 -47 -65 -30 52 0
-1 17 64 -16 56 24 -9 -44 31 0
1 -22 -4 7 -10 21 -57 -64 -36 0
1 22 26 -52 62 58 -14 57 41 30 -18 36 0
1 -22 -4 -7 11 61 40 -16 -53 -19 0
1 -22 -4 7 -10 -21 47 -51 0
-1 -17 41 -5 -16 59 -14 51 60 0
1 -22 4 32 2 60 -8 65 -16 -37 -3 0
-1 17 -64 -59 41 10 2 63 -13 0
1 -22 4 32 2 60 -8 -65 37 -16 -61 24 0
1 -22 -4 -7 -11 3 -18 21 -37 -58 -15 0
1 -22 -4 -7 -11 -3 -27 -39 24 38 0
1 22 26 52 -45 38 -17 48 65 -13 0
1 -22 4 -32 41 -3 40 -47 -65 30 8 -19 21 0
-1 -17 41 5 65 -16 23 13 -31 0
1 22 -26 -50 23 -40 -37 0
1 -22 4 32 2 60 -8 65 -16 -37 3 63 0
1 -22 4 -32 41 3 -47 -19 64 0
1 -22 4 -32 -41 -12 9 2 -48 -3 -54 0
1 -22 -4 7 -10 21 57 0
-1 -17 -41 -48 32 -62 -60 23 0
-1 -17 -41 -48 32 -62 60 -27 47 0
-1 17 64 16 57 63 -46 -44 53 -55 -51 3 0
1 -22 4 32 2 60 8 45 -50 0
-1 17 -64 -59 -41 -34 -15 11 0
1 -22 4 -32 41 -3 -40 33 0
-1 17 64 16 -57 -22 -32 30 35 -3 -42 0
1 22 26 52 45 -4 -30 39 0
-1 17 64 16 57 63 -46 -44 -53 43 0
-1 17 -64 -59 41 -10 -13 -54 -50 9 36 0
1 22 26 -52 62 -58 19 2 -64 5 38 0
1 22 26 -52 62 -58 -19 0
-1 -17 41 5 65 -16 -23 -54 0
-1 -17 41 -5 16 37 -36 -64 -3 0
1 -22 -4 -7 -11 -3 27 55 26 0
-1 17 -64 -59 41 -10 -13 -54 -50 -9 -4 0
-1 17 -64 -59 41 -10 13 -45 -29 0
1 -22 -4 -7 -11 3 -18 21 -37 -58 15 -9 0
-1 17 64 16 -57 -22 -32 30 35 3 0
1 -22 4 32 -2 0
1 -22 4 32 2 60 -8 65 16 27 0
1 -22 -4 -7 -11 3 -18 21 37 -41 -36 0
1 22 26 52 -45 -38 -25 3 -64 0
1 22 26 -52 62 58 -14 57 41 -30 40 -17 0
1 -22 4 32 2 60 -8 65 16 -27 -42 -55 -51 -26 0
-1 17 64 -16 56 24 9 35 54 41 -2 0
-1 17 64 16 57 63 46 35 0
-1 17 64 -16 56 24 -9 44 8 0
1 -22 4 -32 -41 12 -15 -37 -10 29 0
-1 17 64 -16 56 24 9 35 54 -41 26 0
-1 17 -64 -59 41 -10 -13 -54 -50 -9 4 28 0
1 -22 -4 -7 11 61 40 -16 -53 19 48 0
-1 -17 -41 -48 32 62 4 13 -60 -40 56 -51 0
1 -22 4 32 2 -60 31 -55 17 -8 56 0
1 22 26 -52 62 -58 19 -2 14 0
1 -22 -4 -7 -11 -3 -27 -39 24 -38 54 0
1 -22 4 -32 41 -3 40 -47 -65 30 8 -19 -21 0
-1 -17 41 -5 16 37 36 -25 0
1 22 26 -52 62 58 14 -38 27 15 0
-1 -17 -41 -48 -32 10 -27 43 0
-1 17 64 -16 56 24 9 35 54 41 2 -45 0
1 -22 4 32 2 -60 -31 -5 52 -17 0
1 -22 -4 7 10 5 55 -45 49 0
1 -22 4 -32 -41 -12 -9 -51 -2 59 0
1 -22 4 -32 41 -3 -40 -33 18 -53 -24 38 34 0
-1 17 64 -16 -56 39 -48 55 32 3 0
-1 -17 -41 48 -23 -3 -51 5 -12 -46 -57 -34 0
1 -22 4 32 2 60 -8 65 16 -27 -42 -55 51 0
1 22 -26 50 -2 -59 29 0
1 -22 4 -32 -41 12 15 27 -56 0
1 -22 4 32 2 -60 -31 -5 52 17 -51 -13 0
1 -22 -4 -7 -11 3 18 -10 -27 0
-1 -17 -41 48 23 39 -12 20 -45 0
-1 -17 -41 48 23 39 12 -58 -31 0
-1 17 64 16 57 63 -46 -44 53 55 0
-1 17 64 16 57 63 -46 -44 53 -55 -51 -3 0
-1 17 -64 59 57 -63 -41 0
1 -22 -4 7 10 -5 47 -61 28 -37 0
-1 -17 -41 -48 32 -62 60 27 0
-1 17 -64 -59 41 10 2 -63 -45 -48 0
1 -22 -4 7 10 -5 47 61 16 -63 0
-1 -17 41 5 65 -16 -23 54 47 13 0
1 22 -26 -50 -23 8 -7 39 0
1 -22 -4 -7 11 -61 38 -26 -51 0
1 -22 -4 7 10 -5 -47 -16 -36 0
-1 -17 41 5 -65 -11 -48 -27 0
-1 17 -64 59 -57 48 -6 0
-1 -17 -41 48 -23 3 31 49 5 0
1 22 26 52 -45 38 -17 -48 -3 0
1 -22 4 32 2 -60 -31 5 36 0
1 -22 -4 -7 11 61 40 16 5 24 9 -3 0
1 22 26 52 -45 38 17 -61 -39 0
1 22 -26 -50 23 -40 37 0
-1 -17 41 5 65 16 23 64 -25 0
-1 17 64 16 57 -63 0
