c NeuroCodeBench 2.0 CNF formula with verdict Unsat
p cnf 10 73
1 4 2 10 6 5 9 -7 -8 0
-1 6 -5 7 9 -10 0
1 4 2 10 6 -5 3 7 9 0
1 -4 -6 -3 -7 -2 10 9 0
-1 6 5 -8 7 4 -3 9 -10 0
1 4 2 -10 -5 0
-1 6 5 -8 -7 2 0
1 -4 -6 -3 7 -5 8 0
-1 -6 2 -5 -4 -8 -9 0
1 -4 6 2 0
1 4 -2 -9 8 0
-1 6 5 8 -7 0
-1 6 5 -8 7 -4 -3 10 0
-1 6 5 -8 7 4 -3 -9 -10 0
1 -4 -6 -3 7 5 0
-1 6 5 -8 7 -4 3 10 2 0
-1 -6 -2 -3 -4 0
-1 -6 2 -5 -4 -8 9 0
-1 6 5 -8 7 4 3 -10 0
-1 -6 2 -5 -4 8 -10 0
1 -4 -6 3 2 0
1 -4 -6 -3 7 -5 -8 0
-1 -6 -2 -3 4 -10 0
1 4 -2 -9 -8 0
1 4 2 10 6 5 -9 8 7 3 0
1 4 2 10 6 5 -9 8 7 -3 0
-1 6 5 -8 -7 -2 0
1 -4 -6 -3 -7 2 0
-1 6 -5 -7 -3 8 0
-1 6 -5 7 9 10 0
-1 6 -5 -7 3 0
-1 -6 2 5 3 7 -4 0
-1 6 5 -8 7 -4 3 10 -2 0
1 4 -2 9 -6 0
-1 6 5 -8 7 4 -3 9 10 0
-1 6 5 8 7 0
1 4 2 -10 5 8 0
-1 -6 2 5 -3 10 -7 -4 0
1 4 2 10 -6 8 0
-1 6 5 -8 7 -4 3 -10 0
1 4 -2 9 6 0
1 -4 6 -2 5 0
-1 6 5 -8 7 4 -3 -9 10 0
-1 -6 2 5 -3 -10 0
1 4 2 10 6 5 9 7 0
1 4 2 10 6 -5 -3 0
-1 6 5 -8 7 -4 -3 -10 0
1 -4 -6 3 -2 0
-1 6 5 -8 7 4 3 10 0
1 4 2 10 6 -5 3 -7 8 0
-1 6 -5 -7 -3 -8 0
-1 -6 2 5 3 -7 0
-1 -6 2 -5 -4 8 10 0
1 4 2 10 6 5 -9 -8 0
1 -4 -6 -3 -7 -2 -10 0
1 4 2 10 -6 -8 0
-1 -6 -2 -3 4 10 0
1 4 2 -10 5 -8 0
-1 -6 2 5 -3 10 7 0
1 4 2 10 6 5 -9 8 -7 -3 0
1 4 2 10 6 5 -9 8 -7 3 0
-1 -6 -2 3 0
-1 -6 2 -5 4 0
-1 -6 2 5 3 7 4 0
1 -4 6 -2 -5 -3 0
1 4 2 10 6 -5 3 -7 -8 0
-1 6 -5 7 -9 0
1 4 2 10 6 5 9 -7 8 -3 0
1 4 2 10 6 5 9 -7 8 3 0
1 -4 -6 -3 -7 -2 10 -9 0
1 -4 6 -2 -5 3 0
-1 -6 2 5 -3 10 -7 4 0
1 4 2 10 6 -5 3 7 -9 0
