c NeuroCodeBench 2.0 CNF formula with verdict Unsat
p cnf 100 505
-1 27 -12 34 33 -7 -68 -36 90 -95 40 69 -75 0
-1 -27 -40 11 -53 52 -56 -76 31 -42 -10 0
1 -61 57 -56 38 -33 64 -86 0
1 61 -81 92 -53 -42 45 -36 -77 10 -94 0
-1 -27 40 -82 -90 -80 3 -69 0
-1 -27 40 -82 -90 80 -84 74 66 -89 0
-1 -27 40 82 86 78 -29 -22 -74 52 33 0
-1 -27 40 -82 -90 80 84 -96 59 77 -20 -11 0
-1 -27 40 -82 -90 -80 -3 18 0
1 61 -81 92 -53 -42 -45 -16 70 -2 76 -95 0
-1 27 12 -17 28 71 99 -47 88 -33 18 90 -76 0
1 -61 57 -56 -38 -81 -63 -60 83 0
-1 27 12 -17 28 -71 -37 89 40 -2 74 0
1 -61 -57 -38 68 -31 89 17 0
1 61 -81 92 -53 -42 -45 16 97 4 0
1 61 -81 -92 -64 44 -30 100 0
-1 27 12 -17 28 71 99 -47 -88 -9 0
1 -61 -57 -38 68 31 74 99 30 0
-1 -27 40 82 86 78 29 48 -49 -32 -6 70 0
1 61 -81 92 53 -9 3 31 0
-1 -27 -40 11 53 -61 -38 33 -82 0
-1 27 12 -17 28 71 99 47 -90 63 -45 0
-1 -27 -40 -11 -20 82 -53 38 21 0
-1 27 -12 -34 -7 -22 47 -36 -53 30 20 0
-1 27 12 17 23 75 37 -55 0
-1 -27 40 82 -86 -19 -79 -10 32 0
-1 -27 -40 11 -53 -52 -79 -18 96 3 -93 -73 0
1 61 81 -45 -33 -49 84 5 0
-1 -27 40 -82 90 -99 -95 -100 -4 15 0
1 -61 57 56 -68 51 -14 -69 0
-1 -27 -40 -11 -20 82 53 -25 93 76 43 0
1 -61 -57 38 -63 -53 -17 -75 45 -100 -47 0
-1 27 -12 34 33 -7 -68 -36 90 95 -51 0
1 61 -81 -92 -64 44 30 100 0
-1 -27 -40 11 -53 52 56 -32 51 0
1 61 -81 92 -53 -42 45 36 -75 34 95 85 0
1 61 -81 92 -53 -42 -45 -16 70 -2 -76 -85 0
-1 -27 -40 11 53 61 81 -57 -4 -89 0
-1 27 12 -17 -28 -55 -88 78 -66 8 0
-1 -27 40 82 86 78 29 48 -49 -32 -6 -70 0
-1 -27 -40 11 -53 52 -56 -76 31 -42 10 -36 0
-1 -27 -40 -11 -20 82 53 25 -8 -21 36 0
-1 -27 40 82 86 -78 36 35 0
1 -61 -57 38 -63 -53 17 99 80 68 -70 81 0
-1 -27 -40 11 53 61 81 -57 -4 89 -23 20 -80 0
-1 27 -12 34 -33 -60 49 -99 0
-1 -27 -40 11 53 61 81 57 -24 -100 0
-1 27 -12 34 33 -7 -68 -36 90 -95 40 -69 -96 0
1 -61 57 -56 38 -33 -64 -53 23 0
-1 27 -12 34 -33 60 -56 83 16 14 35 -29 5 22 0
1 -61 -57 38 -63 -53 17 -99 -7 -62 0
1 -61 57 -56 38 33 85 25 -20 21 -74 0
1 61 -81 92 -53 -42 45 36 75 38 0
-1 -27 40 -82 -90 80 -84 74 -66 0
-1 -27 -40 11 -53 -52 -79 -18 -96 94 -64 0
-1 27 -12 34 33 -7 -68 -36 90 -95 -40 48 84 0
-1 27 -12 -34 7 21 -81 14 0
1 61 -81 92 -53 42 65 -34 0
-1 27 -12 -34 -7 22 29 73 99 0
1 61 81 -45 -33 -49 84 -5 0
-1 -27 -40 11 53 -61 -38 33 82 36 -18 0
1 -61 57 -56 38 33 85 25 -20 21 74 0
-1 -27 40 -82 90 99 -20 -58 19 0
1 61 -81 -92 -64 -44 -52 0
-1 27 -12 34 -33 60 56 69 -48 -65 0
-1 -27 40 82 86 78 29 48 49 -46 79 0
-1 -27 40 -82 90 99 20 -96 -63 -3 77 0
-1 27 -12 -34 7 21 81 100 59 0
-1 27 -12 -34 7 -21 -78 -61 -24 0
1 61 -81 92 53 9 23 0
1 61 -81 92 -53 -42 45 -36 77 0
-1 -27 40 82 86 78 29 -48 85 -19 -74 -77 60 0
-1 -27 -40 11 53 61 -81 -9 -8 0
-1 27 12 -17 28 -71 -37 89 40 -2 -74 -13 34 -38 0
-1 -27 40 82 86 -78 36 -35 -71 0
-1 27 -12 34 -33 60 56 -69 3 28 -47 0
-1 27 -12 34 33 -7 -68 -36 90 95 51 0
1 -61 57 -56 38 33 85 25 20 -84 78 0
1 61 -81 92 -53 42 -65 10 89 72 -11 0
1 61 -81 92 -53 42 -65 10 -89 48 -39 0
-1 27 -12 34 -33 60 56 69 -48 65 0
1 61 81 45 35 -84 0
-1 -27 40 -82 -90 80 84 -96 59 -77 0
1 61 81 -45 -33 -49 -84 -3 0
-1 -27 -40 11 53 61 81 -57 -4 89 23 0
1 61 81 -45 33 -57 -82 97 0
-1 -27 40 82 86 78 -29 -22 -74 -52 32 0
1 -61 57 -56 -38 -81 -63 -60 -83 31 75 0
-1 27 -12 34 -33 60 -56 -83 8 0
-1 -27 -40 11 53 -61 -38 -33 -3 72 0
1 61 81 -45 -33 49 0
-1 27 -12 34 33 -7 -68 -36 90 -95 -40 -48 -6 0
-1 27 12 -17 -28 55 -80 -73 72 0
-1 -27 40 82 -86 19 -66 -14 0
-1 27 -12 -34 -7 -22 47 36 93 0
-1 -27 40 82 86 78 29 -48 85 -19 -74 77 0
-1 27 12 -17 28 71 99 47 90 0
-1 -27 -40 11 53 -61 38 57 0
-1 -27 -40 11 53 61 -81 -9 8 22 0
1 -61 -57 -38 68 31 74 -99 51 -59 0
-1 27 -12 -34 7 21 -81 -14 0
1 -61 -57 -38 68 -31 -89 48 0
-1 -27 -40 11 53 -61 -38 -33 -3 -72 0
-1 -27 40 82 86 78 29 48 49 -46 -79 0
-1 27 12 -17 -28 55 -80 -73 -72 0
-1 27 12 17 23 75 -37 -33 0
1 61 -81 92 53 -9 -3 23 -16 0
-1 -27 40 82 -86 -19 79 55 67 0
1 61 -81 -92 64 89 -94 30 0
-1 -27 -40 11 -53 -52 -79 18 -68 -3 83 0
1 -61 57 -56 -38 -81 63 -15 9 24 20 0
1 61 81 -45 33 -57 -82 -97 47 -67 0
-1 27 -12 34 33 -7 68 37 84 0
-1 27 12 -17 28 -71 37 0
1 -61 -57 38 -63 -53 -17 -75 45 100 -69 0
-1 27 12 -17 -28 55 -80 73 0
-1 27 12 -17 28 71 99 -47 88 33 -83 60 0
1 61 -81 -92 64 -89 30 0
1 -61 -57 -38 68 -31 89 -17 0
1 61 -81 92 -53 -42 -45 -16 -70 0
-1 -27 -40 -11 20 41 -61 0
-1 27 12 -17 -28 -55 -88 -78 -46 6 0
-1 -27 40 -82 -90 80 84 -96 -59 0
-1 27 -12 -34 -7 -22 -47 -4 -85 91 0
-1 -27 -40 11 -53 -52 -79 18 -68 3 0
-1 -27 40 82 86 78 29 -48 -85 -76 58 0
1 61 -81 -92 -64 44 -30 -100 -82 25 0
-1 -27 40 82 86 78 -29 -22 -74 52 -33 0
-1 27 -12 -34 7 -21 -78 -61 24 -51 0
-1 -27 40 82 86 78 29 48 49 46 26 0
1 61 -81 92 -53 -42 -45 16 -97 -14 -31 60 75 0
1 61 -81 92 -53 -42 -45 -16 70 2 -96 0
-1 27 12 -17 28 -71 -37 89 -40 0
-1 27 -12 34 33 -7 -68 -36 90 -95 -40 48 -84 0
-1 27 -12 34 33 7 81 -100 -42 91 43 9 -67 -78 0
-1 -27 -40 -11 -20 82 53 -25 -93 -55 -69 0
-1 -27 40 -82 90 -99 -95 -100 4 0
-1 -27 40 -82 -90 80 84 96 -15 0
-1 -27 40 82 -86 19 66 35 63 -71 0
-1 27 -12 34 -33 60 56 69 48 0
-1 -27 40 -82 90 -99 -95 -100 -4 -15 -44 0
1 -61 -57 38 63 88 -36 40 0
1 61 -81 92 -53 -42 45 36 -75 -34 -32 0
-1 -27 -40 11 -53 -52 -79 -18 96 -3 0
1 -61 57 -56 -38 -81 -63 60 54 0
-1 -27 -40 -11 -20 82 -53 38 -21 -25 0
1 61 81 -45 33 -57 -82 -97 47 67 0
-1 -27 40 -82 -90 80 84 96 15 94 -68 43 0
-1 27 -12 34 -33 -60 -49 95 0
1 61 -81 92 -53 42 -65 10 89 -72 -43 0
-1 27 12 17 23 75 -37 33 0
-1 -27 40 82 86 78 29 -48 85 19 36 84 0
-1 -27 40 82 86 78 29 -48 -85 76 0
1 -61 57 56 -68 -51 0
-1 -27 40 -82 -90 -80 -3 -18 31 0
1 61 -81 92 53 9 -23 12 99 -37 0
-1 27 -12 34 -33 60 -56 83 16 14 35 29 0
-1 -27 -40 -11 -20 82 53 -25 93 76 -43 12 0
-1 -27 40 -82 90 99 -20 -58 -19 0
1 -61 57 -56 -38 81 -8 -95 -60 100 -7 -19 78 13 0
1 -61 57 -56 38 -33 -64 53 0
1 61 -81 92 53 9 -23 -12 82 0
-1 27 -12 -34 -7 -22 47 -36 53 0
-1 27 12 17 -23 -26 0
1 61 -81 92 53 -9 3 -31 0
-1 27 -12 34 33 7 81 100 -44 57 0
-1 -27 40 82 -86 19 66 35 -63 0
-1 -27 40 82 86 78 -29 -22 74 0
-1 -27 40 82 86 78 29 -48 85 19 -36 0
1 61 -81 92 -53 42 65 34 88 -44 77 0
1 -61 57 -56 -38 81 -8 95 -32 0
-1 -27 40 82 86 78 29 -48 -85 -76 -58 -25 0
1 61 -81 92 -53 -42 45 36 -75 -34 32 21 14 0
1 -61 -57 38 -63 -53 -17 -75 45 100 69 0
1 61 -81 92 -53 -42 -45 16 -97 14 -41 0
-1 27 12 -17 28 -71 -37 89 40 -2 -74 13 3 0
-1 27 -12 34 -33 60 -56 83 -16 0
-1 27 -12 -34 7 -21 -78 -61 24 51 0
-1 27 12 -17 28 71 99 -47 88 -33 18 -90 -94 -83 0
-1 -27 -40 11 -53 -52 -79 -18 -96 94 64 51 76 0
-1 -27 -40 11 -53 -52 79 -86 0
-1 27 12 -17 28 71 99 -47 -88 9 0
1 -61 57 -56 38 33 -85 45 75 0
-1 -27 40 82 -86 19 -66 14 57 0
-1 27 12 -17 28 71 99 -47 88 33 83 -49 0
-1 -27 40 -82 90 99 20 -96 -63 -3 -77 38 31 0
-1 27 -12 34 -33 60 56 -69 -3 100 -6 0
-1 27 -12 34 -33 -60 -49 -95 0
1 -61 57 56 68 -11 -92 19 0
-1 -27 40 82 86 78 29 -48 85 -19 74 22 0
-1 -27 40 -82 -90 80 84 96 15 94 68 0
-1 -27 40 -82 -90 80 84 -96 59 77 -20 11 0
-1 -27 40 -82 90 -99 95 0
1 61 -81 92 -53 -42 -45 16 -97 -14 -31 60 -75 0
-1 27 -12 34 33 -7 68 37 -84 80 0
1 61 -81 92 -53 42 -65 10 -89 48 39 0
-1 27 -12 34 -33 60 -56 83 16 14 35 -29 5 -22 0
-1 -27 -40 -11 -20 82 53 25 -8 21 50 -28 0
-1 27 -12 34 -33 60 -56 83 16 14 35 -29 -5 0
-1 -27 -40 11 53 -61 -38 33 82 -36 46 -3 0
-1 27 -12 -34 7 -21 -78 61 48 0
1 61 -81 92 -53 -42 45 36 -75 -34 32 21 -14 0
1 -61 57 -56 -38 81 8 -34 0
-1 -27 40 -82 90 -99 -95 -100 -4 -15 44 0
-1 27 -12 -34 -7 -22 -47 -4 -85 -91 0
1 -61 57 -56 38 33 85 -25 77 -40 92 0
-1 27 -12 34 33 -7 -68 -36 -90 52 0
1 61 -81 92 -53 42 65 34 88 -44 -77 0
1 -61 57 -56 -38 81 -8 -95 -60 -100 0
-1 -27 -40 11 -53 -52 -79 -18 -96 -94 0
1 61 -81 92 -53 -42 45 -36 -77 10 94 0
-1 27 -12 34 33 -7 68 -37 0
-1 27 12 -17 28 71 99 -47 88 -33 18 90 76 0
1 -61 -57 38 -63 -53 17 -99 -7 62 66 0
-1 27 12 -17 28 71 99 -47 88 33 83 49 0
-1 27 12 -17 28 71 99 47 -90 -63 0
-1 27 -12 34 -33 -60 49 99 0
1 -61 -57 38 -63 -53 17 99 80 -68 -37 0
1 61 -81 92 -53 -42 45 36 75 -38 0
-1 -27 40 82 -86 -19 -79 10 -90 0
-1 -27 40 82 86 78 29 -48 85 19 36 -84 0
-1 -27 -40 11 -53 52 -56 -76 31 -42 10 36 0
-1 27 -12 -34 -7 -22 -47 -4 85 0
-1 -27 40 82 86 78 29 48 49 46 -26 0
1 61 -81 92 -53 -42 -45 16 97 -4 87 -17 0
1 61 -81 92 -53 42 65 34 88 44 0
1 -61 57 -56 38 33 85 -25 77 40 0
-1 -27 -40 -11 -20 82 53 25 -8 -21 -36 0
-1 27 -12 -34 -7 22 -29 33 -15 0
1 61 81 45 -35 77 -34 32 0
-1 27 12 -17 28 -71 -37 89 40 -2 -74 13 -3 0
1 -61 57 -56 -38 81 -8 -95 -60 100 7 0
-1 -27 -40 11 53 -61 -38 33 82 36 18 0
1 61 -81 92 -53 -42 45 36 -75 34 95 -85 -8 0
-1 -27 -40 11 -53 52 56 32 38 0
1 61 -81 92 53 9 -23 12 99 37 0
-1 -27 -40 11 53 61 -81 -9 8 -22 0
-1 -27 -40 11 -53 -52 79 86 -4 0
1 61 -81 92 53 9 -23 -12 -82 0
1 -61 57 56 -68 51 -14 69 0
1 61 -81 92 53 -9 -3 23 16 0
1 -61 -57 38 -63 -53 17 99 -80 -25 0
-1 -27 40 -82 90 99 20 -96 -63 -3 -77 38 -31 55 0
1 -61 57 56 -68 51 14 0
-1 -27 40 -82 90 99 -20 58 -31 0
1 -61 57 -56 38 33 85 25 -20 -21 0
1 61 -81 92 -53 -42 45 -36 -77 -10 25 -88 0
1 -61 -57 38 63 88 36 0
-1 27 12 -17 28 -71 -37 89 40 -2 -74 -13 -34 0
-1 27 -12 -34 -7 22 -29 -33 -92 0
1 61 81 45 -35 77 -34 -32 96 0
1 61 -81 92 -53 42 -65 -10 3 0
-1 -27 40 -82 90 99 20 -96 -63 3 0
1 -61 57 -56 38 33 85 -25 -77 0
1 -61 57 56 68 -11 -92 -19 0
-1 -27 40 -82 90 99 20 96 0
1 61 -81 92 -53 42 -65 10 89 72 11 0
-1 27 12 -17 28 71 99 -47 88 -33 18 -90 94 0
1 -61 -57 38 63 88 -36 -40 0
-1 -27 -40 -11 20 -41 0
-1 -27 40 -82 -90 -80 3 69 52 0
1 61 81 45 -35 -77 14 0
-1 -27 40 -82 90 99 20 -96 -63 -3 -77 -38 0
-1 27 12 17 23 75 37 55 0
1 61 -81 -92 64 -89 -30 31 21 0
1 61 -81 92 -53 -42 45 36 -75 -34 32 -21 -67 0
-1 -27 -40 -11 -20 82 53 25 -8 21 50 28 0
-1 -27 40 -82 90 -99 -95 100 -65 0
1 -61 -57 38 -63 -53 17 99 80 -68 37 -65 0
-1 -27 40 -82 -90 80 84 96 15 -94 0
1 61 81 -45 33 -57 82 6 0
-1 27 12 17 23 -75 0
-1 27 -12 -34 7 -21 -78 61 -48 -22 0
1 61 -81 -92 64 -89 -30 -31 0
-1 -27 40 -82 -90 80 -84 -74 38 0
1 61 -81 92 53 -9 -3 -23 0
-1 27 -12 -34 7 21 81 100 -59 0
1 -61 57 -56 -38 81 -8 95 32 0
-1 -27 -40 -11 -20 82 -53 38 -21 25 0
-1 -27 -40 11 -53 -52 -79 18 68 -21 -9 -46 0
-1 -27 -40 11 53 61 81 -57 -4 89 -23 20 80 0
-1 -27 40 -82 90 -99 -95 100 65 0
-1 27 12 17 -23 26 -28 -65 0
1 -61 -57 38 -63 -53 17 99 80 -68 37 65 0
-1 -27 40 82 86 78 29 -48 85 -19 -74 -77 -60 -55 0
-1 -27 -40 11 -53 -52 -79 -18 -96 94 64 51 -76 -97 0
-1 27 -12 34 33 7 81 -100 -42 91 -43 21 0
-1 27 12 -17 -28 -55 -88 78 -66 -8 0
1 -61 -57 38 -63 -53 17 -99 7 0
-1 -27 40 82 86 78 29 -48 -85 -76 -58 25 0
-1 27 12 17 -23 26 -28 65 0
1 -61 57 -56 38 -33 64 86 -85 0
-1 27 -12 -34 7 -21 78 -37 0
1 61 -81 92 -53 -42 45 36 -75 -34 32 -21 67 0
-1 27 -12 -34 -7 -22 -47 4 0
1 61 81 45 -35 -77 -14 0
1 -61 57 -56 -38 -81 -63 60 -54 0
-1 27 -12 34 33 -7 -68 -36 90 -95 -40 -48 6 0
1 -61 57 -56 -38 -81 63 -15 9 24 -20 -18 0
-1 -27 40 82 86 -78 36 -35 71 0
-1 27 -12 -34 -7 22 -29 -33 92 35 0
1 -61 57 -56 -38 -81 -63 -60 -83 31 -75 0
-1 27 12 -17 -28 55 80 34 15 99 45 0
-1 -27 -40 11 53 -61 -38 -33 3 14 0
-1 -27 -40 11 -53 -52 -79 -18 96 3 93 0
-1 -27 -40 11 53 61 81 57 -24 100 -25 0
1 -61 57 -56 -38 -81 -63 -60 -83 -31 0
-1 27 12 -17 28 -71 -37 89 40 2 0
-1 27 12 -17 28 71 -99 -32 0
-1 27 -12 34 33 7 81 -100 42 -49 0
1 -61 57 -56 38 33 85 -25 77 -40 -92 7 0
1 61 -81 -92 64 -89 -30 31 -21 0
1 -61 -57 -38 68 -31 -89 -48 0
1 -61 57 -56 -38 -81 63 15 -84 94 0
-1 27 -12 34 -33 60 56 -69 -3 -100 0
1 -61 57 -56 38 -33 64 86 85 -58 0
1 61 81 -45 -33 -49 -84 3 -53 0
-1 -27 -40 11 53 61 81 57 24 0
-1 27 -12 34 33 -7 -68 36 5 0
-1 -27 -40 -11 -20 82 53 -25 -93 -55 69 0
-1 -27 40 82 -86 -19 79 -55 0
-1 27 -12 -34 -7 -22 47 -36 -53 30 -20 0
-1 27 -12 34 33 7 81 -100 -42 91 43 9 -67 78 0
-1 27 12 -17 -28 55 80 34 -15 -61 0
1 61 -81 92 -53 -42 45 36 -75 34 -95 0
-1 -27 -40 -11 -20 82 53 -25 93 -76 -9 0
1 -61 57 -56 38 33 85 -25 77 -40 -92 -7 0
-1 -27 -40 -11 -20 82 53 -25 93 -76 9 0
1 -61 57 -56 -38 -81 63 15 -84 -94 -41 0
-1 27 12 -17 28 71 99 -47 88 -33 18 -90 -94 83 0
1 -61 -57 38 -63 -53 -17 -75 45 -100 47 41 -30 0
1 -61 57 -56 -38 81 -8 -95 -60 100 -7 19 0
-1 27 -12 34 -33 60 -56 -83 -8 0
-1 27 12 -17 28 71 99 47 -90 63 45 0
-1 -27 40 82 86 -78 -36 0
-1 27 -12 34 33 7 81 -100 -42 91 -43 -21 0
-1 27 12 17 -23 26 28 0
1 61 81 -45 33 57 -53 7 0
-1 27 -12 34 33 7 81 -100 42 49 0
-1 27 12 -17 -28 -55 -88 78 66 0
-1 -27 -40 11 53 -61 -38 -33 3 -14 0
1 -61 57 -56 38 33 85 25 20 84 0
1 -61 -57 -38 -68 -82 -50 0
1 61 -81 92 -53 -42 -45 16 -97 -14 31 0
1 -61 57 56 68 11 0
-1 -27 -40 11 -53 52 -56 76 0
1 61 81 -45 33 -57 82 -6 -21 0
-1 27 -12 34 33 7 81 -100 -42 91 43 9 67 0
1 -61 -57 38 63 -88 0
-1 -27 40 82 -86 19 66 35 63 71 0
-1 -27 -40 -11 -20 82 -53 -38 0
-1 27 12 -17 -28 55 80 34 -15 61 24 0
-1 -27 -40 -11 -20 82 53 -25 93 76 -43 -12 0
1 -61 57 -56 38 -33 64 86 85 58 0
-1 -27 -40 -11 -20 82 53 25 8 0
-1 -27 40 82 -86 -19 -79 10 90 0
1 -61 -57 38 -63 -53 -17 -75 -45 0
-1 27 -12 34 -33 60 -56 83 16 14 -35 0
-1 -27 -40 11 53 61 -81 9 0
1 -61 57 -56 38 33 85 25 20 -84 -78 0
-1 27 12 -17 -28 55 80 -34 0
-1 -27 40 82 86 78 -29 22 17 0
1 61 81 -45 33 57 -53 -7 0
-1 -27 -40 11 -53 -52 -79 18 68 -21 -9 46 0
1 -61 -57 38 -63 -53 17 99 80 68 70 66 0
-1 27 -12 34 33 -7 -68 36 -5 0
1 61 81 -45 33 57 53 0
1 61 81 45 -35 77 -34 -32 -96 0
-1 27 -12 34 33 7 -81 -59 -49 0
1 61 -81 -92 -64 -44 52 0
-1 -27 40 82 86 78 29 -48 85 -19 -74 -77 -60 55 0
-1 27 12 -17 28 71 -99 32 -30 0
-1 -27 40 82 86 78 29 48 -49 -32 6 0
1 61 81 45 -35 77 34 0
-1 27 -12 34 33 7 81 100 -44 -57 0
1 61 -81 92 -53 -42 45 -36 -77 -10 25 88 0
-1 -27 -40 11 53 61 81 -57 -4 89 -23 -20 0
-1 -27 -40 11 -53 52 56 32 -38 0
1 61 -81 -92 -64 44 -30 -100 82 0
1 -61 -57 -38 68 31 74 -99 51 59 0
1 61 -81 92 -53 -42 -45 16 -97 -14 -31 -60 0
1 -61 -57 38 -63 -53 17 99 -80 25 0
-1 27 -12 -34 7 -21 78 37 0
-1 27 -12 34 33 -7 -68 -36 -90 -52 0
1 61 -81 92 -53 -42 -45 -16 70 -2 -76 85 0
1 -61 57 -56 -38 -81 63 -15 9 -24 0
-1 27 12 -17 -28 -55 -88 -78 -46 -6 0
1 -61 -57 38 -63 -53 17 99 80 68 -70 -81 0
-1 27 12 -17 -28 -55 -88 -78 46 0
-1 -27 -40 11 -53 -52 -79 18 68 -21 9 0
-1 -27 40 82 -86 -19 -79 -10 -32 0
-1 27 12 -17 28 71 99 -47 88 33 -83 -60 0
1 -61 -57 38 -63 53 54 0
1 61 -81 92 -53 -42 -45 -16 70 -2 76 95 -9 0
1 -61 57 -56 38 33 -85 45 -75 0
-1 27 -12 34 -33 60 56 -69 -3 100 6 0
-1 -27 40 -82 -90 80 -84 74 66 89 0
1 61 -81 92 -53 -42 -45 -16 70 -2 76 95 9 0
1 61 81 -45 -33 -49 -84 3 53 0
-1 27 -12 -34 -7 22 29 73 -99 0
-1 -27 40 82 -86 19 -66 14 -57 0
-1 27 -12 -34 -7 22 -29 -33 92 -35 0
-1 27 -12 34 33 7 -81 -59 49 0
-1 -27 -40 11 53 -61 -38 33 82 -36 -46 0
1 -61 57 -56 -38 -81 63 -15 -9 0
-1 27 12 -17 28 71 99 -47 88 -33 -18 0
-1 -27 40 82 -86 -19 79 55 -67 0
1 -61 -57 -38 68 31 74 99 -30 0
1 -61 -57 38 -63 53 -54 0
1 61 -81 92 -53 42 -65 10 -89 -48 0
1 61 81 -45 33 -57 -82 -97 -47 0
-1 27 -12 34 33 7 81 -100 -42 91 43 -9 0
-1 -27 -40 -11 -20 82 53 -25 -93 55 19 0
-1 27 -12 34 -33 60 56 -69 3 -28 -6 0
-1 27 12 -17 -28 -55 88 0
-1 27 12 -17 28 -71 -37 89 40 -2 -74 -13 34 38 0
-1 -27 -40 -11 20 41 61 0
-1 -27 -40 11 -53 -52 -79 18 -68 -3 -83 0
1 61 -81 92 -53 -42 45 -36 -77 -10 -25 0
-1 27 -12 34 33 -7 -68 -36 90 -95 40 -69 96 0
1 -61 57 -56 38 -33 -64 -53 -23 0
-1 27 -12 34 -33 60 56 -69 3 28 47 0
1 61 -81 -92 64 89 94 0
-1 -27 -40 11 -53 -52 -79 -18 -96 94 64 51 -76 97 0
-1 27 12 -17 -28 55 80 34 15 -99 0
1 -61 -57 38 -63 -53 -17 75 0
-1 -27 40 82 86 78 29 48 -49 32 0
-1 27 -12 34 33 -7 -68 -36 90 -95 40 69 75 0
1 61 81 45 35 84 0
-1 -27 -40 11 -53 -52 79 86 4 0
1 -61 -57 38 -63 -53 17 -99 -7 62 -66 0
-1 -27 40 -82 -90 80 -84 -74 -38 0
1 -61 -57 -38 68 31 -74 -9 0
-1 -27 40 -82 90 99 20 -96 63 0
1 -61 -57 -38 68 31 -74 9 0
-1 -27 -40 11 -53 -52 -79 -18 96 3 -93 73 0
-1 -27 40 -82 -90 -80 -3 -18 -31 0
-1 -27 -40 11 53 61 81 -57 4 0
-1 -27 -40 11 -53 52 -56 -76 -31 0
1 -61 57 -56 -38 81 -8 -95 60 0
-1 27 -12 34 33 7 81 -100 -42 -91 0
1 -61 -57 38 -63 -53 17 99 80 68 70 -66 0
1 61 -81 92 53 9 -23 12 -99 0
1 -61 -57 -38 68 31 74 -99 -51 0
-1 27 -12 34 33 7 81 100 44 0
-1 -27 -40 -11 -20 -82 0
1 -61 -57 -38 -68 82 0
-1 27 -12 -34 -7 22 -29 33 15 0
1 -61 57 -56 -38 81 -8 -95 -60 100 -7 -19 78 -13 0
-1 27 -12 -34 -7 22 29 -73 0
1 -61 57 -56 -38 81 8 34 79 0
-1 -27 -40 11 -53 52 -56 -76 31 42 0
1 61 -81 92 -53 -42 -45 16 -97 14 41 0
1 -61 -57 38 -63 -53 -17 -75 45 -100 47 -41 0
1 61 -81 92 -53 42 -65 10 89 -72 43 0
1 -61 -57 38 -63 -53 -17 -75 45 -100 47 41 30 0
-1 27 -12 -34 -7 -22 47 -36 -53 -30 0
-1 27 -12 34 33 -7 68 37 -84 -80 0
-1 -27 40 -82 90 99 -20 58 31 0
-1 -27 -40 -11 -20 82 53 25 -8 21 -50 0
1 61 -81 -92 -64 44 30 -100 0
-1 27 -12 -34 7 21 81 -100 0
1 61 81 -45 33 -57 82 -6 21 0
-1 -27 40 -82 -90 -80 3 69 -52 0
1 61 -81 92 -53 -42 -45 16 97 -4 87 17 0
-1 27 -12 34 -33 60 -56 83 16 -14 0
-1 27 12 -17 28 -71 -37 -89 11 81 0
-1 -27 40 82 86 78 -29 -22 -74 -52 -32 0
-1 -27 -40 11 53 61 81 57 -24 100 25 0
-1 -27 40 82 -86 19 66 -35 0
-1 -27 -40 11 -53 -52 -79 18 68 21 0
-1 -27 40 82 86 78 -29 22 -17 0
-1 27 12 -17 28 -71 -37 -89 11 -81 0
-1 -27 40 -82 -90 80 84 -96 59 77 20 0
1 -61 57 -56 -38 -81 63 15 84 0
1 -61 57 -56 -38 81 8 34 -79 0
1 -61 57 -56 -38 -81 63 15 -84 -94 41 0
1 61 -81 92 -53 -42 45 36 -75 34 95 -85 8 0
-1 -27 -40 11 -53 -52 -79 -18 -96 94 64 -51 0
1 61 -81 -92 -64 44 -30 -100 -82 -25 0
1 -61 57 -56 -38 -81 63 -15 9 24 -20 18 0
-1 -27 -40 11 53 -61 -38 33 82 -36 46 3 0
1 -61 57 -56 38 33 -85 -45 0
1 61 -81 92 -53 42 -65 -10 -3 0
-1 27 12 -17 -28 55 80 34 -15 61 -24 0
-1 -27 40 82 86 78 29 -48 85 -19 74 -22 0
-1 27 12 -17 28 -71 -37 -89 -11 0
-1 -27 -40 11 53 -61 38 -57 0
-1 27 -12 34 -33 60 56 -69 3 -28 6 0
-1 27 -12 -34 7 -21 -78 61 -48 22 0
-1 27 -12 34 33 7 -81 59 0
1 -61 -57 -38 -68 -82 50 0
-1 27 12 -17 28 71 -99 32 30 0
-1 27 12 -17 -28 55 80 34 15 99 -45 0
-1 -27 -40 11 -53 52 56 -32 -51 0
1 61 -81 92 -53 42 65 34 -88 0
1 -61 57 -56 -38 81 -8 -95 -60 100 -7 -19 -78 0
1 -61 57 56 68 -11 92 0
1 61 -81 92 -53 -42 -45 16 97 -4 -87 0
-1 -27 40 -82 -90 80 84 96 15 94 -68 -43 0
-1 -27 -40 -11 -20 82 53 -25 -93 55 -19 0
1 61 -81 -92 64 89 -94 -30 0
-1 -27 40 -82 90 99 20 -96 -63 -3 -77 38 -31 -55 0
-1 27 -12 -34 -7 -22 47 36 -93 0
1 61 -81 92 -53 -42 -45 -16 70 2 96 0
