c NeuroCodeBench 2.0 CNF formula with verdict Unsat
p cnf 29 216
1 -7 -22 -5 -12 -4 19 3 -29 0
1 -7 -22 5 -6 -9 16 -17 0
1 -7 -22 -5 -12 -4 -19 -29 -6 0
1 -7 22 -8 16 -25 -24 -18 29 0
1 -7 22 8 2 -11 -17 -13 0
1 -7 22 8 -2 5 -19 0
1 7 11 -5 -22 2 -20 -26 0
-1 5 -4 15 29 -27 11 0
1 -7 -22 -5 12 -25 11 14 26 -3 -4 0
1 -7 -22 -5 -12 -4 19 -3 0
1 -7 22 -8 16 -25 -24 18 0
1 7 11 -5 22 27 -6 21 -10 -8 0
1 -7 -22 -5 -12 4 -18 0
-1 5 4 -3 -7 -2 9 -10 28 0
-1 5 4 3 -26 0
1 -7 -22 5 6 -27 -18 3 0
1 7 11 -5 -22 2 -20 26 -19 -29 0
-1 -5 -7 26 8 -14 0
1 -7 -22 -5 12 -25 11 14 -26 0
1 -7 -22 -5 -12 4 18 -10 -6 2 -23 0
-1 -5 -7 26 -8 -21 -27 -14 0
1 7 11 -5 22 27 -6 21 10 0
1 -7 -22 -5 12 -25 -11 -18 6 0
-1 5 -4 15 -29 19 -10 -14 -3 27 0
1 -7 22 -8 16 25 -27 -3 0
1 7 11 -5 -22 -2 8 4 17 -18 28 -26 -24 0
-1 -5 7 -26 -21 -20 25 0
1 -7 22 8 -2 -5 -12 -26 -27 0
-1 -5 -7 -26 15 23 0
1 7 -11 -15 22 13 -20 8 9 0
1 -7 -22 -5 -12 4 18 -10 6 21 0
-1 -5 -7 26 8 14 -12 -25 -11 -6 0
-1 5 4 -3 -7 -2 -9 16 -23 28 0
-1 5 -4 15 -29 19 10 -24 0
-1 -5 -7 -26 -15 9 0
-1 5 -4 -15 12 -19 -28 0
-1 5 -4 -15 -12 16 -2 -3 -19 0
1 -7 22 -8 16 25 -27 3 -4 -24 -29 0
-1 -5 7 -26 21 -16 0
1 -7 -22 -5 -12 -4 -19 29 -6 0
1 7 11 -5 -22 -2 8 4 17 -18 28 -26 24 0
-1 5 -4 15 -29 19 -10 -14 -3 -27 -17 18 0
-1 5 -4 -15 12 19 -8 0
-1 5 -4 -15 -12 16 -2 3 10 -29 0
-1 -5 -7 26 8 14 -12 25 -11 10 -4 20 0
1 7 -11 -15 22 -13 0
1 -7 -22 5 -6 9 0
1 7 11 -5 -22 2 20 -17 0
-1 5 -4 15 -29 19 10 24 0
-1 5 -4 -15 -12 -16 -14 0
-1 5 4 -3 -7 2 -14 0
-1 -5 -7 26 8 14 -12 25 -11 -10 0
1 -7 22 8 -2 5 19 -6 0
1 -7 -22 5 -6 -9 -16 0
-1 5 -4 15 -29 19 -10 -14 -3 -27 -17 -18 6 0
1 7 -11 -15 -22 5 27 -19 8 -9 0
1 7 11 -5 -22 2 -20 26 19 -27 -13 0
1 -7 22 8 -2 -5 -12 26 0
1 7 -11 -15 -22 5 27 -19 8 9 0
-1 5 -4 15 -29 -19 0
-1 5 4 3 26 -11 -25 0
1 -7 -22 -5 12 -25 -11 18 -19 27 -15 0
1 -7 22 8 -2 5 19 6 18 0
1 -7 -22 5 6 -27 18 0
-1 5 -4 15 -29 19 -10 14 0
1 -7 22 -8 16 -25 24 0
-1 -5 7 -26 21 16 0
-1 5 -4 -15 -12 -16 14 -2 0
1 7 11 -5 22 27 6 23 0
1 7 -11 15 -6 -5 28 0
1 -7 22 8 2 11 -4 -28 0
-1 5 -4 -15 -12 16 2 -29 25 -20 0
1 -7 -22 -5 12 25 0
1 -7 -22 -5 12 -25 11 14 26 3 0
1 7 11 -5 22 27 6 -23 0
1 7 11 -5 22 -27 6 -29 12 13 -15 0
1 7 -11 -15 22 13 20 0
1 -7 -22 -5 12 -25 -11 -18 -6 0
1 7 -11 -15 -22 5 27 -19 -8 6 0
-1 -5 -7 26 -8 21 22 -28 0
1 7 11 -5 -22 -2 8 4 17 -18 -28 -19 0
1 7 11 5 18 14 0
1 7 11 -5 22 -27 6 -29 12 13 15 0
-1 -5 -7 26 -8 -21 27 0
1 7 -11 15 -6 5 -24 25 0
-1 -5 -7 26 8 14 -12 25 11 0
-1 -5 -7 26 8 14 12 -27 0
1 -7 -22 -5 12 -25 11 -14 0
-1 5 4 -3 7 -14 -29 -10 0
1 7 -11 -15 -22 5 27 19 -26 8 0
-1 5 4 -3 7 -14 29 2 -10 0
1 7 11 -5 -22 2 20 17 0
-1 5 4 3 26 -11 25 0
1 -7 -22 -5 12 -25 -11 18 -19 -27 0
1 -7 22 8 -2 -5 -12 -26 27 0
1 -7 -22 -5 12 -25 -11 18 -19 27 15 -26 0
-1 -5 -7 26 8 14 -12 25 -11 10 4 21 0
1 -7 22 -8 16 25 -27 3 -4 24 0
-1 5 -4 15 29 27 0
1 -7 -22 -5 -12 4 18 -10 -6 -2 24 17 0
-1 -5 -7 -26 15 -23 16 0
-1 5 -4 -15 -12 -16 14 2 0
-1 5 -4 15 -29 19 -10 -14 -3 -27 -17 -18 -6 -25 0
-1 5 -4 -15 -12 16 2 -29 -25 0
1 7 11 -5 22 27 -6 21 -10 8 0
1 -7 -22 -5 -12 -4 19 3 29 0
1 7 -11 -15 -22 5 27 19 -26 -8 0
-1 5 -4 15 -29 19 -10 -14 -3 -27 17 -24 0
-1 5 -4 15 -29 19 -10 -14 3 0
1 -7 -22 -5 -12 4 18 -10 -6 -2 24 -17 0
-1 5 4 -3 7 -14 -29 10 0
1 -7 22 -8 16 -25 -24 -18 -29 0
-1 5 4 -3 7 -14 29 2 10 0
1 7 -11 -15 -22 5 -27 -9 0
1 -7 -22 -5 -12 4 18 10 -21 -25 0
1 7 -11 -15 22 13 -20 -8 0
1 -7 -22 -5 -12 4 18 -10 6 -21 -9 14 0
1 -7 -22 -5 -12 4 18 -10 -6 2 23 13 0
-1 5 -4 -15 -12 16 -2 -3 19 0
1 7 -11 -15 -22 5 -27 9 0
1 7 11 -5 22 -27 -6 0
1 7 11 -5 -22 -2 8 -4 28 14 0
-1 5 -4 -15 12 -19 28 0
-1 5 -4 -15 12 19 8 -17 -25 0
-1 5 -4 15 -29 19 -10 -14 -3 -27 17 24 0
1 7 11 -5 22 -27 6 -29 -12 -18 0
1 7 -11 -15 -22 5 27 -19 -8 -6 0
-1 5 -4 15 29 -27 -11 0
-1 -5 -7 26 -8 -21 -27 14 -24 0
-1 5 -4 -15 -12 16 -2 3 -10 -24 0
1 7 11 -5 -22 -2 8 -4 28 -14 0
-1 -5 -7 -26 15 -23 -16 0
1 -7 22 -8 16 25 -27 3 4 14 0
1 7 11 -5 -22 -2 8 4 -17 23 0
1 7 11 -5 -22 -2 8 -4 -28 0
-1 -5 7 26 -25 0
-1 5 4 -3 -7 -2 -9 -16 -24 0
-1 5 4 -3 -7 -2 9 10 0
1 -7 -22 -5 -12 4 18 -10 6 -21 9 0
-1 5 -4 15 -29 19 -10 -14 -3 -27 -17 -18 -6 25 0
1 -7 22 -8 16 25 27 0
1 -7 -22 -5 12 -25 11 14 26 -3 4 0
1 -7 22 8 2 -11 -17 13 0
1 -7 22 8 2 11 4 6 0
-1 5 4 3 26 11 0
-1 -5 -7 26 -8 21 -22 0
-1 -5 -7 26 -8 -21 -27 14 24 0
1 -7 22 -8 16 25 -27 3 -4 -24 29 0
-1 5 -4 -15 -12 16 -2 3 -10 24 0
1 -7 -22 -5 -12 4 18 -10 -6 -2 -24 0
1 7 -11 15 -6 5 -24 -25 23 0
-1 5 4 -3 -7 -2 9 -10 -28 0
1 7 11 5 18 -14 0
1 7 11 -5 -22 -2 -8 0
1 7 -11 15 -6 5 -24 -25 -23 0
1 -7 -22 -5 12 -25 -11 18 -19 27 15 26 0
1 7 11 -5 -22 2 -20 26 19 27 0
-1 5 4 -3 -7 -2 -9 -16 24 0
1 -7 -22 -5 -12 4 18 10 -21 25 0
1 -7 22 8 2 11 -4 28 0
1 -7 22 -8 -16 0
-1 5 -4 -15 12 19 8 -17 25 0
1 7 -11 15 -6 5 24 0
-1 -5 -7 26 8 14 12 27 0
-1 -5 7 -26 -21 20 0
1 7 11 -5 -22 -2 8 4 17 -18 -28 19 0
-1 5 4 -3 -7 -2 -9 16 -23 -28 0
-1 -5 -7 26 -8 21 22 28 0
-1 -5 -7 26 8 14 -12 25 -11 10 -4 -20 0
1 -7 22 8 2 -11 17 0
1 -7 -22 -5 -12 -4 -19 29 6 -25 24 0
-1 -5 7 26 25 0
1 -7 -22 -5 -12 -4 -19 -29 6 0
1 7 11 -5 22 27 -6 -21 0
-1 5 -4 -15 -12 16 2 -29 25 20 0
1 7 11 -5 -22 -2 8 4 17 -18 28 26 0
1 7 -11 -15 -22 -5 0
1 7 -11 15 6 0
-1 -5 -7 26 8 14 -12 -25 11 0
1 -7 -22 5 6 -27 -18 -3 0
1 7 11 -5 -22 2 -20 26 -19 29 0
-1 5 -4 -15 -12 16 2 29 18 0
-1 5 4 -3 7 14 0
1 -7 -22 -5 -12 4 18 -10 6 -21 -9 -14 0
1 7 -11 -15 22 13 -20 8 -9 0
-1 5 -4 -15 -12 16 2 29 -18 -24 0
1 -7 -22 5 6 27 0
1 7 11 -5 22 -27 6 29 0
-1 -5 -7 -26 -15 -9 0
1 7 11 -5 22 -27 6 -29 -12 18 0
-1 5 4 -3 -7 -2 -9 16 23 0
1 -7 22 8 2 11 4 -6 0
1 7 11 -5 -22 2 -20 26 19 -27 13 0
1 7 11 -5 -22 -2 8 4 -17 -23 0
1 -7 22 8 -2 -5 12 0
1 -7 -22 -5 -12 4 18 10 21 0
1 -7 22 -8 16 25 -27 3 4 -14 0
1 7 11 -5 -22 -2 8 4 17 18 0
-1 -5 -7 26 8 14 -12 -25 -11 6 0
-1 -5 -7 26 8 14 -12 25 -11 10 4 -21 0
1 7 -11 15 -6 -5 -28 0
-1 5 -4 -15 -12 16 2 29 -18 24 0
1 -7 -22 -5 -12 4 18 -10 -6 2 23 -13 0
-1 5 4 -3 7 -14 29 -2 0
-1 5 4 -3 -7 2 14 0
1 7 11 5 -18 0
1 -7 -22 -5 -12 -4 -19 29 6 -25 -24 0
-1 5 -4 -15 12 19 8 17 0
1 -7 -22 5 -6 -9 16 17 0
1 -7 -22 -5 12 -25 -11 18 19 0
-1 5 -4 -15 -12 16 -2 3 10 29 0
1 7 11 -5 22 -27 6 -29 12 -13 0
-1 -5 7 -26 -21 -20 -25 0
1 7 -11 -15 -22 5 27 19 26 0
1 -7 -22 -5 -12 -4 -19 29 6 25 0
1 -7 22 8 -2 5 19 6 -18 0
