c NeuroCodeBench 2.0 CNF formula with verdict Unsat
p cnf 10 56
1 -6 -5 -10 -7 2 0
1 6 -3 -10 8 -9 2 -4 0
1 6 -3 -10 -8 -4 9 7 0
1 6 -3 -10 -8 4 -9 0
1 6 3 -4 -2 0
-1 4 5 -9 -8 0
1 6 -3 10 4 -9 5 0
1 -6 5 8 0
1 6 3 4 -9 7 0
1 -6 -5 10 2 4 -3 0
1 -6 -5 10 2 4 3 0
1 -6 -5 10 2 -4 0
1 6 -3 -10 8 -9 -2 4 0
1 -6 -5 -10 7 -9 0
1 -6 -5 -10 -7 -2 0
1 6 3 -4 2 8 -9 0
-1 4 -5 -6 -9 -10 0
1 6 -3 -10 -8 4 9 7 0
1 6 3 -4 2 -8 0
-1 -4 -9 -10 8 -6 0
1 6 3 -4 2 8 9 0
1 6 -3 10 4 -9 -5 0
1 -6 -5 -10 7 9 0
-1 -4 -9 -10 8 6 0
-1 -4 9 2 -10 0
1 6 -3 -10 8 -9 2 4 0
-1 -4 -9 10 0
1 6 -3 10 4 9 0
1 6 -3 10 -4 9 8 -2 5 0
1 6 -3 -10 8 9 4 0
1 6 -3 -10 8 9 -4 5 0
-1 4 -5 6 0
-1 -4 -9 -10 -8 0
1 6 -3 10 -4 -9 5 0
1 6 -3 10 -4 9 -8 0
1 6 -3 -10 -8 -4 9 -7 0
1 6 3 4 9 8 0
-1 -4 9 -2 -3 0
-1 4 -5 -6 -9 10 0
1 6 3 4 -9 -7 0
1 6 -3 -10 -8 -4 -9 0
1 6 -3 -10 8 9 -4 -5 0
-1 -4 9 -2 3 0
1 6 -3 10 -4 9 8 -2 -5 0
-1 4 -5 -6 9 0
-1 4 5 9 0
-1 -4 9 2 10 0
1 6 -3 -10 8 -9 -2 -4 0
-1 4 5 -9 8 0
1 6 -3 10 -4 -9 -5 0
1 -6 -5 10 -2 0
1 6 -3 10 -4 9 8 2 0
1 -6 5 -8 -3 0
1 -6 5 -8 3 0
1 6 -3 -10 -8 4 9 -7 0
1 6 3 4 9 -8 0
