c NeuroCodeBench 2.0 CNF formula with verdict Unsat
p cnf 71 565
1 28 -53 -69 48 46 47 -55 61 0
1 -28 70 58 35 -11 3 62 -56 -38 0
-1 -3 56 -53 -63 -61 4 0
1 28 -53 -69 48 -46 -34 27 10 -47 -42 -55 -29 -6 -12 0
-1 -3 -56 -39 27 18 -71 -8 0
1 28 53 69 9 -43 -21 0
1 28 53 -69 12 67 -37 57 2 -26 34 0
1 28 53 -69 -12 54 -33 57 60 -37 5 39 0
1 -28 -70 -43 11 -27 69 53 0
1 -28 -70 43 6 -48 -4 -3 -65 45 5 0
1 -28 -70 -43 -11 -64 -5 2 -22 8 63 59 0
1 28 53 -69 -12 54 -33 -57 0
1 -28 -70 43 6 -48 4 -20 0
1 28 53 -69 12 67 37 -19 -5 0
-1 -3 56 53 -51 8 21 -17 57 -39 -68 59 34 -4 0
1 -28 -70 43 -6 -63 11 38 64 -20 -60 0
1 -28 70 -58 -66 -50 45 24 25 -30 -49 20 0
1 -28 -70 43 6 -48 -4 3 0
1 -28 70 -58 66 -23 0
1 -28 70 58 35 11 -59 -46 -61 40 0
-1 -3 -56 -39 -27 20 -33 63 0
1 -28 -70 -43 11 27 -14 21 29 0
1 28 53 -69 -12 54 33 -56 38 -22 30 0
1 -28 -70 43 6 48 11 8 65 -25 69 0
1 28 -53 69 67 -65 -13 6 36 9 23 32 0
-1 -3 -56 39 -58 70 68 36 -37 5 -6 0
1 28 53 -69 12 67 37 19 -51 -70 -23 -56 0
1 -28 -70 43 -6 63 66 -52 -32 62 0
1 28 -53 69 -67 32 0
1 28 53 69 -9 -71 -60 0
-1 -3 -56 39 -58 70 68 36 37 -11 0
1 -28 70 -58 -66 -50 45 24 -25 18 57 -54 -9 51 0
1 -28 -70 -43 11 27 -14 -21 -35 38 10 -58 -52 0
1 28 53 -69 12 67 -37 57 2 26 35 0
1 -28 70 -58 -66 -50 45 -24 -31 -67 60 11 -48 0
1 -28 70 -58 -66 -50 -45 64 -20 -62 0
1 28 53 -69 12 67 37 19 -51 -70 -23 56 0
-1 -3 56 -53 -63 61 48 37 -57 -28 -39 67 -69 0
-1 3 -69 -50 -53 38 -6 0
1 28 53 69 9 43 -19 0
1 -28 70 58 -35 2 20 39 0
1 28 -53 -69 48 -46 -34 27 10 -47 -42 -55 29 -12 -71 0
-1 -3 -56 39 58 -60 47 51 2 0
-1 -3 56 53 -51 8 21 17 -28 6 -5 0
1 -28 -70 -43 11 27 -14 -21 -35 38 10 58 0
1 28 -53 69 67 -65 -13 -6 -40 0
-1 3 69 -67 -22 49 63 40 -37 -15 0
1 -28 -70 43 6 -48 -4 -3 -65 45 -5 0
1 -28 -70 43 -6 63 -66 4 37 0
1 -28 70 58 35 11 59 -24 7 0
1 -28 -70 -43 -11 -64 -5 -2 60 -52 0
-1 -3 56 53 -51 8 21 -17 -57 0
1 -28 70 -58 -66 -50 -45 64 20 -5 62 0
-1 -3 56 -53 -63 61 48 37 -57 -28 39 -4 0
1 28 53 -69 -12 54 -33 57 -60 26 0
-1 -3 -56 39 58 -60 -47 12 26 0
-1 3 69 -67 -22 -49 56 -34 -40 0
1 28 53 -69 12 67 -37 -57 56 -68 21 0
1 28 53 -69 -12 54 -33 57 60 37 8 0
-1 3 69 -67 -22 49 63 40 37 0
-1 3 -69 50 -53 -40 23 16 17 57 0
1 28 53 -69 12 67 -37 57 2 26 -35 -3 0
1 -28 -70 43 6 -48 4 20 34 0
-1 -3 -56 39 -58 70 68 36 37 11 0
1 -28 -70 43 6 -48 -4 -3 65 -14 25 -71 0
1 -28 -70 43 -6 -63 11 38 -64 -37 0
-1 -3 56 53 51 0
-1 -3 -56 39 -58 -70 38 67 -18 0
-1 -3 56 53 -51 8 -21 61 -39 -26 9 -68 17 -40 60 -6 0
1 -28 70 -58 66 23 -4 0
1 -28 -70 -43 11 27 -14 -21 -35 -38 63 -16 62 30 0
1 -28 -70 43 -6 -63 11 38 -64 37 -45 53 0
-1 -3 56 -53 -63 -61 -4 32 -67 66 0
-1 3 -69 -50 53 48 28 0
1 -28 70 -58 -66 -50 45 24 -25 18 57 -54 9 -53 0
1 -28 -70 43 6 48 11 8 65 25 -18 -67 0
1 -28 -70 -43 -11 64 -38 -55 5 6 30 0
1 28 53 -69 -12 -54 -21 9 0
1 -28 -70 -43 -11 64 38 36 58 7 -30 0
1 -28 70 -58 66 23 4 -63 12 0
1 -28 -70 43 -6 -63 11 38 64 -20 60 0
1 -28 70 58 35 11 -59 46 0
1 -28 70 58 35 11 59 -24 -7 0
1 -28 -70 43 -6 -63 11 -38 50 29 0
1 28 -53 69 67 -65 -13 -6 40 0
1 28 -53 -69 48 -46 -34 27 10 -47 -42 -55 29 12 0
1 28 -53 -69 -48 -32 -5 -13 -45 -15 43 0
1 -28 70 58 -35 2 -20 47 17 71 0
-1 3 69 -67 -22 -49 56 34 71 0
1 28 -53 -69 -48 -32 -5 13 0
1 28 -53 -69 48 46 -47 -44 30 0
1 28 53 -69 12 67 37 -19 5 44 -27 0
1 28 -53 69 67 65 -12 6 -56 0
-1 3 69 -67 22 70 28 -61 0
1 -28 -70 -43 11 -27 69 -53 -34 -59 0
1 28 53 -69 12 -67 47 -51 60 -21 0
-1 3 69 -67 -22 -49 -56 -24 0
-1 -3 56 53 -51 8 -21 61 -39 -26 9 -68 17 40 0
1 -28 -70 43 6 -48 -4 -3 65 14 -64 -67 0
1 -28 -70 -43 -11 64 -38 -55 5 -6 33 0
1 -28 -70 43 -6 -63 11 38 -64 37 -45 -53 -17 0
1 -28 70 -58 66 23 4 63 0
1 -28 -70 -43 11 27 14 0
-1 -3 56 53 -51 -8 -60 27 0
1 28 -53 -69 -48 32 54 -9 23 -49 0
1 28 53 69 -9 -71 60 0
1 28 -53 69 67 65 -12 6 56 0
1 -28 -70 -43 -11 64 38 -36 30 0
1 -28 70 58 -35 -2 -6 71 0
1 -28 -70 -43 -11 64 -38 -55 -5 25 -32 0
-1 -3 56 53 -51 8 21 17 -28 -6 0
-1 -3 56 53 -51 8 -21 -61 26 -42 0
1 28 -53 69 67 -65 13 5 54 -16 -31 55 0
-1 -3 56 -53 -63 -61 -4 32 67 24 0
1 -28 -70 43 -6 -63 -11 14 -24 0
1 -28 70 -58 -66 -50 45 -24 31 19 -54 -27 -4 0
-1 -3 56 53 -51 8 21 17 28 70 36 48 -37 0
-1 -3 56 53 -51 8 -21 61 -39 -26 9 68 69 0
-1 -3 -56 39 -58 -70 38 -67 0
-1 3 69 -67 -22 -49 -56 24 -65 -29 0
1 28 -53 -69 48 -46 -34 -27 -59 71 -39 0
-1 -3 56 -53 -63 61 -48 -44 -13 0
-1 -3 -56 -39 27 18 71 20 -6 -24 0
-1 -3 56 53 -51 8 21 -17 57 39 40 -71 0
-1 -3 56 -53 -63 61 48 37 -57 28 13 0
-1 -3 56 -53 -63 61 48 37 -57 -28 -39 -67 -60 0
1 28 -53 -69 48 46 47 55 14 0
1 28 -53 -69 48 46 -47 -44 -30 10 0
-1 -3 56 53 -51 8 21 -17 57 39 -40 0
1 -28 70 58 -35 -2 6 51 55 0
-1 -3 -56 -39 -27 -20 52 -55 -18 0
1 -28 -70 -43 11 27 -14 -21 35 15 0
1 28 53 -69 -12 54 33 56 -41 0
1 28 -53 -69 -48 32 54 -9 23 49 -50 0
1 -28 -70 43 -6 -63 -11 -14 25 0
1 -28 70 58 35 -11 3 -62 -17 0
-1 3 69 67 -45 13 -35 0
1 28 53 -69 12 67 -37 -57 56 -68 -21 0
1 -28 -70 43 6 -48 -4 -3 65 14 -64 67 0
-1 3 69 -67 22 70 -28 0
1 -28 -70 -43 11 27 -14 -21 -35 -38 63 -16 62 -30 0
1 -28 -70 -43 -11 64 -38 -55 5 6 -30 0
-1 3 -69 50 -53 40 -52 -34 0
1 28 -53 -69 48 -46 -34 27 10 -47 -42 -55 -29 6 0
-1 -3 56 53 -51 8 -21 61 -39 26 -25 -34 0
1 -28 70 -58 -66 50 25 35 -2 0
1 28 53 -69 -12 54 -33 57 60 37 -8 55 0
-1 -3 56 -53 -63 61 -48 44 23 10 0
1 28 -53 -69 -48 -32 5 71 14 0
1 28 -53 -69 -48 -32 5 -71 10 0
1 28 53 69 -9 71 -22 -65 14 0
1 28 -53 -69 -48 -32 -5 -13 45 31 17 -9 0
-1 3 -69 50 -53 -40 -23 33 0
1 28 -53 -69 -48 -32 -5 -13 45 31 17 9 0
-1 -3 -56 -39 27 -18 49 58 -57 19 0
-1 -3 56 -53 63 60 -61 46 -43 -13 -29 0
-1 -3 56 -53 -63 61 48 -37 39 7 0
-1 3 -69 50 -53 40 52 -30 -36 0
-1 -3 56 53 -51 8 -21 61 -39 26 25 -46 0
1 -28 -70 43 -6 63 -66 4 -37 -48 0
-1 -3 56 -53 -63 -61 -4 32 -67 -66 0
1 -28 70 58 -35 2 20 -39 26 0
-1 -3 56 -53 -63 61 -48 44 -23 0
1 -28 70 -58 -66 -50 45 24 -25 18 57 -54 9 53 0
-1 3 -69 -50 53 -48 8 0
1 28 53 -69 -12 -54 -21 -9 33 -32 -18 -62 0
1 -28 -70 -43 -11 -64 -5 2 22 0
1 -28 70 -58 -66 50 -25 0
1 28 53 -69 12 -67 -47 -63 -14 -24 -35 2 0
-1 3 -69 50 53 0
-1 -3 -56 -39 27 18 71 -20 25 0
1 -28 -70 -43 -11 64 -38 -55 -5 -25 -29 0
1 28 -53 69 67 -65 -13 6 36 -9 0
1 28 -53 69 67 65 12 27 41 13 33 0
1 28 -53 -69 -48 32 54 -9 -23 40 0
1 28 -53 -69 48 46 47 55 -14 0
1 28 53 -69 -12 54 33 56 41 66 -30 -25 0
1 28 -53 69 67 -65 13 -5 54 34 0
1 -28 70 -58 -66 -50 45 24 -25 18 57 -54 -9 -51 0
-1 -3 56 -53 -63 61 48 -37 39 -7 0
1 28 53 -69 -12 54 -33 57 -60 -26 0
-1 -3 -56 39 58 -60 -47 12 -26 0
1 -28 -70 -43 -11 -64 -5 2 -22 -8 -39 62 0
-1 3 69 -67 22 -70 52 18 7 -11 0
-1 -3 56 -53 63 60 -61 -46 -23 -13 0
1 -28 -70 43 6 -48 -4 -3 65 -14 25 71 -18 0
1 28 -53 69 67 -65 13 5 -54 0
-1 -3 56 -53 -63 61 48 37 57 -49 5 0
-1 -3 -56 -39 -27 20 33 -8 35 0
1 -28 -70 -43 -11 64 -38 -55 -5 25 32 -9 0
-1 -3 56 -53 -63 61 48 37 -57 -28 -39 -67 60 0
1 28 -53 -69 -48 32 -54 68 3 0
1 -28 -70 -43 -11 64 -38 -55 -5 25 32 9 0
1 -28 -70 -43 -11 -64 -5 -2 -60 46 62 0
-1 -3 -56 -39 27 -18 -49 -60 -8 -45 0
1 28 -53 -69 -48 -32 5 71 -14 0
1 -28 -70 43 6 48 11 8 -65 -13 0
1 28 53 69 -9 71 -22 -65 -14 0
-1 -3 56 53 -51 8 -21 61 -39 26 25 46 -54 0
-1 3 69 67 45 -31 54 68 0
1 -28 -70 43 6 48 -11 33 67 -58 -45 0
-1 3 69 -67 -22 49 -63 0
1 28 -53 -69 -48 -32 -5 -13 45 -31 49 0
-1 3 -69 50 -53 -40 23 16 -17 45 -58 0
-1 -3 -56 39 58 -60 47 -51 0
1 -28 -70 43 6 -48 -4 -3 65 -14 -25 0
1 -28 -70 -43 -11 64 38 36 58 7 30 0
1 28 -53 69 67 65 -12 -6 0
-1 -3 56 53 -51 8 -21 61 -39 26 25 46 54 -22 42 -19 -11 0
-1 3 69 -67 22 -70 52 18 7 11 0
1 -28 70 58 -35 2 -20 47 -17 0
1 -28 70 -58 66 23 4 -63 -12 59 0
-1 3 69 67 -45 13 35 0
1 28 -53 -69 -48 -32 -5 -13 45 31 -17 0
1 28 -53 -69 -48 32 -54 -68 -64 52 0
-1 -3 56 -53 63 60 -61 -46 23 0
1 -28 -70 -43 11 27 -14 21 -29 0
1 -28 -70 -43 -11 64 -38 55 9 -53 0
-1 -3 56 53 -51 8 21 17 28 70 36 48 37 0
1 -28 70 58 35 11 59 24 4 0
1 -28 -70 -43 11 27 -14 -21 -35 38 -10 0
1 28 -53 69 67 65 12 27 41 -13 -39 0
1 28 -53 -69 48 46 -47 -44 -30 -10 0
-1 -3 56 -53 63 60 -61 46 -43 -13 29 -9 0
1 28 53 -69 -12 -54 21 32 71 0
1 -28 70 58 35 -11 3 62 -56 38 0
-1 3 69 67 45 -31 -54 -23 0
-1 -3 -56 -39 -27 20 -33 -63 0
-1 -3 -56 -39 -27 -20 52 55 -50 0
1 -28 -70 43 6 48 11 8 65 25 -18 67 -35 32 -10 0
-1 -3 56 53 -51 8 -21 61 -39 26 25 46 54 -22 42 19 0
1 -28 70 -58 -66 -50 45 24 -25 -18 -67 0
-1 -3 56 -53 -63 61 48 37 57 -49 -5 0
1 28 53 -69 -12 -54 21 -32 -67 0
-1 3 -69 50 -53 -40 23 16 -17 45 58 0
1 -28 70 58 -35 -2 -6 -71 -44 0
1 -28 -70 -43 -11 64 -38 -55 5 -6 -33 0
-1 -3 56 53 -51 8 -21 61 -39 26 25 46 54 -22 42 -19 11 0
1 28 -53 69 67 65 12 -27 0
1 28 53 -69 -12 54 33 -56 -38 0
-1 3 69 -67 22 70 28 61 -21 0
1 28 53 -69 12 -67 47 -51 -60 5 0
1 28 -53 -69 48 46 47 -55 -61 5 0
1 28 -53 -69 -48 -32 5 -71 -10 0
-1 -3 -56 -39 -27 20 33 8 63 0
1 -28 -70 43 -6 -63 11 -38 -50 0
-1 -3 -56 -39 27 -18 49 58 -57 -19 0
-1 -3 56 -53 63 -60 18 -59 19 0
1 28 -53 -69 -48 32 54 -9 -23 -40 -52 66 0
-1 -3 56 -53 -63 -61 -4 32 67 -24 0
-1 -3 56 53 -51 8 21 -17 57 -39 -68 59 34 4 0
-1 -3 -56 39 -58 70 68 36 -37 -5 0
-1 -3 -56 -39 -27 20 33 8 -63 0
1 -28 -70 43 6 48 11 8 65 25 18 -49 0
-1 -3 56 53 -51 8 -21 61 -39 -26 9 68 -69 33 0
1 28 53 -69 12 -67 47 51 3 65 -8 0
1 28 -53 -69 -48 32 -54 -68 64 0
1 28 -53 -69 48 -46 -34 -27 -59 -71 0
-1 -3 56 53 -51 8 -21 61 39 58 0
-1 -3 56 -53 -63 61 48 -37 -39 36 0
-1 -3 -56 39 -58 -70 38 67 18 0
-1 3 -69 -50 53 48 -28 -37 0
1 28 53 -69 12 -67 47 -51 -60 -5 16 -2 0
1 -28 70 -58 -66 -50 45 24 -25 -18 67 0
1 -28 -70 -43 11 27 -14 -21 35 -15 0
-1 -3 -56 -39 27 -18 -49 60 -48 0
1 -28 70 58 -35 2 20 -39 -26 0
1 -28 -70 -43 -11 -64 -5 2 -22 -8 39 -20 0
1 -28 70 -58 -66 -50 45 -24 -31 -67 -60 -15 0
1 28 53 -69 12 -67 -47 63 0
-1 -3 56 53 -51 8 21 -17 57 -39 68 0
1 28 53 -69 12 -67 47 51 3 -65 48 -13 0
1 28 53 -69 -12 -54 -21 -9 33 32 -56 0
1 -28 70 -58 -66 50 25 -35 -2 0
-1 -3 56 53 -51 8 -21 61 39 -58 12 0
-1 -3 56 53 -51 8 -21 -61 -26 68 0
-1 3 69 67 45 31 -6 0
1 -28 -70 43 -6 63 -66 4 -37 48 0
1 28 53 -69 12 67 37 -19 5 44 27 0
1 28 53 -69 -12 -54 -21 -9 33 32 56 0
1 -28 -70 43 6 48 11 8 65 25 18 49 0
1 28 -53 -69 48 46 47 -55 -61 -5 0
-1 -3 56 -53 -63 61 48 -37 -39 -36 24 0
1 28 53 -69 12 -67 47 -51 -60 -5 16 2 0
-1 -3 -56 -39 -27 20 33 -8 -35 0
-1 -3 -56 39 -58 70 68 36 -37 5 6 0
1 28 53 -69 12 67 37 19 -51 70 49 0
1 -28 -70 43 6 48 11 8 65 25 -18 67 -35 -32 0
1 -28 -70 -43 -11 -64 5 51 0
1 -28 -70 -43 -11 64 -38 55 9 53 0
-1 -3 56 -53 63 60 61 -43 0
-1 -3 56 -53 -63 61 48 37 -57 -28 39 4 0
-1 -3 56 -53 -63 61 48 37 -57 -28 -39 67 69 0
-1 3 69 -67 22 -70 52 18 -7 56 0
1 -28 -70 43 6 -48 4 20 -34 0
1 -28 70 -58 -66 50 25 -35 2 0
1 28 -53 69 67 65 12 27 41 13 -33 0
1 -28 -70 -43 11 27 -14 -21 -35 -38 63 -16 -62 0
-1 -3 -56 -39 -27 -20 -52 16 0
1 28 -53 69 67 -65 13 -5 -54 -7 41 0
1 -28 -70 43 -6 63 66 -52 32 0
1 -28 -70 43 -6 63 -66 -4 -67 0
1 28 53 -69 -12 54 33 -56 38 22 0
-1 -3 56 53 -51 -8 -60 -27 0
1 -28 -70 43 6 48 11 -8 30 -49 0
1 -28 70 58 -35 -2 -6 -71 44 0
1 28 53 -69 12 -67 47 51 -3 -22 0
-1 3 -69 -50 -53 38 6 0
1 28 53 -69 12 -67 -47 -63 14 0
-1 -3 -56 -39 27 -18 -49 -60 8 0
1 -28 70 58 35 11 -59 -46 -61 -40 56 0
-1 3 -69 -50 -53 -38 0
-1 -3 56 53 -51 8 21 17 28 -70 0
-1 -3 56 53 -51 8 -21 61 -39 26 -25 34 0
1 28 -53 69 67 -65 13 5 54 16 0
-1 3 -69 50 -53 -40 -23 -33 -63 54 0
-1 -3 56 -53 63 -60 18 59 -22 0
1 28 -53 69 67 -65 13 5 54 -16 31 0
1 -28 -70 43 -6 63 66 52 0
1 -28 -70 -43 -11 64 -38 55 -9 -6 0
1 -28 70 -58 -66 -50 -45 64 -20 62 0
-1 -3 -56 -39 -27 -20 52 -55 18 0
-1 3 69 -67 -22 49 63 40 -37 15 0
1 28 53 69 -9 71 22 0
1 28 -53 -69 48 -46 -34 27 10 -47 -42 55 0
-1 -3 -56 -39 -27 -20 -52 -16 0
1 28 -53 -69 48 -46 -34 27 10 -47 -42 -55 29 -12 71 0
-1 3 -69 50 -53 -40 -23 -33 -63 -54 0
-1 3 69 -67 -22 49 63 -40 0
1 -28 -70 -43 -11 64 38 36 -58 0
-1 3 -69 50 -53 -40 -23 -33 63 -58 0
1 28 53 -69 12 -67 47 51 3 -65 -48 -46 0
-1 -3 56 53 -51 8 21 17 28 70 36 -48 26 0
-1 -3 56 53 -51 8 -21 61 -39 -26 9 -68 17 -40 60 6 0
-1 -3 56 -53 63 -60 18 -59 -19 0
-1 3 69 -67 -22 -49 -56 24 -65 29 0
1 -28 70 -58 -66 -50 -45 64 20 5 0
1 28 53 -69 -12 54 33 56 41 66 -30 25 0
1 28 53 -69 12 -67 -47 -63 -14 24 0
1 -28 -70 43 6 48 11 -8 30 49 0
1 28 -53 69 67 65 12 27 41 -13 39 0
1 28 -53 -69 -48 -32 -5 -13 45 -31 -49 0
-1 -3 56 53 -51 8 -21 61 39 -58 -12 0
1 -28 70 -58 -66 -50 -45 -64 0
1 -28 70 -58 -66 -50 45 -24 31 19 -54 -27 4 0
1 28 53 -69 -12 54 33 56 41 -66 0
1 -28 70 -58 -66 -50 45 -24 -31 -67 60 -11 0
1 28 -53 69 67 -65 13 -5 -54 7 0
-1 -3 56 53 -51 8 -21 61 -39 -26 -9 -49 0
1 28 53 -69 12 -67 -47 -63 -14 -24 -35 -2 -4 0
1 -28 70 -58 -66 50 25 35 2 0
1 -28 70 -58 -66 -50 45 24 25 -30 49 0
1 -28 70 -58 -66 -50 45 24 -25 18 -57 0
1 -28 -70 43 -6 63 66 -52 -32 -62 0
-1 -3 56 -53 -63 61 -48 -44 13 0
1 -28 -70 -43 11 27 -14 -21 -35 -38 -63 -67 36 0
1 28 53 -69 12 -67 47 -51 -60 -5 -16 0
1 -28 70 -58 -66 -50 45 24 25 30 27 0
-1 3 69 67 -45 -13 -30 0
1 -28 -70 43 6 -48 -4 -3 -65 -45 0
1 28 53 -69 -12 -54 -21 -9 33 -32 18 30 0
-1 3 -69 -50 53 48 -28 37 0
-1 -3 -56 39 -58 70 68 -36 0
1 -28 -70 43 -6 -63 11 38 64 20 0
1 -28 70 -58 -66 -50 45 -24 31 19 -54 27 0
-1 3 69 67 45 -31 -54 23 0
1 -28 -70 43 6 -48 -4 -3 65 -14 25 71 18 0
-1 3 -69 50 -53 -40 -23 -33 63 58 -2 0
1 -28 -70 -43 -11 64 38 36 58 -7 0
1 28 53 -69 12 67 -37 57 -2 -44 0
1 28 53 -69 12 67 -37 -57 -56 0
1 28 -53 69 67 -65 -13 6 36 9 -23 0
-1 3 -69 50 -53 40 52 30 -18 0
-1 -3 56 53 -51 8 -21 61 -39 26 25 46 54 22 0
1 -28 -70 -43 -11 -64 -5 2 -22 8 63 -59 7 0
1 -28 -70 -43 11 -27 69 -53 34 0
1 -28 -70 43 -6 -63 -11 14 24 0
1 -28 70 -58 -66 -50 -45 64 20 -5 -62 0
1 -28 70 58 -35 -2 6 -51 0
-1 -3 56 53 -51 8 21 17 28 70 -36 19 0
1 -28 70 -58 -66 -50 45 24 -25 18 57 54 0
-1 -3 56 53 -51 8 -21 61 -39 -26 -9 49 0
-1 -3 -56 39 58 60 0
1 -28 -70 43 6 48 11 8 65 25 -18 67 35 0
-1 -3 -56 -39 27 18 71 20 -6 24 0
1 28 -53 -69 48 -46 -34 27 10 47 0
-1 -3 56 53 -51 8 -21 61 -39 -26 9 68 -69 -33 0
1 28 -53 -69 -48 -32 -5 -13 -45 15 0
-1 -3 56 53 -51 -8 60 28 -67 -9 0
1 -28 70 -58 -66 -50 45 24 25 -30 -49 -20 0
1 -28 -70 43 6 48 -11 33 67 58 0
-1 -3 56 53 -51 -8 60 28 -67 9 0
-1 3 -69 50 -53 -40 -23 -33 63 58 2 0
-1 -3 56 53 -51 8 21 -17 57 39 40 71 0
1 -28 -70 -43 -11 -64 -5 2 -22 8 63 -59 -7 0
-1 -3 -56 -39 27 -18 -49 60 48 0
-1 -3 56 53 -51 8 21 -17 57 -39 -68 59 -34 0
1 28 -53 -69 48 -46 -34 -27 59 0
1 28 -53 69 67 -65 13 5 54 -16 -31 -55 0
1 -28 70 -58 -66 -50 45 -24 -31 -67 -60 15 -37 61 0
1 -28 70 58 -35 2 -20 47 17 -71 0
-1 3 69 -67 -22 -49 56 34 -71 0
1 28 -53 -69 48 -46 34 19 0
-1 -3 56 -53 63 60 -61 46 -43 13 0
-1 -3 56 -53 63 60 -61 46 -43 -13 29 9 0
-1 -3 56 53 -51 8 21 17 -28 6 5 0
1 -28 -70 -43 11 27 -14 -21 -35 38 10 -58 52 0
-1 3 69 -67 22 -70 52 -18 0
-1 -3 56 53 -51 8 21 -17 57 -39 -68 -59 0
-1 -3 56 53 -51 8 -21 -61 26 42 36 -43 0
-1 -3 56 53 -51 -8 60 -28 0
1 28 -53 69 67 65 12 27 -41 7 0
-1 -3 56 -53 63 60 -61 -46 -23 13 0
-1 -3 56 -53 63 60 -61 46 43 0
1 28 53 -69 12 67 -37 57 2 -26 -34 0
1 -28 70 58 35 -11 3 -62 17 0
1 -28 -70 -43 11 -27 -69 -65 0
1 -28 -70 -43 -11 -64 5 -51 35 0
1 28 -53 -69 -48 32 54 -9 -23 -40 52 0
1 -28 70 58 -35 -2 6 51 -55 0
-1 -3 56 -53 -63 61 -48 44 23 -10 0
-1 -3 56 -53 -63 61 48 -37 -39 -36 -24 0
-1 -3 -56 -39 27 18 -71 8 28 0
1 -28 -70 -43 -11 -64 -5 -2 60 52 0
1 28 53 -69 -12 -54 -21 -9 33 -32 18 -30 0
1 -28 -70 43 6 -48 -4 -3 65 14 64 0
1 -28 70 58 -35 2 -20 -47 0
1 -28 -70 43 6 48 11 8 -65 13 0
-1 -3 -56 39 58 -60 47 51 -2 0
1 28 -53 -69 48 -46 -34 -27 -59 71 39 0
1 -28 70 -58 -66 -50 45 -24 -31 -67 60 11 48 -40 0
1 28 53 -69 -12 -54 -21 -9 33 -32 -18 62 0
1 -28 -70 -43 11 -27 69 -53 -34 59 0
-1 -3 56 53 -51 -8 60 28 67 0
1 28 -53 -69 -48 32 -54 -68 -64 -52 0
-1 3 69 67 45 -31 54 -68 0
1 -28 -70 -43 11 -27 -69 65 0
1 28 53 -69 12 -67 47 51 3 -65 -48 46 0
1 28 -53 69 67 65 12 27 -41 -7 0
-1 -3 -56 39 -58 70 -68 0
1 -28 70 -58 -66 -50 45 -24 -31 -67 -60 15 -37 -61 0
1 28 53 -69 -12 54 -33 57 60 37 -8 -55 0
-1 3 -69 50 -53 40 -52 34 63 0
1 28 -53 -69 -48 32 -54 68 -3 0
1 28 -53 -69 -48 -32 -5 -13 -45 -15 -43 63 0
1 -28 -70 43 6 48 11 -8 -30 23 -56 0
-1 -3 56 53 -51 8 21 17 28 70 36 -48 -26 0
1 28 53 -69 12 67 37 19 -51 70 -49 0
1 -28 70 58 35 -11 3 62 56 0
1 28 53 -69 12 -67 47 -51 60 21 -65 0
-1 -3 56 -53 -63 61 48 37 57 49 21 0
-1 -3 -56 39 -58 -70 -38 47 0
-1 3 -69 50 -53 40 -52 34 -63 0
1 -28 -70 43 -6 -63 11 -38 50 -29 0
-1 3 -69 50 -53 -40 23 -16 0
1 28 53 -69 -12 -54 21 -32 67 0
1 28 53 -69 12 67 -37 57 -2 44 0
1 -28 -70 43 6 48 11 -8 -30 23 56 0
1 -28 70 -58 66 23 4 -63 -12 -59 0
1 28 -53 -69 -48 -32 -5 -13 -45 -15 -43 -63 0
-1 -3 56 53 -51 8 -21 61 -39 -26 9 -68 17 -40 -60 0
1 28 53 -69 12 67 -37 -57 56 68 0
1 -28 70 -58 -66 -50 45 -24 -31 -67 60 11 48 40 0
-1 3 -69 -50 53 -48 -8 0
1 -28 70 58 35 11 -59 -46 61 0
1 28 -53 -69 48 -46 -34 27 -10 68 0
1 28 53 -69 -12 54 -33 57 60 -37 5 -39 0
1 28 -53 -69 -48 32 54 -9 23 49 50 0
-1 3 -69 50 -53 -40 23 16 -17 -45 0
1 28 -53 69 67 -65 -13 6 36 9 23 -32 0
-1 -3 56 53 -51 8 21 17 28 70 -36 -19 0
-1 -3 56 -53 63 60 61 43 0
-1 -3 -56 39 -58 -70 -38 -47 19 0
-1 -3 56 -53 -63 61 48 37 -57 28 -13 0
-1 3 69 -67 22 -70 52 18 -7 -56 0
1 -28 70 -58 -66 -50 45 -24 -31 67 7 0
1 -28 -70 -43 11 27 -14 -21 -35 -38 -63 67 0
1 28 53 -69 -12 -54 -21 -9 -33 0
1 28 53 -69 12 -67 -47 -63 -14 -24 35 0
-1 3 69 -67 22 -70 -52 0
1 28 53 69 -9 71 -22 65 0
-1 3 69 67 -45 -13 30 0
1 28 -53 -69 48 -46 -34 27 10 -47 42 0
1 28 -53 69 -67 -32 0
1 -28 70 -58 -66 -50 45 -24 31 -19 0
-1 -3 56 53 -51 8 -21 61 -39 26 25 46 54 -22 -42 0
-1 -3 56 -53 -63 -61 -4 -32 0
1 -28 -70 -43 -11 -64 -5 2 -22 -8 39 20 0
1 28 53 -69 -12 54 33 56 41 66 30 0
-1 -3 -56 -39 27 18 71 20 6 54 0
1 -28 70 58 35 11 -59 -46 -61 -40 -56 0
1 -28 70 58 35 -11 -3 0
1 -28 -70 -43 -11 -64 -5 -2 -60 -46 0
1 -28 -70 43 -6 -63 11 38 -64 37 45 0
1 28 53 -69 -12 54 33 -56 38 -22 -30 0
-1 -3 56 53 -51 8 -21 -61 26 42 -36 0
-1 -3 -56 39 58 -60 -47 -12 0
1 -28 -70 -43 -11 -64 -5 2 -22 -8 -39 -62 0
1 28 -53 -69 48 -46 34 -19 0
1 -28 70 -58 -66 -50 45 -24 -31 67 -7 0
-1 3 69 -67 -22 -49 56 -34 40 0
1 28 -53 -69 -48 32 54 9 0
1 28 53 -69 12 -67 47 -51 60 21 65 -58 0
-1 -3 -56 -39 27 18 71 20 6 -54 0
-1 -3 -56 -39 27 -18 49 -58 0
1 28 -53 69 67 -65 -13 6 -36 0
1 -28 -70 -43 -11 -64 -5 -2 -60 46 -62 0
1 28 53 -69 -12 54 -33 57 60 -37 -5 0
1 28 53 -69 12 67 37 19 51 0
-1 -3 56 -53 63 -60 -18 0
-1 -3 -56 -39 27 -18 49 58 57 0
1 28 53 -69 12 -67 47 51 3 -65 48 13 0
-1 -3 -56 -39 27 18 -71 8 -28 0
1 28 -53 -69 -48 32 54 -9 -23 -40 -52 -66 0
-1 -3 56 -53 -63 61 48 37 57 49 -21 0
1 28 53 -69 12 67 37 -19 5 -44 0
1 -28 -70 -43 -11 -64 -5 2 -22 8 -63 0
1 28 -53 -69 48 -46 -34 27 10 -47 -42 -55 -29 -6 12 0
-1 -3 56 53 -51 8 -21 -61 -26 -68 0
-1 -3 56 53 -51 8 -21 61 -39 -26 9 -68 -17 0
1 28 -53 -69 48 -46 -34 27 -10 -68 0
-1 3 -69 50 -53 -40 23 16 17 -57 0
1 28 53 69 9 -43 21 0
1 -28 70 -58 -66 -50 45 -24 31 19 54 0
1 -28 -70 -43 -11 -64 5 -51 -35 0
1 -28 -70 43 -6 63 -66 -4 67 0
1 28 53 -69 -12 -54 21 32 -71 0
1 28 53 -69 12 -67 47 -51 60 21 65 58 0
1 -28 -70 43 6 48 11 8 65 25 -18 67 -35 32 10 0
-1 3 -69 50 -53 40 52 -30 36 0
1 28 53 -69 12 -67 47 51 3 65 8 0
-1 3 69 -67 22 70 28 61 21 23 0
-1 3 69 67 45 31 6 0
1 -28 -70 43 6 48 -11 33 -67 0
1 28 53 69 9 43 19 0
1 -28 -70 43 -6 -63 -11 -14 -25 0
1 28 -53 -69 48 46 -47 44 0
1 28 53 -69 12 -67 47 51 -3 22 0
1 -28 70 -58 -66 -50 45 -24 -31 -67 -60 15 37 0
1 -28 -70 43 6 48 11 8 65 -25 -69 0
1 -28 -70 43 6 48 11 -8 -30 -23 0
-1 -3 56 -53 63 -60 18 59 22 0
1 28 -53 69 67 -65 13 -5 -54 -7 -41 0
1 28 53 -69 12 67 37 19 -51 -70 23 0
1 -28 -70 -43 11 27 -14 -21 -35 -38 -63 -67 -36 0
-1 -3 -56 39 -58 -70 -38 -47 -19 0
-1 -3 -56 -39 -27 -20 52 55 50 0
1 -28 -70 -43 11 27 -14 -21 -35 -38 63 16 0
1 -28 70 -58 -66 -50 45 24 25 30 -27 0
-1 3 -69 50 -53 40 52 30 18 0
1 -28 70 58 35 11 59 24 -4 0
1 -28 -70 43 -6 -63 11 38 -64 37 -45 -53 17 0
1 -28 -70 -43 -11 64 38 -36 -30 0
1 -28 -70 -43 -11 64 -38 -55 -5 -25 29 0
1 -28 -70 43 6 48 -11 -33 0
-1 -3 -56 -39 27 -18 -49 -60 -8 45 0
1 -28 -70 -43 -11 64 -38 55 -9 6 0
1 -28 -70 43 6 48 -11 33 67 -58 45 0
-1 3 69 -67 -22 -49 -56 24 65 0
-1 3 69 -67 22 70 28 61 21 -23 0
-1 -3 -56 -39 27 18 71 -20 -25 0
-1 -3 56 53 -51 8 -21 -61 26 42 36 43 0
1 28 53 -69 12 67 -37 57 2 26 -35 3 0
1 28 -53 69 67 -65 13 -5 54 -34 0
1 28 53 -69 12 -67 -47 -63 -14 -24 -35 -2 4 0
