c NeuroCodeBench 2.0 CNF formula with verdict Unsat
p cnf 90 839
-1 -46 72 40 -27 33 -86 -51 16 81 48 44 -54 0
-1 -46 -72 -73 88 13 80 -56 63 -53 0
-1 46 -86 -49 47 66 55 62 88 45 -42 -72 0
-1 46 -86 49 -85 -56 -43 -18 20 22 17 -65 0
1 -22 83 -89 -70 53 -4 -5 -37 -90 -51 44 0
-1 46 -86 49 -85 56 47 -78 -76 66 0
-1 46 86 -76 15 -36 51 -67 0
-1 46 -86 49 -85 -56 -43 -18 20 22 -17 67 0
-1 -46 72 40 27 -7 20 -5 -53 -50 -11 23 10 64 -85 -55 0
-1 -46 -72 -73 -88 -71 -49 -90 -45 28 51 17 26 -5 0
-1 -46 72 -40 51 26 -50 62 83 0
-1 46 -86 -49 47 66 55 -62 2 -82 32 -56 0
-1 -46 72 40 27 7 23 -53 -4 59 31 0
-1 -46 72 40 27 -7 20 5 -88 26 39 0
-1 46 -86 49 -85 -56 -43 -18 20 22 17 65 0
-1 46 -86 -49 47 66 55 62 -88 -48 -4 14 0
1 22 -42 80 -43 -88 48 -74 -39 0
1 -22 -83 20 -67 -63 -50 88 53 -16 0
-1 46 86 76 40 -64 -79 -4 0
-1 46 86 -76 -15 -81 -16 -47 -2 0
-1 -46 -72 -73 -88 -71 49 -19 -69 77 13 0
1 22 42 -31 90 -19 63 -25 15 28 0
1 22 -42 -80 32 23 75 -28 -77 7 0
-1 46 -86 -49 -47 81 -89 -33 80 -54 0
-1 -46 72 40 27 -7 20 -5 53 2 88 -13 -16 -29 43 0
-1 -46 -72 -73 -88 -71 -49 -90 45 40 58 6 61 81 0
-1 -46 72 40 -27 33 -86 -51 16 -81 0
-1 46 -86 49 85 16 -57 37 0
-1 -46 72 40 27 7 -23 71 66 -87 0
-1 46 -86 -49 47 66 55 62 -88 -48 4 72 -32 34 0
-1 -46 -72 -73 -88 -71 -49 -90 45 40 58 6 61 -81 0
1 22 -42 80 -43 88 47 -66 0
-1 46 -86 49 -85 56 -47 68 31 8 0
-1 -46 -72 -73 -88 -71 49 -19 -69 -77 76 0
-1 -46 72 -40 -51 -41 -36 7 76 0
-1 -46 -72 -73 -88 -71 49 19 24 -85 16 -35 0
1 22 -42 -80 32 23 -75 87 -40 -37 59 26 0
-1 46 -86 -49 47 -66 51 6 0
1 22 42 -31 90 -19 63 25 -80 44 -35 -26 0
1 22 -42 80 -43 88 47 66 77 0
-1 -46 72 40 27 -7 20 -5 53 2 88 -13 16 0
-1 46 86 -76 15 -36 -51 9 -48 43 -37 -83 0
1 -22 -83 20 -67 63 -34 0
1 22 -42 80 -43 -88 48 -74 39 41 -6 24 45 -71 0
1 22 -42 80 -43 88 -47 12 -83 -72 71 -81 0
-1 46 -86 -49 47 66 55 62 -88 -48 -4 -14 -52 16 81 0
1 22 42 31 56 -25 55 -44 0
-1 -46 72 40 27 -7 20 5 -88 -26 -43 56 0
1 22 -42 80 43 -16 -85 0
-1 -46 72 40 -27 33 -86 -51 16 81 48 -44 11 -10 0
-1 46 86 76 40 -64 79 -31 -45 0
1 22 42 31 -56 46 41 13 -40 0
-1 -46 72 40 -27 -33 -37 -67 -53 0
-1 -46 -72 73 47 61 4 -70 42 -5 0
1 22 42 31 -56 -46 -7 -63 76 0
-1 46 86 76 -40 55 10 -57 -50 -54 0
1 22 42 31 56 25 -8 -52 -14 3 0
1 22 42 31 56 25 -8 52 -54 -43 0
1 22 42 31 56 -25 55 44 8 -63 -26 -66 7 0
-1 46 86 -76 15 -36 -51 9 -48 -43 10 -33 0
-1 46 -86 -49 47 66 55 62 88 45 42 -84 87 0
1 -22 83 -89 70 -77 -37 29 76 0
1 22 42 -31 90 19 72 -89 -34 27 15 17 0
-1 -46 72 40 -27 -33 -37 67 -89 -20 -13 -61 0
-1 -46 72 40 -27 -33 37 13 39 18 -90 56 0
-1 46 -86 -49 -47 81 -89 33 -62 -71 19 0
-1 -46 72 40 -27 33 86 -68 -21 -12 0
-1 -46 72 40 -27 -33 37 -13 -14 -24 -15 0
-1 -46 72 40 -27 33 86 68 56 -12 -26 0
-1 46 -86 -49 47 66 55 62 -88 -48 -4 -14 52 0
-1 46 86 -76 15 -36 51 67 -19 -2 0
1 -22 -83 20 -67 63 34 87 -24 0
-1 -46 72 40 27 -7 20 -5 -53 -50 -11 23 10 -64 9 90 44 -84 0
-1 -46 72 40 -27 33 -86 -51 -16 -23 13 0
1 -22 83 -89 -70 -53 -4 66 -20 0
1 22 42 -31 90 19 72 89 41 80 0
1 -22 83 -89 -70 53 4 -21 76 3 32 -20 68 0
1 -22 -83 20 67 -74 26 63 -79 0
-1 46 86 76 40 -64 -79 4 0
1 22 42 -31 90 19 72 -89 34 57 68 0
1 -22 83 -89 -70 53 4 -21 76 3 -32 -19 60 0
-1 -46 72 40 27 -7 20 -5 53 -2 -63 -11 0
-1 -46 72 40 27 -7 20 5 88 69 -39 33 61 0
-1 -46 -72 -73 88 13 -80 -23 -70 0
-1 46 86 76 -40 -55 6 -72 -33 83 -71 -51 0
-1 -46 72 -40 51 26 50 -83 -48 0
1 22 42 31 56 -25 55 44 8 -63 -26 -66 -7 0
-1 -46 -72 73 47 61 -4 -36 74 71 0
-1 -46 -72 73 47 -61 -88 67 87 11 38 0
-1 -46 72 40 27 -7 20 -5 53 2 -88 13 9 0
-1 46 -86 49 -85 56 47 -78 -76 -66 68 0
-1 -46 72 40 -27 -33 -37 -67 53 -50 -75 4 -5 0
-1 -46 72 40 27 -7 20 -5 -53 50 79 14 -18 -58 -16 15 0
-1 -46 72 -40 -51 -41 36 30 -20 -78 74 -26 -90 0
-1 -46 72 40 27 -7 20 -5 -53 -50 -11 23 10 64 85 -13 0
1 -22 83 -89 70 77 41 3 4 -13 0
-1 -46 -72 -73 -88 -71 49 19 -24 78 -68 -26 0
-1 -46 -72 -73 88 -13 -74 7 0
-1 46 -86 49 -85 56 47 78 -64 29 0
-1 -46 72 40 27 7 23 -53 4 0
-1 46 86 76 40 64 -8 0
1 22 -42 80 -43 -88 48 74 24 77 -67 -41 0
-1 46 86 -76 15 -36 -51 -9 -48 -66 -17 0
1 22 -42 -80 -32 81 31 -28 -55 0
-1 46 86 76 -40 -55 6 72 52 -88 0
-1 46 -86 -49 -47 81 -89 -33 -80 0
1 22 -42 80 -43 88 -47 12 83 46 90 0
-1 -46 -72 73 47 61 4 -70 42 5 71 0
-1 -46 72 -40 -51 41 57 -59 0
-1 46 86 -76 15 -36 51 67 -19 2 0
-1 -46 72 40 -27 33 86 -68 21 14 50 0
1 22 -42 -80 32 -23 -28 10 -71 -77 61 0
-1 46 86 76 -40 -55 6 72 -52 -42 0
-1 46 -86 -49 47 66 -55 43 0
1 22 42 31 -56 -46 7 43 39 41 0
-1 -46 -72 73 47 -61 -88 -67 0
-1 -46 72 40 27 -7 -20 57 16 -38 -18 -69 43 0
-1 -46 72 40 27 -7 -20 -57 10 34 -43 -15 0
-1 -46 72 40 -27 -33 -37 -67 53 -50 75 0
1 22 -42 80 -43 88 -47 12 -83 72 -13 0
-1 46 86 76 40 64 8 81 -78 -15 0
1 22 -42 80 -43 88 47 66 -77 0
-1 -46 72 40 27 -7 20 -5 -53 -50 -11 23 10 -64 -9 86 0
1 -22 -83 -20 -2 -77 8 0
1 -22 83 -89 -70 53 4 21 76 75 0
-1 -46 72 40 27 -7 20 -5 -53 -50 11 -60 76 0
-1 -46 -72 -73 -88 -71 49 -19 69 79 0
-1 46 -86 -49 -47 81 89 -4 21 0
-1 -46 72 40 27 -7 20 -5 -53 50 79 -14 -37 0
-1 -46 -72 73 -47 59 -12 18 0
-1 46 86 76 -40 -55 6 -72 -33 -83 0
-1 -46 -72 73 47 61 4 -70 -42 -75 55 10 0
1 22 -42 80 43 16 32 -44 27 82 0
-1 -46 -72 73 47 61 -4 36 -35 0
-1 -46 72 -40 51 26 -50 -62 0
1 22 42 -31 90 -19 63 -25 15 -28 0
1 -22 83 -89 -70 53 -4 -5 37 0
-1 -46 72 40 27 -7 20 -5 53 2 -88 -13 -22 0
-1 46 -86 -49 -47 -81 -90 -57 36 0
1 -22 83 -89 70 -77 37 -41 72 -56 0
-1 -46 72 40 27 -7 -20 57 16 38 -55 -26 0
1 -22 83 -89 70 77 41 -3 -59 -9 0
-1 -46 72 40 27 -7 -20 -57 10 34 43 59 3 0
-1 -46 72 40 27 -7 20 -5 -53 50 79 14 -18 58 -22 0
1 22 -42 80 -43 -88 -48 -79 -7 -57 -63 0
1 -22 83 -89 70 77 41 -3 -59 9 0
1 -22 83 -89 -70 53 4 -21 76 3 -32 -19 -60 -66 0
-1 -46 72 40 -27 33 86 68 56 12 57 73 0
-1 -46 -72 73 47 -61 88 0
1 -22 83 -89 -70 -53 4 -62 -17 0
-1 -46 -72 -73 -88 71 -5 43 -78 0
-1 46 86 76 -40 55 10 -57 50 9 0
-1 -46 72 40 27 -7 20 -5 -53 -50 -11 23 10 64 -85 55 0
-1 -46 -72 -73 -88 -71 49 -19 -69 77 -13 -67 80 54 0
1 22 42 -31 90 19 72 -89 -34 -27 69 0
-1 -46 72 40 -27 -33 37 -13 -14 24 45 -54 -7 0
1 22 42 31 56 25 -8 -52 -14 -3 0
1 -22 -83 20 67 74 28 -75 23 0
1 -22 83 -89 70 -77 37 -41 72 56 0
1 -22 83 -89 70 -77 37 41 -38 0
1 22 -42 -80 32 -23 -28 10 -71 -77 -61 0
-1 -46 -72 73 47 61 -4 -36 -74 0
1 -22 83 -89 -70 53 4 -21 76 3 32 -20 -68 0
-1 46 -86 49 -85 56 -47 -68 7 -87 70 0
1 22 42 -31 90 -19 63 25 80 -68 0
1 -22 83 -89 -70 53 4 -21 76 3 -32 19 -56 90 14 0
1 -22 83 -89 -70 53 4 -21 76 -3 56 -30 0
-1 46 -86 -49 47 66 55 62 -88 48 -61 0
-1 46 -86 -49 47 66 55 62 -88 48 61 82 -69 -25 77 0
1 -22 83 89 68 57 -34 2 10 0
1 -22 -83 20 67 74 -28 12 -68 0
1 22 42 -31 90 19 72 -89 34 57 -68 0
-1 -46 72 40 27 -7 -20 57 -16 15 53 -83 0
-1 -46 -72 73 47 61 4 70 25 -54 -38 -11 0
-1 -46 -72 -73 -88 -71 49 -19 -69 77 -13 -67 80 -54 0
1 -22 83 -89 -70 53 4 -21 76 3 32 20 0
-1 -46 -72 73 47 61 4 -70 -42 75 27 -38 0
1 22 -42 -80 -32 81 31 28 18 85 0
-1 -46 72 40 -27 33 86 68 -56 -4 0
1 22 -42 80 -43 -88 -48 -79 -7 57 0
-1 46 -86 49 85 -16 35 -3 -62 0
1 -22 83 89 -68 -62 90 0
1 22 42 31 -56 -46 7 43 39 -41 -65 0
1 -22 83 89 -68 62 51 6 -58 0
-1 46 -86 49 85 16 57 -52 -55 0
-1 46 86 -76 -15 81 0
-1 -46 72 40 -27 -33 37 -13 -14 -24 15 59 0
1 22 -42 -80 32 -23 28 0
-1 -46 72 40 -27 33 86 68 -56 4 -51 0
-1 46 86 -76 15 -36 -51 9 -48 43 37 0
-1 46 -86 49 85 -16 -35 2 -51 0
1 22 -42 80 -43 88 -47 -12 44 -62 0
-1 -46 72 40 27 -7 20 5 88 -69 -44 0
-1 -46 -72 -73 -88 -71 -49 -90 45 40 58 6 -61 0
1 22 42 -31 -90 46 -32 4 86 9 75 0
-1 46 -86 -49 -47 81 -89 33 -62 -71 -19 0
-1 -46 -72 -73 -88 -71 49 -19 -69 77 -13 67 76 -55 0
-1 46 -86 -49 47 66 55 62 88 -45 22 0
-1 -46 72 40 -27 33 86 -68 21 14 -50 -65 0
-1 -46 72 40 -27 -33 -37 67 -89 -20 13 66 0
1 22 42 -31 -90 46 -32 -4 87 -34 55 -75 0
1 22 -42 -80 32 23 -75 87 -40 -37 59 -26 0
1 22 42 31 56 25 8 -67 89 0
-1 -46 72 40 -27 -33 -37 -67 53 -50 -75 4 5 56 0
-1 46 -86 49 85 -16 35 3 -58 33 0
1 22 42 -31 90 -19 63 25 -80 44 35 14 0
-1 -46 72 40 27 -7 -20 57 16 38 -55 26 -10 -62 0
-1 -46 -72 -73 -88 71 5 -43 -44 0
-1 -46 72 40 -27 33 -86 -51 16 81 48 -44 -11 45 0
1 -22 83 -89 70 -77 -37 -29 -86 84 0
-1 -46 -72 -73 -88 -71 -49 -90 45 -40 43 -60 25 0
-1 -46 -72 73 47 -61 -88 67 87 -11 0
-1 -46 72 40 27 -7 20 -5 -53 -50 11 -60 -76 -73 0
-1 46 -86 49 -85 56 -47 -68 -7 15 0
1 22 -42 -80 32 -23 -28 10 71 -7 -47 -2 0
1 -22 83 89 -68 62 51 6 58 -77 34 0
-1 -46 72 40 27 -7 20 5 88 69 -39 -33 -16 74 -84 52 0
-1 -46 -72 -73 -88 -71 -49 -90 45 40 58 -6 -69 -15 0
1 22 -42 80 -43 -88 48 -74 39 41 -6 24 -45 0
1 -22 83 -89 -70 -53 4 -62 17 40 -30 0
1 22 42 -31 90 19 72 -89 -34 27 15 -17 0
-1 46 86 76 40 64 8 81 -78 15 -29 0
1 -22 83 89 68 57 -34 -2 0
-1 46 86 76 -40 55 10 -57 50 -9 -54 84 0
1 -22 -83 20 67 -74 26 -63 8 0
1 22 -42 -80 -32 -81 4 68 -50 0
-1 -46 72 40 -27 -33 37 -13 -14 24 45 -54 7 81 0
1 -22 83 -89 70 -77 37 -41 -72 38 0
-1 46 86 76 -40 55 10 57 19 0
-1 46 86 76 -40 55 -10 -74 0
-1 -46 72 40 -27 -33 -37 -67 53 50 0
-1 -46 72 40 27 7 23 -53 -4 59 -31 0
-1 -46 72 40 -27 -33 37 -13 -14 24 45 -54 7 -81 0
1 22 -42 -80 32 23 75 -28 77 0
1 -22 -83 20 67 -74 26 63 79 -85 -25 0
1 22 42 -31 90 19 72 -89 -34 27 -15 85 0
-1 -46 -72 -73 -88 71 5 43 0
-1 -46 72 40 27 -7 20 -5 -53 -50 11 60 0
1 -22 83 -89 -70 53 4 21 76 -75 0
-1 -46 72 40 27 -7 -20 -57 -10 82 0
1 22 42 31 -56 46 -41 80 77 0
-1 46 -86 -49 47 66 55 62 88 45 42 84 0
1 22 42 -31 -90 -46 -54 62 0
-1 -46 72 40 27 -7 -20 -57 10 34 43 59 -3 0
-1 -46 -72 73 47 61 -4 36 35 0
-1 46 -86 -49 47 66 55 62 -88 48 61 82 -69 -25 -77 0
-1 -46 72 40 27 -7 20 -5 53 -2 -63 11 -9 59 0
1 22 42 -31 90 -19 63 -25 -15 50 0
-1 -46 72 -40 -51 -41 36 30 -20 -78 -74 68 0
-1 -46 72 40 27 -7 20 -5 -53 50 79 14 -18 58 22 -15 0
-1 46 86 76 -40 55 -10 74 0
1 -22 83 -89 70 77 -41 -66 -76 0
1 22 -42 -80 32 -23 -28 10 71 -7 -47 2 0
-1 -46 72 40 27 -7 20 5 88 69 -39 33 -61 -11 8 0
-1 -46 72 -40 51 -26 -76 -80 36 0
-1 46 -86 -49 47 66 55 62 88 -45 -22 33 0
1 22 42 -31 90 19 72 89 41 -80 0
-1 -46 72 40 27 -7 20 5 88 69 39 71 0
-1 -46 72 40 27 -7 20 -5 -53 -50 -11 -23 -16 -22 0
-1 -46 72 40 27 7 -23 -71 65 0
1 22 42 -31 -90 46 -32 -4 87 -34 -55 0
-1 46 -86 -49 47 -66 -51 -85 0
1 -22 83 -89 -70 53 4 -21 -76 2 0
-1 -46 72 40 -27 33 86 68 -56 4 51 0
1 22 42 -31 90 -19 63 25 -80 44 35 -14 0
-1 46 -86 49 85 -16 -35 2 51 0
1 22 42 31 -56 46 41 -13 11 71 0
-1 -46 72 40 -27 33 -86 51 -2 0
-1 -46 72 -40 51 26 50 -83 48 0
1 -22 83 -89 -70 53 4 -21 -76 -2 7 0
-1 -46 -72 -73 -88 -71 49 -19 -69 77 -13 -67 -80 0
-1 -46 72 40 27 -7 20 -5 -53 50 79 -14 37 0
1 22 -42 -80 32 23 75 28 -54 68 -77 0
-1 -46 72 40 27 -7 -20 -57 10 -34 29 -83 0
-1 -46 72 40 27 -7 20 5 88 69 -39 -33 16 -65 -59 -45 0
-1 -46 72 40 27 7 -23 -71 -65 -36 -84 20 0
-1 -46 72 40 27 7 -23 71 -66 -53 0
-1 -46 -72 -73 -88 -71 -49 -90 45 40 -58 -42 0
1 22 42 31 -56 -46 -7 63 -36 0
-1 -46 -72 -73 -88 -71 -49 90 45 14 0
1 -22 -83 -20 2 23 -61 0
-1 46 -86 -49 47 66 55 62 -88 48 61 -82 0
-1 -46 72 40 27 -7 20 -5 -53 50 -79 6 0
-1 -46 -72 -73 -88 71 -5 -43 0
-1 46 -86 -49 47 66 55 62 -88 48 61 82 -69 25 0
1 22 -42 -80 32 23 -75 87 -40 -37 -59 0
-1 -46 72 40 27 -7 20 5 -88 -26 43 87 -22 0
-1 46 -86 -49 47 66 55 -62 2 82 0
-1 -46 72 40 -27 -33 -37 67 -89 20 0
-1 46 -86 -49 47 -66 -51 85 14 0
-1 -46 72 40 27 -7 20 5 -88 -26 -43 -56 6 -64 0
-1 -46 72 40 -27 -33 37 13 39 18 90 28 -32 55 -22 0
1 22 42 31 -56 46 41 -13 -11 -29 -43 60 68 0
-1 46 -86 -49 -47 81 -89 33 -62 71 0
-1 -46 -72 -73 -88 -71 -49 -90 -45 28 51 17 -26 -29 0
-1 -46 72 40 27 -7 20 5 88 -69 44 0
-1 46 -86 49 85 -16 35 -3 62 0
-1 -46 72 40 -27 -33 -37 -67 53 -50 -75 -4 -80 41 0
-1 46 -86 -49 47 66 55 62 -88 -48 4 -72 0
1 22 42 31 -56 -46 7 43 39 -41 65 50 -87 0
1 -22 -83 20 -67 -63 -50 -88 0
1 22 42 31 -56 46 41 -13 -11 29 0
-1 -46 72 40 27 -7 20 5 -88 -26 43 -87 0
1 -22 83 -89 -70 53 4 -21 -76 -2 -7 0
-1 -46 72 40 -27 33 -86 51 2 0
-1 46 86 76 -40 55 10 -57 -50 54 78 0
1 22 -42 80 -43 88 -47 12 -83 -72 71 81 0
1 22 -42 80 43 16 -32 13 19 -25 0
1 -22 83 89 68 -57 -71 0
1 22 42 -31 90 19 72 -89 34 -57 -11 -58 0
1 22 42 -31 90 -19 63 25 -80 -44 17 0
-1 -46 72 40 -27 -33 37 13 39 18 -90 -56 0
-1 46 -86 49 -85 56 -47 -68 -7 -15 63 0
-1 -46 72 -40 -51 -41 36 30 20 0
-1 46 86 -76 -15 -81 -16 -47 2 0
-1 -46 72 40 27 -7 20 -5 53 2 88 -13 -16 29 0
-1 -46 72 40 27 -7 20 -5 -53 50 79 14 -18 -58 16 0
1 22 -42 80 -43 -88 48 74 24 77 67 0
-1 46 86 76 -40 -55 -6 77 -43 -36 0
1 22 -42 80 -43 88 -47 -12 -44 71 0
-1 -46 -72 -73 -88 -71 -49 90 -45 -74 0
1 22 42 31 -56 46 -41 80 -77 0
-1 -46 72 40 27 -7 20 -5 -53 50 79 14 18 75 0
1 -22 83 -89 70 -77 -37 -29 -86 -84 0
-1 46 -86 49 -85 -56 -43 -18 -20 -4 0
-1 46 -86 49 -85 56 -47 -68 -7 -15 -63 0
1 -22 83 -89 -70 -53 4 62 -21 19 0
-1 -46 -72 73 47 61 4 70 25 54 0
-1 -46 -72 -73 -88 71 5 -43 44 0
-1 -46 -72 -73 -88 -71 -49 -90 45 -40 -43 0
-1 -46 72 40 27 -7 -20 57 16 38 55 -68 0
-1 -46 72 40 -27 -33 37 -13 -14 24 45 54 -85 0
-1 46 86 76 40 64 8 -81 29 -65 0
-1 -46 72 40 27 -7 -20 57 16 38 -55 26 -10 62 0
-1 -46 72 -40 -51 -41 -36 -7 -65 0
1 22 -42 80 43 16 -32 -13 0
-1 46 86 76 -40 55 10 -57 50 -9 -54 -84 0
-1 -46 -72 -73 -88 -71 49 19 -24 -78 34 76 30 0
-1 46 86 -76 15 -36 -51 9 -48 43 -37 83 0
-1 -46 72 40 27 -7 -20 -57 10 34 43 -59 -68 64 0
1 22 -42 80 -43 -88 48 -74 39 41 -6 24 45 71 23 0
1 22 42 31 56 -25 55 44 8 -63 -26 66 -43 0
-1 -46 -72 -73 -88 -71 -49 90 -45 74 0
1 -22 83 -89 -70 53 4 -21 76 -3 56 30 0
-1 -46 -72 -73 -88 -71 -49 90 45 -14 0
-1 -46 72 40 27 -7 20 -5 53 2 88 -13 -16 -29 -43 0
-1 -46 -72 -73 -88 -71 49 -19 -69 77 -13 67 76 55 0
1 -22 -83 20 -67 -63 -50 88 -53 0
1 22 42 31 56 25 -8 -52 14 39 59 -11 0
-1 -46 72 40 27 -7 20 -5 53 2 -88 13 -9 50 0
-1 46 -86 -49 -47 -81 -90 57 -64 0
1 22 -42 80 43 -16 85 -44 0
-1 46 86 76 40 64 8 -81 29 65 0
-1 -46 -72 -73 -88 -71 -49 -90 -45 28 51 -17 -76 0
-1 -46 72 -40 -51 -41 -36 -7 65 0
-1 46 -86 -49 47 -66 -51 85 -14 0
1 -22 83 89 -68 62 -51 -13 63 -27 -17 0
-1 -46 72 -40 -51 -41 36 30 -20 -78 74 -26 90 0
1 22 42 31 56 25 -8 -52 14 39 -59 0
-1 46 86 76 -40 55 10 57 -19 0
-1 -46 -72 -73 -88 -71 -49 -90 45 40 -58 42 0
-1 -46 72 40 -27 -33 37 -13 14 22 0
1 22 42 -31 90 19 72 -89 34 -57 -11 58 0
-1 46 86 76 -40 -55 6 -72 33 66 0
-1 46 -86 49 85 16 -57 -37 40 0
-1 -46 72 -40 51 -26 -76 80 0
1 22 -42 80 -43 -88 -48 79 11 84 82 0
-1 -46 72 40 27 -7 -20 -57 10 34 43 -59 68 -35 0
-1 -46 72 40 27 -7 20 -5 53 -2 63 0
1 -22 -83 20 -67 63 34 -87 0
1 -22 83 89 -68 62 -51 -13 -63 0
1 22 -42 80 -43 -88 -48 -79 7 0
-1 46 86 -76 -15 -81 -16 47 -89 0
-1 46 -86 49 -85 56 47 78 -64 -29 34 88 -7 -53 0
-1 -46 -72 -73 88 13 80 -56 63 53 0
1 22 -42 -80 32 23 75 28 -54 68 77 -25 0
1 22 42 31 -56 -46 7 43 -39 0
-1 -46 -72 73 47 61 4 70 -25 -32 -56 0
1 22 42 31 -56 46 41 -13 -11 -29 -43 60 -68 0
-1 -46 72 40 -27 -33 37 13 39 18 90 -28 -81 15 44 5 0
-1 -46 72 40 27 -7 -20 57 -16 -15 66 -82 17 -65 0
-1 46 -86 49 -85 -56 -43 18 -4 17 0
-1 46 86 -76 15 -36 51 67 19 0
-1 -46 72 -40 -51 -41 36 30 -20 -78 74 26 0
1 -22 83 -89 -70 -53 -4 66 20 0
-1 46 -86 -49 47 66 55 -62 -2 74 80 0
1 22 -42 80 43 -16 85 44 70 0
-1 -46 72 40 27 -7 -20 57 16 38 55 68 -89 29 50 0
1 22 -42 -80 32 23 -75 87 40 -44 0
-1 -46 -72 73 47 61 4 70 -25 -32 56 0
-1 -46 -72 -73 88 13 80 -56 -63 -33 0
-1 46 -86 49 -85 -56 -43 -18 -20 4 0
-1 46 -86 49 -85 56 -47 -68 7 -87 -70 16 0
-1 46 -86 49 85 -16 35 3 -58 -33 0
-1 46 86 -76 15 36 -64 0
-1 -46 72 40 27 7 -23 71 -66 53 0
1 -22 83 -89 -70 -53 4 -62 17 40 30 0
-1 -46 72 40 27 -7 -20 -57 10 -34 -29 59 -88 -62 0
1 22 42 31 56 25 8 67 -50 0
1 22 -42 80 -43 -88 48 -74 39 41 -6 24 45 71 -23 0
-1 46 -86 49 -85 56 47 78 -64 -29 34 88 7 0
-1 -46 72 40 -27 -33 -37 67 -89 -20 -13 61 64 0
1 -22 83 -89 -70 53 -4 -5 -37 90 0
1 22 -42 80 43 16 32 -44 27 -82 -51 0
1 22 42 31 56 -25 55 44 8 63 0
-1 -46 72 40 27 -7 -20 57 16 -38 -18 69 0
1 -22 -83 20 67 74 28 75 0
-1 -46 72 40 27 -7 20 -5 -53 -50 -11 23 -10 0
-1 -46 72 40 27 -7 20 -5 -53 -50 -11 23 10 -64 9 -90 0
-1 -46 72 40 -27 -33 37 13 39 18 90 -28 81 0
-1 -46 -72 -73 -88 -71 49 19 -24 78 68 -13 0
1 22 42 -31 -90 -46 54 -63 7 30 0
-1 -46 -72 -73 88 13 -80 23 -4 0
-1 -46 72 40 27 -7 -20 57 16 38 55 68 -89 -29 0
-1 46 -86 49 -85 56 -47 -68 7 -87 -70 -16 0
-1 -46 -72 -73 -88 -71 49 19 -24 -78 -34 0
1 22 42 -31 90 19 72 -89 34 -57 11 0
-1 -46 -72 -73 -88 -71 49 19 -24 -78 34 76 -30 0
-1 -46 72 40 27 -7 20 5 88 69 -39 -33 16 -65 59 0
-1 -46 72 40 27 -7 20 -5 -53 -50 -11 23 10 -64 9 90 -44 0
-1 46 86 -76 15 -36 -51 9 48 0
1 22 42 31 56 25 -8 -52 14 -39 0
1 22 42 -31 -90 46 -32 4 -86 56 38 0
-1 -46 72 -40 51 26 50 83 89 47 -74 0
1 -22 83 89 68 -57 71 -32 0
1 -22 83 -89 70 -77 -37 29 -76 10 0
-1 -46 72 40 27 -7 20 -5 -53 -50 -11 23 10 64 85 13 0
1 -22 83 -89 70 77 41 3 4 13 0
-1 46 -86 -49 -47 -81 -90 -57 -36 0
1 -22 -83 20 67 -74 26 -63 -8 -87 0
-1 46 -86 49 85 16 57 -52 55 -22 0
1 -22 -83 20 67 74 -28 -12 -35 61 -58 0
-1 46 -86 49 -85 56 47 78 -64 -29 34 -88 -4 -81 0
-1 46 -86 49 -85 56 47 -78 -76 -66 -68 0
-1 46 -86 -49 47 66 -55 -43 0
-1 46 86 76 40 -64 79 31 72 0
-1 -46 72 40 27 -7 -20 57 16 -38 -18 -69 -43 0
1 -22 -83 20 67 74 -28 -12 -35 -61 58 -32 0
-1 46 -86 -49 47 66 55 62 -88 -48 -4 -14 -52 -16 0
-1 -46 72 40 -27 -33 37 13 39 18 90 -28 -81 15 44 -5 0
-1 -46 72 40 -27 33 86 68 56 12 -57 0
-1 -46 72 40 27 7 23 53 0
-1 -46 72 40 -27 -33 37 13 39 18 90 -28 -81 15 -44 31 0
1 -22 83 89 -68 62 51 6 58 77 0
-1 46 -86 -49 47 66 55 62 88 -45 -22 -33 0
-1 46 86 76 40 -64 79 31 -72 0
1 22 42 -31 -90 -46 -54 -62 79 0
1 22 -42 80 -43 -88 48 74 -24 35 83 -90 0
1 -22 -83 20 67 -74 -26 -57 84 0
-1 -46 72 40 -27 -33 -37 -67 53 -50 -75 4 5 -56 0
1 -22 83 -89 -70 -53 4 62 -21 -19 0
-1 -46 72 40 -27 -33 37 13 39 18 90 28 -32 -55 8 31 0
-1 -46 72 -40 51 26 50 83 89 47 74 0
-1 46 -86 49 85 16 57 52 0
-1 46 -86 49 -85 56 -47 -68 7 87 8 -44 0
-1 -46 72 40 27 -7 -20 57 -16 15 53 83 0
1 22 -42 80 -43 -88 48 -74 39 41 -6 -24 0
1 22 -42 80 -43 -88 48 -74 39 41 6 0
-1 46 -86 49 -85 56 -47 68 31 -8 0
1 22 -42 -80 -32 -81 -4 0
1 22 -42 -80 32 -23 -28 10 71 7 18 60 81 0
-1 -46 -72 -73 88 13 80 -56 -63 33 0
1 22 42 31 56 25 -8 52 -54 43 -33 0
-1 -46 72 40 27 -7 20 5 88 69 -39 33 -61 11 0
-1 -46 72 40 27 -7 20 5 88 69 -39 -33 -16 74 84 0
1 22 -42 -80 32 -23 -28 10 71 7 18 60 -81 0
1 22 42 -31 90 -19 63 25 -80 -44 -17 0
-1 -46 -72 73 47 61 4 70 25 -54 -38 11 0
1 22 -42 80 -43 88 -47 -12 -44 -71 73 0
1 -22 83 -89 -70 53 4 -21 76 3 -32 19 -56 -90 0
-1 -46 72 40 27 -7 -20 -57 10 34 43 -59 68 35 0
-1 -46 72 40 27 -7 20 5 88 69 -39 -33 -16 -74 0
1 -22 -83 20 67 -74 26 63 79 -85 25 0
-1 -46 72 40 -27 33 86 -68 21 14 -50 65 0
-1 46 -86 -49 47 66 55 62 -88 -48 4 72 32 0
1 22 -42 80 -43 -88 -48 79 11 -84 0
1 22 42 -31 90 19 72 89 -41 27 0
-1 -46 72 40 27 7 -23 -71 -65 36 0
1 -22 83 -89 70 -77 37 -41 -72 -38 0
1 22 -42 80 43 16 32 -44 27 -82 51 0
1 -22 -83 20 67 74 -28 -12 -35 61 58 0
-1 46 -86 49 -85 56 47 78 -64 -29 34 88 -7 53 0
1 22 42 -31 -90 -46 54 63 4 35 0
1 22 -42 -80 -32 -81 4 -68 75 -9 0
1 22 42 -31 -90 -46 -54 -62 -79 0
1 22 42 -31 -90 -46 54 63 -4 0
1 22 42 31 56 25 -8 52 54 0
-1 -46 72 40 -27 33 -86 -51 16 81 -48 0
1 22 -42 80 43 16 32 -44 -27 0
-1 -46 72 40 -27 33 -86 -51 16 81 48 -44 -11 -45 0
1 22 -42 -80 32 23 -75 87 40 44 0
-1 46 -86 49 -85 56 47 78 -64 -29 34 -88 4 0
-1 -46 72 40 27 -7 -20 57 16 38 -55 26 10 -67 0
1 22 42 -31 90 19 -72 0
1 -22 -83 -20 2 -23 0
-1 -46 72 40 27 -7 20 5 -88 -26 -43 -56 -6 0
-1 46 -86 49 -85 56 47 -78 76 24 0
1 -22 83 89 -68 62 -51 -13 63 27 0
-1 46 -86 -49 47 -66 51 -6 0
1 22 42 -31 -90 -46 54 -63 7 -30 0
1 22 -42 80 -43 -88 -48 79 11 84 -82 0
1 -22 -83 20 67 74 28 -75 -23 29 0
-1 -46 -72 -73 -88 -71 -49 -90 45 40 58 -6 69 -37 0
1 22 -42 -80 -32 81 31 -28 55 0
1 -22 83 -89 70 77 41 3 -4 0
-1 -46 72 40 27 -7 -20 -57 10 -34 -29 59 -88 62 0
-1 46 -86 -49 47 66 55 -62 2 -82 -32 36 0
1 -22 83 89 68 57 34 -39 15 -46 0
1 22 -42 80 -43 -88 -48 79 -11 -90 0
-1 -46 -72 -73 -88 -71 -49 -90 -45 -28 24 0
1 22 -42 80 -43 -88 48 74 24 -77 -25 0
-1 46 -86 -49 -47 -81 -90 57 64 2 -55 0
-1 -46 -72 -73 -88 -71 -49 -90 -45 28 -51 -25 0
-1 -46 -72 -73 -88 -71 49 -19 -69 77 -13 67 -76 0
-1 -46 72 40 -27 33 -86 -51 -16 -23 -13 59 -58 0
-1 -46 -72 73 -47 59 12 0
-1 -46 -72 73 47 61 4 -70 -42 -75 55 -10 0
-1 46 -86 -49 47 66 55 62 88 45 42 -84 -87 0
-1 -46 72 40 -27 -33 37 -13 -14 -24 15 -59 0
1 22 -42 -80 -32 81 -31 -59 0
1 -22 -83 20 67 -74 -26 57 0
-1 46 86 76 -40 -55 -6 77 43 0
-1 46 86 76 40 64 8 81 -78 15 29 0
-1 46 86 76 -40 -55 6 -72 -33 83 -71 51 45 68 0
-1 -46 -72 73 47 61 -4 -36 74 -71 0
-1 -46 -72 -73 88 -13 -74 -7 12 0
1 22 -42 -80 32 23 -75 87 -40 37 0
1 22 42 31 56 25 -8 52 -54 43 33 0
-1 -46 72 40 -27 33 -86 -51 16 81 48 44 54 0
-1 46 -86 -49 47 66 55 -62 -2 -74 35 0
1 -22 83 -89 -70 53 -4 5 79 0
-1 46 86 76 40 64 8 81 78 -39 0
-1 -46 72 40 27 -7 20 5 88 69 -39 -33 -16 74 -84 -52 0
-1 -46 -72 73 47 -61 -88 67 -87 0
-1 -46 72 -40 -51 41 -57 61 0
-1 46 -86 49 85 -16 35 3 58 23 0
-1 -46 72 40 27 -7 -20 57 -16 -15 66 82 0
1 22 42 31 -56 46 -41 -80 0
-1 -46 -72 -73 -88 -71 49 -19 -69 -77 -76 0
1 22 -42 80 -43 -88 48 74 -24 35 -83 0
1 22 -42 80 43 16 -32 13 19 25 0
1 22 -42 80 -43 -88 48 -74 39 -41 38 0
-1 -46 72 -40 -51 -41 -36 7 -76 0
-1 -46 72 -40 51 26 -50 62 -83 0
-1 -46 72 -40 51 -26 -76 -80 -36 0
1 -22 83 -89 -70 53 4 -21 76 3 -32 19 56 0
1 22 -42 80 43 16 32 44 0
1 22 -42 -80 32 23 75 28 54 0
-1 46 -86 49 -85 56 -47 -68 7 87 -8 0
1 22 42 -31 -90 46 -32 4 86 -9 -65 0
-1 -46 -72 73 47 61 4 -70 42 5 -71 0
1 -22 -83 -20 -2 -77 -8 0
1 -22 83 -89 -70 -53 4 -62 17 -40 0
-1 -46 72 40 27 -7 20 -5 -53 50 79 14 -18 -58 -16 -15 0
1 -22 -83 20 67 74 -28 -12 -35 -61 -58 0
-1 -46 72 40 27 7 -23 -71 -65 -36 84 0
-1 -46 72 40 -27 33 86 68 56 12 57 -73 0
-1 -46 72 40 27 -7 -20 57 16 38 -55 26 10 67 0
-1 46 -86 49 -85 56 47 78 64 -53 0
1 -22 -83 20 67 -74 -26 -57 -84 0
1 22 42 31 -56 -46 -7 63 36 0
-1 -46 -72 -73 -88 -71 49 19 24 85 0
-1 46 -86 -49 47 66 55 -62 -2 74 -80 0
1 -22 83 89 68 57 -34 2 -10 0
1 -22 83 -89 70 -77 -37 29 -76 -10 0
-1 -46 72 40 27 -7 -20 -57 10 -34 29 83 0
1 22 42 31 -56 -46 -7 -63 -76 0
1 22 42 31 -56 -46 7 43 39 -41 65 -50 0
1 22 42 -31 -90 46 -32 4 86 9 -75 0
1 22 -42 80 -43 88 -47 -12 44 62 0
1 22 42 31 -56 46 41 -13 -11 -29 -43 -60 0
-1 46 -86 49 -85 56 -47 -68 7 87 8 44 0
-1 46 -86 -49 -47 81 -89 -33 80 54 0
-1 -46 72 -40 51 -26 76 0
1 22 42 -31 -90 46 -32 4 86 -9 65 0
-1 -46 72 40 -27 -33 -37 67 -89 -20 13 -66 0
1 -22 -83 20 67 -74 26 63 79 85 0
-1 -46 72 40 -27 33 -86 -51 -16 -23 -13 59 58 0
1 -22 83 -89 70 77 -41 -66 76 0
1 22 -42 80 -43 -88 48 74 24 77 -67 41 0
-1 -46 -72 -73 88 -13 74 75 -58 0
1 -22 83 -89 -70 -53 4 62 21 0
-1 46 -86 49 85 16 -57 -37 -40 0
1 -22 83 -89 -70 53 -4 5 -79 0
1 -22 83 -89 70 -77 -37 -29 86 0
-1 -46 -72 -73 -88 -71 49 19 24 -85 -16 0
-1 -46 72 40 -27 -33 37 -13 14 -22 0
-1 46 86 76 -40 55 10 -57 50 -9 54 0
1 22 42 31 56 -25 55 44 8 -63 -26 66 43 0
-1 46 -86 -49 47 66 55 -62 2 -82 32 56 0
-1 -46 72 -40 -51 41 -57 -61 0
-1 -46 72 -40 -51 41 57 59 0
1 22 42 -31 -90 46 -32 -4 -87 26 0
-1 46 86 76 -40 -55 -6 77 -43 36 0
-1 -46 -72 -73 -88 -71 -49 -90 45 40 58 -6 -69 15 0
-1 -46 72 -40 -51 -41 36 30 -20 -78 -74 -68 0
-1 -46 72 40 27 -7 20 -5 53 -2 -63 11 -9 -59 0
-1 46 86 76 40 64 8 -81 -29 0
-1 46 86 76 40 -64 79 -31 45 0
1 -22 83 -89 -70 53 4 -21 76 3 -32 -19 -60 66 0
-1 -46 72 -40 51 26 50 83 89 -47 0
-1 -46 72 40 -27 -33 -37 67 89 0
1 22 42 -31 90 -19 63 -25 -15 -50 0
-1 46 -86 -49 47 66 55 62 88 45 -42 72 21 0
-1 -46 72 40 27 -7 20 -5 -53 -50 -11 -23 -16 22 0
-1 -46 -72 -73 -88 -71 -49 -90 -45 28 51 17 -26 29 0
1 -22 -83 -20 -2 77 0
-1 46 86 76 -40 -55 6 -72 -33 83 -71 51 -45 0
1 22 -42 -80 32 23 75 28 -54 68 77 25 0
-1 -46 -72 -73 88 13 -80 -23 70 0
-1 46 -86 49 -85 -56 43 68 0
-1 46 -86 -49 -47 -81 90 0
-1 46 86 76 -40 -55 -6 -77 0
1 -22 83 -89 -70 53 4 -21 76 -3 -56 0
1 22 -42 80 43 16 -32 13 -19 7 0
1 22 42 31 56 25 8 67 50 0
1 22 -42 80 -43 88 -47 12 83 -46 0
-1 46 86 76 -40 -55 6 -72 -33 83 -71 51 45 -68 0
1 -22 83 -89 70 77 41 -3 59 0
-1 46 -86 -49 47 66 55 62 -88 -48 4 72 -32 -34 0
1 22 42 31 56 -25 55 44 8 -63 26 19 0
1 22 42 -31 -90 46 32 0
1 22 -42 80 -43 88 -47 -12 -44 -71 -73 0
-1 -46 72 40 -27 -33 37 13 39 -18 0
-1 -46 72 40 -27 33 -86 -51 -16 -23 -13 -59 -56 0
1 -22 83 89 68 57 34 39 -53 0
-1 46 -86 49 85 -16 35 3 58 -23 -51 0
-1 46 -86 -49 47 66 55 62 -88 -48 -4 -14 -52 16 -81 0
-1 -46 72 40 27 -7 20 -5 -53 50 79 14 -18 58 22 15 0
1 -22 83 -89 -70 53 -4 -5 -37 -90 51 0
-1 -46 72 40 27 -7 20 5 -88 -26 43 87 22 0
1 22 42 31 -56 46 41 -13 -11 -29 43 0
-1 -46 -72 -73 88 -13 74 75 58 0
1 -22 -83 20 67 74 -28 -12 35 29 0
-1 -46 72 40 -27 -33 37 13 39 18 90 28 32 77 0
-1 -46 72 40 -27 -33 37 13 39 18 90 28 -32 55 22 0
-1 -46 -72 -73 88 -13 -74 -7 -12 0
1 22 42 -31 90 19 72 -89 -34 -27 -69 0
1 22 42 31 56 25 8 -67 -89 0
-1 -46 72 40 -27 33 -86 -51 -16 -23 -13 -59 56 0
-1 -46 -72 73 47 61 4 -70 -42 -75 -55 0
-1 -46 72 40 27 -7 20 -5 -53 -50 11 -60 -76 73 0
1 -22 83 89 68 -57 71 32 0
1 -22 83 -89 -70 -53 -4 -66 81 0
1 22 42 -31 -90 -46 54 63 4 -35 0
-1 -46 72 40 -27 -33 37 13 -39 0
1 22 -42 80 43 16 -32 13 -19 -7 0
1 22 -42 -80 32 -23 -28 10 71 7 -18 0
-1 -46 72 40 27 -7 -20 -57 -10 -82 0
1 -22 -83 20 67 74 -28 -12 35 -29 10 0
1 -22 83 -89 -70 -53 -4 -66 -81 0
1 22 42 31 56 25 -8 -52 14 39 59 11 0
-1 -46 72 40 -27 -33 -37 -67 53 -50 -75 -4 80 0
1 -22 -83 20 67 74 -28 -12 -35 -61 58 32 0
-1 -46 72 40 27 7 -23 71 66 87 0
1 22 -42 -80 32 23 -75 -87 0
-1 -46 72 40 -27 -33 -37 -67 53 -50 -75 -4 -80 -41 0
1 22 -42 80 43 -16 85 44 -70 84 0
-1 -46 -72 73 47 -61 -88 67 87 11 -38 -37 0
1 22 42 -31 90 -19 63 25 80 68 0
1 -22 -83 20 67 74 -28 12 68 0
-1 -46 72 40 27 -7 -20 57 16 -38 18 68 0
1 -22 -83 20 -67 -63 50 0
-1 -46 72 40 -27 -33 37 -13 -14 24 45 54 85 0
1 22 -42 80 -43 -88 48 74 -24 -35 0
-1 46 -86 49 -85 -56 -43 18 4 0
-1 -46 -72 -73 -88 -71 -49 -90 45 40 58 -6 69 37 0
1 22 42 -31 -90 46 -32 -4 87 -34 55 75 0
1 22 -42 80 -43 88 -47 12 -83 -72 -71 0
1 22 42 31 -56 -46 7 43 39 -41 65 50 87 0
1 22 42 -31 -90 -46 54 -63 -7 0
-1 46 86 -76 15 -36 -51 9 -48 -43 -10 -56 0
1 22 42 31 56 -25 -55 0
-1 -46 72 40 27 -7 20 5 -88 26 -39 0
1 22 42 31 -56 46 41 13 40 0
1 -22 83 89 68 57 34 -39 15 46 0
1 22 42 31 56 -25 55 44 -8 0
-1 -46 72 40 -27 -33 37 13 39 18 90 -28 -81 15 -44 -31 0
1 22 42 -31 -90 46 -32 -4 87 34 0
-1 -46 72 40 27 7 23 -53 -4 -59 0
-1 -46 72 40 27 -7 20 5 88 69 -39 -33 16 -65 -59 45 -35 0
-1 -46 -72 -73 -88 -71 -49 -90 -45 28 51 -17 76 0
-1 46 -86 49 -85 56 47 78 64 53 0
-1 -46 72 40 -27 -33 37 13 39 18 90 28 -32 -55 -8 0
-1 46 -86 -49 -47 -81 -90 57 64 2 55 0
-1 46 86 -76 15 -36 -51 9 -48 -43 -10 56 0
-1 -46 72 40 -27 -33 37 13 39 18 90 28 -32 -55 8 -31 0
1 22 -42 80 -43 88 -47 12 83 46 -90 0
-1 -46 -72 73 47 61 4 -70 -42 75 -27 0
1 22 -42 -80 -32 81 31 28 18 -85 0
-1 -46 72 40 27 -7 20 -5 53 2 88 13 0
1 -22 83 -89 -70 53 4 21 -76 0
-1 -46 -72 -73 -88 -71 49 19 -24 -78 34 -76 0
1 22 42 -31 -90 46 -32 4 -86 56 -38 0
-1 -46 72 40 27 -7 20 5 88 69 -39 33 -61 -11 -8 0
-1 46 86 76 -40 -55 6 -72 -33 83 71 0
1 -22 83 89 -68 62 51 -6 63 0
-1 46 -86 49 -85 56 47 78 -64 -29 34 -88 -4 81 0
-1 -46 72 40 27 -7 -20 57 16 38 55 68 89 0
-1 46 -86 49 -85 -56 43 -68 0
-1 -46 -72 73 -47 59 -12 -18 0
-1 -46 72 40 27 -7 20 -5 -53 50 79 14 18 -75 0
1 22 -42 -80 -32 -81 4 -68 -75 0
-1 46 -86 -49 47 66 55 -62 -2 -74 -35 0
-1 46 -86 -49 47 66 55 62 88 45 -42 72 -21 0
-1 -46 72 40 27 -7 -20 57 -16 -15 66 -82 17 65 -18 0
-1 46 -86 49 -85 56 47 -78 76 -24 0
1 22 -42 80 -43 -88 -48 -79 -7 -57 63 0
-1 -46 72 40 27 -7 20 -5 53 2 -88 13 -9 -50 0
-1 46 86 -76 15 -36 -51 9 -48 -43 10 33 0
-1 46 -86 -49 -47 81 -89 33 62 0
-1 -46 72 40 -27 -33 37 13 39 18 90 -28 -81 -15 0
-1 -46 72 40 27 -7 -20 57 -16 -15 66 -82 17 65 18 0
1 -22 83 89 -68 62 51 -6 -63 0
-1 -46 72 40 27 -7 20 5 88 69 39 -71 0
1 22 -42 -80 32 23 75 28 -54 -68 0
1 22 -42 -80 32 -23 -28 10 71 -7 47 0
1 22 -42 -80 -32 -81 4 68 50 0
-1 -46 72 40 -27 -33 37 13 39 18 90 28 32 -77 0
-1 -46 72 40 27 -7 20 5 -88 -26 -43 -56 6 64 0
-1 46 -86 49 85 -16 35 3 58 -23 51 0
1 22 -42 80 -43 -88 48 74 -24 35 83 90 0
-1 -46 72 -40 51 26 50 83 -89 0
1 22 -42 -80 -32 81 -31 59 -86 0
1 22 42 31 -56 46 41 -13 11 -71 0
1 -22 -83 20 -67 63 34 87 24 0
-1 46 -86 49 -85 56 47 78 -64 -29 -34 0
-1 -46 -72 -73 -88 -71 -49 -90 -45 -28 -24 0
1 -22 83 -89 -70 53 -4 -5 -37 -90 -51 -44 0
1 22 42 31 -56 -46 7 -43 54 0
1 22 42 -31 90 -19 63 25 -80 44 -35 26 0
-1 46 -86 -49 -47 -81 -90 57 64 -2 0
-1 -46 -72 -73 -88 -71 49 19 24 -85 16 35 0
-1 46 86 -76 15 -36 -51 -9 -48 66 -47 0
-1 -46 72 40 27 -7 -20 -57 10 -34 -29 -59 0
-1 46 86 76 40 64 8 81 78 39 0
-1 -46 72 40 27 -7 -20 57 -16 -15 66 -82 -17 0
-1 -46 -72 73 -47 -59 0
-1 46 -86 49 -85 -56 -43 -18 20 -22 0
-1 -46 72 40 -27 33 -86 -51 -16 23 0
-1 46 86 -76 15 -36 -51 -9 -48 66 47 0
1 22 -42 -80 32 23 75 -28 -77 -7 68 0
1 -22 83 -89 70 77 -41 66 0
1 22 -42 -80 32 -23 -28 10 -71 77 0
1 22 42 31 -56 -46 7 -43 -54 0
-1 -46 72 40 27 -7 20 5 88 69 -39 -33 16 65 -42 0
-1 -46 72 40 27 -7 -20 57 16 -38 18 -68 0
-1 46 86 76 -40 -55 6 -72 33 -66 0
-1 -46 72 40 27 -7 -20 -57 10 -34 -29 59 88 0
1 -22 83 -89 70 -77 37 41 38 0
-1 -46 -72 -73 -88 -71 49 -19 69 -79 0
-1 -46 72 40 27 -7 -20 57 16 38 55 68 -89 29 -50 0
1 -22 83 89 68 57 34 39 53 0
-1 -46 72 40 -27 33 86 68 56 -12 26 0
-1 -46 72 40 27 -7 20 -5 53 2 -88 -13 22 0
1 22 42 -31 90 19 72 -89 -34 27 -15 -85 0
-1 46 86 -76 15 -36 -51 -9 48 0
1 22 42 31 56 -25 55 44 8 -63 26 -19 0
-1 -46 -72 73 47 61 4 70 25 -54 38 0
1 22 -42 -80 32 -23 -28 -10 0
-1 -46 72 40 27 -7 20 -5 -53 50 -79 -6 0
-1 46 86 76 -40 -55 6 72 52 88 62 -49 0
-1 46 86 -76 -15 -81 16 0
-1 -46 -72 73 47 61 4 -70 -42 75 27 38 0
1 -22 83 89 -68 -62 -90 0
-1 -46 -72 -73 88 13 -80 23 4 0
1 22 42 -31 -90 46 -32 -4 -87 -26 0
-1 -46 72 40 27 -7 -20 -57 10 34 -43 15 0
-1 -46 -72 -73 -88 -71 49 19 -24 78 68 13 0
-1 -46 72 40 27 -7 -20 57 -16 -15 -66 0
-1 -46 72 40 27 -7 -20 -57 10 34 43 -59 -68 -64 0
-1 -46 72 40 -27 33 -86 -51 16 81 48 -44 11 10 0
-1 -46 72 40 27 -7 -20 57 -16 15 -53 0
1 22 -42 80 -43 88 -47 12 -83 72 13 -56 5 0
1 22 -42 -80 -32 -81 4 -68 75 9 0
1 -22 83 89 -68 62 -51 -13 63 -27 17 0
-1 46 86 76 -40 -55 6 72 -52 42 0
1 22 -42 80 -43 88 -47 12 -83 72 13 56 0
-1 46 -86 -49 -47 81 89 4 0
1 22 -42 80 -43 -88 48 74 24 -77 25 0
1 22 -42 80 43 -16 85 44 -70 -84 0
-1 -46 72 40 27 -7 20 -5 -53 -50 -11 23 10 -64 -9 -86 0
-1 -46 -72 -73 -88 -71 -49 -90 -45 28 -51 25 0
-1 46 86 -76 -15 -81 -16 47 89 0
1 -22 -83 20 67 74 28 -75 -23 -29 0
-1 -46 72 40 27 -7 20 -5 53 -2 -63 11 9 0
-1 -46 72 -40 -51 -41 36 30 -20 78 0
-1 -46 -72 -73 -88 71 -5 43 78 0
-1 -46 -72 -73 -88 -71 49 19 -24 78 -68 26 0
-1 46 -86 49 85 -16 -35 -2 0
-1 -46 72 40 -27 33 86 -68 21 -14 0
1 22 42 -31 -90 46 -32 4 -86 -56 0
-1 46 86 76 -40 -55 6 72 52 88 -62 0
-1 -46 -72 -73 -88 -71 -49 -90 -45 28 51 17 26 5 0
-1 46 86 -76 15 -36 -51 -9 -48 -66 17 0
-1 46 -86 49 -85 56 -47 68 -31 0
1 22 42 -31 90 19 72 89 -41 -27 0
-1 46 -86 49 85 16 57 -52 55 22 0
-1 46 -86 49 -85 -56 -43 -18 20 22 -17 -67 0
-1 -46 72 40 27 -7 20 5 88 69 -39 -33 16 -65 -59 45 35 0
1 -22 -83 20 67 74 -28 -12 35 -29 -10 0
1 22 -42 80 -43 -88 -48 79 -11 90 0
-1 -46 -72 -73 -88 -71 -49 -90 45 -40 43 60 0
1 22 42 -31 90 -19 -63 0
-1 46 86 76 -40 55 10 -57 -50 54 -78 0
1 22 -42 -80 32 -23 -28 10 71 7 18 -60 0
1 -22 83 89 68 57 34 -39 -15 0
-1 46 -86 -49 -47 81 89 -4 -21 0
-1 -46 72 40 -27 -33 37 -13 -14 24 -45 0
-1 -46 -72 73 47 61 4 70 -25 32 0
1 -22 -83 20 67 -74 26 -63 -8 87 0
-1 46 86 76 -40 -55 6 72 52 88 62 49 0
1 22 -42 -80 -32 81 -31 59 86 -9 0
-1 46 -86 -49 47 66 55 62 -88 48 61 82 69 63 0
-1 -46 72 40 27 -7 20 -5 -53 -50 -11 -23 16 0
-1 -46 72 40 27 -7 20 -5 -53 -50 -11 23 10 -64 9 90 44 84 0
-1 -46 -72 73 47 -61 -88 67 87 11 -38 37 0
1 -22 83 -89 -70 53 4 -21 76 3 -32 19 -56 90 -14 0
1 -22 -83 -20 2 23 61 0
1 22 -42 -80 -32 81 -31 59 86 9 0
1 22 -42 80 -43 -88 48 -74 39 -41 -38 0
-1 -46 72 40 27 7 -23 -71 -65 -36 -84 -20 0
-1 -46 72 40 -27 33 86 -68 -21 12 0
-1 46 -86 49 -85 -56 -43 18 -4 -17 0
-1 -46 -72 -73 -88 -71 -49 -90 45 -40 43 -60 -25 0
1 22 -42 -80 -32 81 31 28 -18 0
-1 46 -86 -49 47 66 55 -62 2 -82 -32 -36 0
1 -22 83 89 -68 62 51 6 58 -77 -34 0
-1 -46 72 -40 -51 -41 36 -30 0
1 22 -42 -80 32 23 75 -28 -77 -7 -68 0
-1 -46 -72 -73 88 13 80 56 0
-1 -46 72 40 27 -7 20 5 88 69 -39 -33 16 65 42 0
-1 46 86 -76 15 36 64 0
-1 -46 -72 -73 88 -13 74 -75 0
-1 -46 72 40 -27 -33 -37 67 -89 -20 -13 61 -64 0
1 -22 83 89 -68 62 -51 13 0
-1 46 -86 -49 47 66 55 62 -88 48 61 82 69 -63 0
1 22 -42 80 -43 88 -47 12 -83 72 13 -56 -5 0
1 -22 -83 20 -67 -63 -50 88 53 16 0
