c NeuroCodeBench 2.0 CNF formula with verdict Unsat
p cnf 58 373
-1 -18 -19 20 5 -25 -28 35 33 57 0
1 9 45 29 52 -38 28 -7 -16 0
-1 -18 19 52 55 -3 42 -24 -32 -25 47 45 0
1 9 45 -29 12 40 -2 38 46 21 0
-1 18 -32 -12 -37 -27 -54 -7 0
1 9 45 -29 -12 -19 0
-1 18 -32 12 55 53 -4 36 17 0
1 9 45 29 -52 41 6 7 -27 -43 -49 0
-1 18 32 31 -12 -35 -26 0
-1 -18 -19 -20 -41 50 56 10 -12 3 -47 36 8 0
-1 -18 19 52 -55 -10 0
-1 18 -32 12 -55 -23 -44 -29 41 -45 22 -8 0
-1 18 -32 12 55 53 4 -34 -20 0
-1 -18 19 -52 35 -11 -54 25 30 -14 0
1 9 45 29 52 38 18 47 0
1 9 45 -29 12 40 -2 -38 25 10 0
-1 -18 -19 20 5 25 54 -57 -28 46 -9 48 -11 0
-1 -18 -19 -20 41 32 9 29 -12 35 55 0
1 -9 -16 -38 37 32 -52 0
1 -9 16 -50 12 -36 -8 26 21 -31 0
1 -9 16 50 5 -49 21 -41 -7 25 0
-1 -18 -19 -20 -41 50 -56 -55 0
-1 18 32 -31 -20 -35 -12 29 0
-1 18 32 -31 20 -36 -28 -19 0
-1 -18 19 -52 -35 -48 -36 3 0
-1 -18 -19 -20 41 32 9 -29 -25 -12 0
-1 -18 -19 -20 41 32 9 29 -12 -35 -33 -8 0
1 9 45 -29 12 -40 15 -34 -33 0
1 9 45 29 -52 41 6 7 -27 43 -19 0
-1 -18 -19 20 5 25 54 -57 -28 46 -9 48 11 0
-1 -18 -19 -20 41 -32 4 -29 -39 0
-1 -18 -19 -20 -41 50 56 10 12 -32 -2 0
-1 -18 -19 -20 41 32 9 29 -12 -35 33 40 0
1 9 45 -29 12 40 2 -41 -15 0
1 9 45 29 -52 41 6 7 27 -35 -55 -36 0
1 -9 16 -50 -12 48 -17 -42 -27 20 0
-1 18 32 31 -12 35 41 0
1 9 45 -29 -12 19 -3 0
-1 18 -32 12 55 53 4 -34 20 -45 0
-1 18 -32 -12 -37 -27 54 -34 39 0
-1 -18 19 52 -55 10 -41 -47 -16 0
1 -9 16 -50 -12 -48 39 33 40 23 -3 -58 22 0
-1 -18 19 -52 35 11 -45 -6 14 4 0
-1 18 32 -31 20 -36 28 -11 0
1 9 45 -29 12 40 -2 38 46 -21 0
-1 -18 -19 -20 -41 50 56 10 12 -32 2 0
-1 18 -32 -12 37 -48 7 -54 -36 -3 -28 -31 -16 0
1 -9 16 -50 -12 -48 39 33 -40 0
-1 -18 19 -52 -35 -48 -36 -3 -58 0
-1 18 -32 -12 37 48 -53 -20 -45 -25 0
-1 -18 -19 20 5 25 54 -57 -28 -46 45 0
-1 -18 19 52 55 3 -53 -11 0
1 -9 16 -50 -12 -48 39 33 40 23 3 30 0
1 9 -45 -51 -23 -22 0
1 -9 16 -50 -12 -48 39 -33 32 43 0
-1 -18 -19 20 5 25 54 -57 -28 46 9 -48 0
-1 18 -32 -12 37 -48 7 -54 -36 3 0
1 9 45 29 52 38 -18 0
-1 -18 19 -52 35 -11 54 2 17 0
-1 -18 -19 20 5 -25 28 -8 47 -32 0
1 9 45 29 -52 41 6 -7 -42 51 32 0
-1 -18 19 52 55 3 -53 11 0
-1 18 32 -31 -20 -35 12 -48 -58 0
-1 18 32 -31 -20 -35 12 48 -52 37 22 4 -50 0
-1 18 -32 -12 -37 27 -47 53 -51 5 -57 0
-1 -18 19 -52 -35 -48 -36 -3 58 0
-1 18 -32 12 55 -53 -54 -49 5 -51 0
-1 -18 19 -52 35 11 -45 6 -39 -23 15 0
-1 18 -32 12 55 53 -4 36 -17 0
-1 18 32 31 -12 -35 26 -8 0
-1 18 -32 -12 -37 27 -47 53 51 -4 0
-1 18 32 -31 -20 35 -57 -45 -41 0
-1 -18 -19 -20 41 -32 4 29 -12 -36 0
1 -9 16 -50 -12 48 17 36 -26 -25 0
-1 18 -32 -12 37 48 53 3 -29 -49 0
-1 18 -32 -12 -37 -27 -54 7 48 0
-1 -18 -19 -20 -41 50 -56 55 0
-1 -18 -19 -20 -41 50 56 10 -12 3 47 -7 0
1 -9 16 -50 12 36 -41 -4 0
-1 -18 -19 20 5 -25 -28 35 -33 0
-1 18 32 -31 -20 -35 12 -48 58 0
-1 18 -32 12 55 -53 -54 -49 -5 0
1 -9 16 -50 -12 48 17 -36 0
-1 18 32 -31 -20 35 -57 -45 41 55 0
-1 18 -32 12 -55 -23 -44 29 8 0
-1 18 -32 12 55 -53 -54 49 14 0
-1 18 -32 12 -55 -23 44 -46 -58 -47 0
-1 18 -32 -12 37 48 -53 -20 45 -34 0
-1 18 -32 12 -55 -23 -44 -29 41 45 0
-1 18 -32 -12 -37 27 -47 53 51 4 -11 0
-1 -18 19 -52 35 11 -45 6 -39 23 -37 0
1 -9 16 -50 12 -36 -8 -26 -54 0
-1 18 -32 -12 -37 -27 54 34 33 0
-1 -18 19 -52 35 11 45 40 -22 -58 -30 0
-1 -18 -19 -20 41 -32 -4 -35 -45 0
-1 18 -32 12 55 -53 -54 -49 5 51 0
-1 -18 19 -52 35 11 45 -40 54 0
-1 -18 -19 -20 41 32 -9 -49 0
-1 18 -32 -12 37 -48 7 54 0
1 9 -45 51 -21 -32 0
1 9 45 -29 12 40 -2 38 -46 0
-1 -18 -19 20 5 25 54 57 13 6 0
-1 -18 -19 -20 41 -32 4 29 12 0
-1 -18 19 52 55 -3 -42 -38 -29 0
1 -9 16 -50 12 -36 -8 26 -21 0
-1 18 32 -31 20 36 7 0
1 9 45 29 52 38 18 -47 0
-1 -18 -19 20 5 25 54 -57 -28 -46 -45 -17 0
-1 18 32 31 12 39 50 -26 -33 -16 0
-1 18 -32 12 55 -53 -54 49 -14 0
-1 -18 19 52 -55 10 -41 -47 16 13 0
-1 -18 19 52 55 -3 42 -24 -32 -25 47 -45 0
-1 18 32 -31 -20 -35 12 48 -52 37 22 -4 0
-1 -18 -19 -20 -41 50 56 10 -12 3 -47 36 -8 -42 33 0
-1 -18 -19 20 5 -25 -28 35 33 -57 -51 0
-1 -18 19 52 55 3 53 -32 0
-1 -18 19 -52 35 11 -45 -6 -14 0
-1 -18 -19 -20 41 32 -9 49 0
-1 18 32 31 12 39 -50 40 -42 0
-1 18 32 -31 20 36 -7 0
1 9 45 29 -52 41 -6 -12 -50 0
-1 -18 19 -52 35 -11 54 2 -17 0
-1 -18 -19 20 -5 0
1 9 45 -29 12 40 -2 -38 25 -10 -46 0
1 -9 16 50 5 -49 -21 0
-1 -18 -19 20 5 25 54 -57 -28 46 9 48 0
1 9 -45 -51 -23 22 19 0
1 9 45 -29 12 40 -2 -38 25 -10 46 33 0
1 -9 16 -50 12 -36 8 -53 26 0
-1 18 -32 -12 -37 27 -47 53 -51 5 57 58 36 0
-1 -18 -19 -20 -41 50 56 10 -12 3 -47 36 -8 42 0
-1 -18 -19 20 5 25 54 -57 28 -37 14 -13 -33 0
-1 18 -32 -12 37 -48 7 -54 -36 -3 -28 31 0
-1 -18 -19 20 5 25 54 57 -13 -7 0
-1 18 -32 -12 37 48 53 -3 0
-1 -18 -19 20 5 -25 28 8 -49 54 0
-1 18 -32 12 -55 -23 44 -46 58 -22 0
1 9 -45 51 -21 32 11 4 0
1 -9 -16 38 -10 -57 20 -21 -42 0
1 9 -45 51 21 18 44 0
-1 18 32 31 12 39 50 26 -27 0
-1 -18 -19 -20 41 -32 4 -29 39 -49 0
1 -9 -16 38 -10 57 -51 41 0
1 -9 -16 38 10 -36 45 0
-1 18 -32 -12 37 -48 7 -54 -36 -3 -28 -31 16 0
-1 -18 19 -52 35 -11 54 -2 0
1 9 -45 51 21 -18 -32 0
-1 -18 -19 -20 -41 -50 36 -13 32 15 10 -37 0
-1 -18 -19 20 5 -25 28 8 -49 -54 10 0
1 9 45 29 -52 41 6 7 27 -35 -55 36 0
1 -9 16 -50 -12 48 17 36 26 0
-1 18 -32 -12 37 48 -53 -20 -45 25 0
-1 -18 -19 20 5 -25 28 -8 -47 0
-1 -18 -19 20 5 -25 28 -8 47 32 0
-1 -18 -19 -20 -41 -50 36 -13 32 -15 0
-1 18 32 -31 -20 -35 12 48 -52 37 22 4 50 0
-1 -18 -19 20 5 -25 -28 35 33 -57 51 0
-1 -18 19 -52 35 11 -45 6 -39 23 37 0
1 9 -45 51 -21 32 -11 0
-1 -18 -19 20 5 25 54 -57 28 -37 14 -13 33 0
1 -9 -16 38 -10 57 -51 -41 -13 0
-1 18 32 -31 20 -36 28 11 0
-1 18 -32 -12 37 -48 7 -54 36 0
-1 18 -32 12 55 -53 54 -37 -7 0
-1 -18 19 52 55 -3 42 24 -8 0
-1 18 -32 -12 37 48 -53 20 -56 3 0
-1 -18 19 -52 -35 -48 36 21 49 -32 0
1 -9 16 50 5 49 0
-1 -18 19 -52 -35 48 -30 0
-1 -18 19 -52 35 11 45 40 22 0
1 -9 -16 38 -10 -57 20 -21 42 0
-1 -18 19 -52 35 11 -45 6 39 0
-1 -18 -19 -20 41 32 9 29 -12 -35 33 -40 -11 13 0
-1 -18 19 -52 35 11 45 40 -22 -58 30 0
-1 18 -32 12 -55 -23 -44 -29 41 -45 22 8 0
-1 -18 19 -52 35 -11 -54 -25 32 -49 0
-1 -18 19 -52 35 -11 -54 25 -30 0
1 -9 16 -50 -12 48 17 36 -26 25 0
1 -9 -16 38 -10 57 51 0
1 9 -45 51 21 18 -44 -43 52 0
-1 18 -32 -12 -37 -27 54 34 -33 0
-1 -18 -19 -20 -41 -50 36 -13 -32 -37 0
-1 -18 19 -52 -35 -48 36 21 -49 -51 0
1 9 -45 51 -21 32 11 -4 -29 0
1 9 -45 -51 -23 22 -19 0
1 9 45 -29 12 40 2 -41 15 0
-1 -18 19 52 55 -3 42 -24 32 0
1 -9 16 -50 -12 -48 39 -33 32 -43 0
1 9 45 29 -52 -41 0
-1 18 32 -31 -20 -35 12 48 52 -11 0
-1 18 32 31 12 39 -50 -40 0
1 9 -45 -51 23 8 26 0
-1 -18 -19 -20 41 32 9 29 -12 -35 -33 8 0
1 9 45 -29 12 40 2 41 -35 -58 0
-1 -18 -19 -20 -41 -50 36 13 8 0
-1 18 -32 12 55 53 -4 -36 0
-1 -18 -19 20 5 25 54 -57 -28 46 -9 -48 0
-1 -18 -19 -20 -41 50 56 10 -12 3 47 7 33 0
-1 18 -32 12 55 -53 54 -37 7 -29 0
-1 18 -32 -12 37 48 -53 -20 45 34 0
-1 -18 19 -52 35 -11 -54 -25 32 49 0
-1 18 32 31 12 -39 0
1 -9 16 -50 12 -36 8 -53 -26 0
1 9 45 29 52 -38 -28 -18 0
1 -9 16 -50 12 36 41 -51 0
1 -9 16 -50 -12 48 -17 42 -30 -18 0
-1 -18 -19 -20 41 32 9 29 12 0
1 -9 16 -50 -12 -48 39 33 40 -23 24 0
-1 -18 -19 20 5 -25 28 8 -49 -54 -10 0
-1 -18 -19 -20 -41 50 56 -10 0
-1 -18 -19 -20 -41 -50 36 -13 32 15 10 37 0
1 9 45 -29 12 -40 -15 0
1 -9 -16 38 -10 -57 -20 28 0
-1 18 -32 12 -55 -23 -44 -29 -41 0
-1 -18 19 -52 35 -11 -54 -25 -32 0
-1 -18 19 52 -55 10 41 0
-1 18 32 31 12 39 50 -26 33 -11 0
1 9 45 -29 12 40 -2 -38 25 -10 46 -33 0
-1 -18 19 52 55 3 53 32 0
1 9 45 -29 12 40 2 41 -35 58 0
1 -9 16 -50 -12 -48 39 33 40 -23 -24 -20 0
-1 18 32 31 12 39 50 -26 -33 16 0
-1 -18 19 -52 -35 -48 36 21 -49 51 0
1 9 45 29 -52 41 6 -7 -42 -51 14 0
-1 -18 -19 20 5 -25 -28 -35 0
-1 18 -32 12 55 53 4 34 0
-1 -18 -19 -20 -41 50 56 10 12 32 -11 0
-1 18 -32 -12 37 48 -53 20 56 17 0
-1 -18 19 -52 35 11 45 -40 -54 0
-1 18 -32 -12 -37 27 -47 53 51 4 11 0
1 9 45 29 52 -38 28 7 0
-1 -18 -19 -20 41 32 9 -29 25 -46 0
-1 -18 19 52 55 -3 42 -24 -32 25 0
-1 18 32 -31 -20 -35 -12 -29 21 0
1 9 45 -29 -12 19 3 0
1 -9 -16 -38 37 32 52 0
-1 -18 -19 20 5 25 54 57 -13 7 0
1 9 45 -29 12 -40 15 34 -32 0
1 9 -45 51 21 -18 32 0
1 9 -45 -51 23 -8 0
1 -9 16 -50 12 36 41 51 0
-1 18 -32 12 55 -53 54 37 0
-1 18 -32 -12 -37 27 47 0
-1 -18 19 52 55 -3 -42 38 0
-1 -18 -19 -20 -41 50 56 10 12 32 11 0
1 -9 -16 -38 -37 10 0
-1 -18 -19 -20 -41 -50 36 -13 -32 37 0
-1 -18 19 -52 -35 -48 36 -21 0
1 -9 -16 -38 37 -32 0
-1 18 -32 -12 -37 -27 -54 7 -48 0
-1 18 32 31 -12 -35 26 8 0
-1 -18 19 52 55 -3 -42 -38 29 0
1 -9 16 -50 -12 -48 39 33 40 23 -3 -58 -22 0
-1 -18 19 -52 -35 48 30 0
1 -9 16 50 5 -49 21 -41 7 40 0
1 9 -45 51 21 18 -44 43 -49 0
1 9 45 29 -52 41 6 -7 -42 -51 -14 0
-1 -18 19 -52 35 11 -45 -6 14 -4 0
1 9 45 29 -52 41 6 -7 42 0
-1 18 -32 12 -55 -23 -44 -29 41 -45 -22 0
1 -9 16 -50 12 36 -41 4 14 0
1 -9 16 -50 -12 48 -17 -42 -27 -20 0
-1 -18 -19 -20 -41 -50 36 -13 32 15 -10 0
-1 18 -32 -12 -37 27 -47 53 -51 5 57 58 -36 0
-1 18 -32 -12 37 48 53 3 29 0
-1 18 32 31 12 39 50 26 27 0
1 9 -45 -51 23 8 -26 0
1 -9 16 -50 -12 48 -17 -42 27 0
-1 -18 19 -52 -35 -48 36 21 49 32 0
-1 -18 -19 -20 -41 -50 -36 3 0
1 -9 -16 38 -10 -57 -20 -28 0
-1 18 -32 -12 -37 27 -47 -53 0
-1 -18 -19 -20 41 -32 4 -29 39 49 -51 0
-1 -18 -19 -20 -41 -50 36 13 -8 0
-1 18 -32 12 55 53 4 -34 20 45 0
1 9 45 29 -52 41 6 7 -27 -43 49 0
1 -9 16 50 5 -49 21 -41 -7 -25 0
1 -9 -16 38 10 -36 -45 0
-1 -18 19 -52 35 11 -45 6 -39 -23 -15 0
-1 18 32 -31 -20 35 -57 -45 41 -55 0
1 9 45 -29 12 40 2 41 35 -55 0
-1 18 32 -31 -20 -35 -12 -29 -21 0
1 9 -45 51 21 18 -44 43 49 0
-1 18 32 31 12 39 -50 40 42 54 0
-1 -18 -19 -20 -41 50 56 10 -12 3 -47 36 -8 -42 -33 -37 0
1 -9 16 -50 12 -36 -8 26 21 31 0
1 -9 16 50 -5 49 0
-1 18 -32 12 -55 -23 -44 29 -8 0
-1 -18 -19 -20 41 32 9 29 -12 -35 33 -40 -11 -13 0
-1 18 32 -31 -20 35 -57 45 0
-1 -18 -19 -20 -41 50 56 10 -12 3 47 7 -33 0
1 -9 16 -50 -12 48 -17 42 30 0
-1 18 32 31 12 39 -50 40 42 -54 0
1 -9 16 -50 12 36 -41 4 -14 0
1 9 45 -29 12 40 -2 -38 -25 0
1 -9 16 -50 -12 -48 39 33 40 23 -3 58 0
1 -9 -16 38 10 36 0
-1 18 -32 12 -55 -23 44 -46 58 22 0
1 9 45 29 -52 41 -6 12 0
-1 18 -32 -12 -37 27 -47 53 -51 -5 0
-1 -18 -19 20 5 25 54 -57 -28 -46 -45 17 0
-1 -18 -19 -20 41 -32 -4 35 21 0
-1 -18 -19 20 5 25 -54 0
-1 -18 -19 20 5 -25 28 8 49 0
-1 -18 -19 -20 41 32 9 -29 25 46 0
-1 -18 -19 -20 -41 50 56 10 -12 -3 0
-1 18 32 31 -12 35 -41 0
-1 18 -32 -12 37 48 -53 20 56 -17 0
-1 18 -32 12 -55 23 0
1 9 45 29 -52 41 6 7 27 35 0
1 9 45 29 -52 41 6 7 27 -35 55 -49 0
1 9 45 -29 12 -40 15 -34 33 0
-1 18 -32 -12 37 -48 7 -54 -36 -3 28 0
-1 -18 -19 -20 41 -32 4 -29 39 49 51 0
1 -9 -16 -38 -37 -10 0
-1 18 -32 12 -55 -23 44 46 0
-1 -18 -19 -20 41 32 9 29 -12 35 -55 0
1 -9 -16 38 -10 -57 20 21 0
-1 18 32 -31 -20 -35 12 48 -52 37 -22 0
-1 -18 -19 -20 -41 -50 -36 -3 0
-1 -18 19 52 -55 10 -41 47 0
-1 18 -32 -12 37 -48 -7 0
-1 -18 -19 -20 41 -32 4 29 -12 36 0
-1 -18 -19 -20 -41 50 56 10 -12 3 -47 -36 0
-1 -18 -19 20 5 25 54 57 13 -6 0
1 -9 -16 38 -10 57 -51 -41 13 0
1 -9 16 50 -5 -49 10 -58 0
1 -9 16 50 5 -49 21 41 0
-1 18 -32 -12 -37 -27 54 -34 -39 0
1 -9 16 -50 -12 -48 39 -33 -32 0
1 9 -45 51 21 18 -44 -43 -52 0
1 9 45 29 -52 41 6 7 27 -35 55 49 0
1 9 45 29 52 -38 -28 18 0
-1 18 32 -31 -20 35 57 0
1 -9 16 -50 -12 48 -17 42 -30 18 0
-1 -18 -19 20 5 25 54 -57 28 -37 14 13 0
-1 18 32 -31 20 -36 -28 19 0
1 9 -45 51 -21 32 11 -4 29 0
-1 18 32 -31 -20 -35 12 48 -52 -37 0
-1 18 32 -31 -20 -35 12 48 52 11 0
-1 -18 19 52 55 -3 42 -24 -32 -25 -47 0
1 9 45 -29 12 -40 15 34 32 0
1 9 45 29 -52 41 6 7 -27 43 19 0
1 -9 16 -50 -12 -48 -39 0
-1 18 -32 -12 -37 27 -47 53 -51 5 57 -58 0
-1 18 -32 -12 37 48 -53 20 -56 -3 0
-1 -18 19 -52 35 11 45 40 -22 58 -2 0
-1 -18 -19 20 5 25 54 -57 28 -37 -14 0
-1 18 -32 12 55 -53 54 -37 7 29 0
-1 -18 -19 -20 41 -32 -4 35 -21 0
1 9 45 29 -52 41 6 -7 -42 51 -32 0
1 -9 16 -50 -12 -48 39 33 40 23 3 -30 0
-1 -18 -19 -20 -41 50 56 10 -12 3 -47 36 -8 -42 -33 37 0
1 -9 16 50 -5 -49 10 58 0
1 9 45 29 -52 41 -6 -12 50 0
-1 -18 19 52 -55 10 -41 -47 16 -13 0
1 9 45 -29 12 40 2 41 35 55 0
-1 -18 -19 -20 41 32 9 -29 -25 12 0
1 -9 16 -50 12 -36 -8 -26 54 0
1 -9 16 -50 12 -36 8 53 0
-1 -18 -19 -20 41 -32 -4 -35 45 0
-1 -18 19 -52 35 -11 -54 25 30 14 0
-1 -18 -19 -20 41 32 9 29 -12 -35 33 -40 11 0
1 -9 16 50 -5 -49 -10 0
-1 18 -32 -12 37 48 53 3 -29 49 0
-1 18 32 31 12 39 50 -26 33 11 0
-1 -18 19 52 55 -3 42 24 8 0
-1 -18 -19 20 5 25 54 -57 28 37 0
-1 18 -32 12 -55 -23 44 -46 -58 47 0
1 -9 16 50 5 -49 21 -41 7 -40 0
-1 -18 19 -52 35 11 45 40 -22 58 2 0
1 9 45 29 52 -38 28 -7 16 0
1 -9 16 -50 -12 -48 39 33 40 -23 -24 20 0
