c NeuroCodeBench 2.0 CNF formula with verdict Unsat
p cnf 98 359
1 55 76 -35 93 -43 75 0
1 -55 33 13 -29 68 46 0
-1 -94 -28 -66 74 85 -88 89 16 0
-1 -94 28 -68 -29 -47 2 -85 -11 0
1 -55 33 -13 -47 17 0
1 55 76 -35 93 43 25 0
1 -55 -33 82 17 -32 38 56 16 0
1 -55 -33 82 -17 3 21 13 60 0
-1 94 44 37 -58 -46 90 7 -39 91 88 47 -78 0
1 55 -76 43 -37 -28 59 25 12 94 0
1 -55 -33 82 17 32 76 62 0
1 55 -76 -43 60 51 -83 26 -87 -29 -85 52 0
1 -55 -33 -82 -79 48 -88 -17 6 0
1 55 -76 -43 -60 -75 31 -46 53 5 -82 0
1 -55 33 13 -29 68 -46 92 0
1 -55 -33 -82 -79 48 88 19 -40 -97 0
1 -55 -33 -82 79 -81 -64 67 39 0
-1 -94 28 -68 29 -13 -69 0
1 55 76 -35 93 -43 -75 2 0
-1 -94 -28 -66 74 85 -88 89 -16 0
1 55 -76 -43 -60 -75 -31 3 0
1 -55 33 13 29 -31 -34 -73 67 47 0
1 -55 33 13 29 31 4 -2 -5 66 51 81 0
-1 94 -44 -67 23 76 32 58 -42 -35 0
1 -55 33 13 29 31 4 2 89 -22 -3 51 0
1 -55 -33 -82 79 -81 64 66 98 -32 0
1 -55 -33 -82 -79 -48 10 0
-1 -94 28 -68 -29 -47 2 85 -83 -36 0
-1 -94 28 -68 -29 47 92 0
1 55 -76 43 -37 28 -14 94 0
-1 94 -44 67 77 -31 -28 -49 0
1 55 -76 43 -37 -28 -59 -61 11 0
1 55 -76 -43 -60 75 15 39 0
-1 94 -44 67 -77 82 88 27 51 -86 -75 -84 0
1 55 76 35 -11 17 63 88 -28 -56 0
-1 94 -44 67 77 31 96 -29 -75 89 0
-1 94 44 37 -58 -46 -90 -8 -98 85 76 0
1 -55 33 13 29 -31 -34 -73 67 -47 -48 56 -77 0
-1 -94 28 68 -54 0
1 55 -76 -43 -60 -75 -31 -3 86 0
-1 94 44 37 58 49 95 30 -31 -33 -12 0
-1 -94 -28 66 37 4 -30 26 0
1 55 76 35 -11 17 63 -88 -25 0
1 -55 33 13 29 -31 -34 -73 -67 74 0
-1 94 44 37 -58 -46 -90 8 32 -16 -42 -82 0
1 55 -76 -43 -60 -75 31 -46 -53 0
-1 94 -44 67 77 -31 -28 49 0
1 55 -76 -43 60 -51 -19 69 11 0
-1 94 -44 -67 23 76 32 58 42 -55 0
1 55 76 -35 93 -43 -75 -2 91 0
1 -55 33 13 29 -31 34 -23 50 24 0
-1 94 44 -37 -34 -7 -35 0
-1 94 -44 67 -77 82 88 27 -51 -9 0
-1 94 44 -37 -34 7 66 26 0
-1 94 44 -37 34 79 -2 -90 65 -14 0
-1 94 44 37 -58 46 65 -17 7 0
-1 94 -44 67 -77 82 88 27 -51 9 0
1 55 -76 -43 60 51 83 -38 47 0
-1 -94 -28 66 -37 24 -55 0
-1 94 -44 67 -77 82 88 -27 81 -69 -21 33 -58 0
-1 94 -44 67 77 -31 28 98 0
1 -55 -33 -82 -79 48 88 19 -40 97 81 0
-1 94 -44 67 -77 82 88 -27 -81 -18 0
1 55 76 -35 -93 -10 42 0
1 -55 33 13 29 31 4 2 89 -22 -3 -51 11 0
1 -55 33 13 29 31 4 2 89 22 0
1 -55 -33 -82 -79 48 88 19 -40 97 -81 0
-1 94 44 -37 34 79 -2 -90 -65 57 -47 25 0
-1 94 44 -37 34 79 -2 90 -97 -87 78 0
1 -55 -33 82 -17 3 -21 -64 91 81 -25 -67 85 79 77 0
-1 -94 -28 -66 74 -85 13 0
1 55 -76 -43 60 51 83 -38 -47 59 77 0
1 -55 -33 -82 -79 48 -88 17 92 0
-1 -94 28 -68 29 13 0
1 -55 33 13 29 -31 -34 73 83 22 -62 81 17 54 0
1 55 -76 43 -37 -28 59 -25 0
1 55 -76 -43 60 51 -83 26 87 0
1 55 -76 -43 -60 -75 -31 -3 -86 0
1 -55 -33 -82 79 -81 -64 67 -39 86 0
-1 94 -44 67 -77 82 88 -27 -81 18 68 0
1 -55 33 13 29 -31 -34 73 83 22 -62 81 17 -54 0
-1 94 44 37 -58 -46 -90 -8 98 -21 53 0
1 -55 33 13 29 -31 34 23 97 0
1 -55 33 -13 -47 -17 0
1 55 -76 -43 -60 -75 31 -46 53 -5 -16 0
-1 94 -44 67 -77 82 88 -27 81 -69 -21 33 58 0
1 55 -76 43 37 94 -61 -8 -45 0
-1 94 44 -37 34 79 -2 90 97 0
-1 94 -44 -67 23 -76 69 0
-1 94 44 37 -58 -46 90 -7 -83 -24 -96 59 0
-1 94 44 37 -58 46 -65 0
-1 94 -44 67 -77 -82 62 48 72 7 0
-1 94 44 37 -58 -46 90 -7 -83 24 0
-1 94 44 37 -58 -46 -90 -8 98 -21 -53 -97 0
1 55 -76 -43 -60 -75 31 46 -37 97 91 0
-1 94 -44 -67 -23 55 70 -93 0
-1 94 44 37 -58 46 65 -17 -7 79 57 0
-1 94 44 37 58 49 95 30 -31 33 0
1 -55 -33 -82 -79 48 88 19 40 68 -67 -49 0
1 -55 -33 82 -17 3 -21 -64 91 81 -25 -67 85 79 -77 0
1 55 -76 -43 60 51 83 -38 -47 59 -77 0
-1 94 44 -37 -34 -7 35 0
1 55 76 35 -11 17 63 88 28 0
1 -55 -33 -82 -79 48 88 -19 0
-1 94 -44 67 -77 -82 -62 85 0
1 55 -76 -43 60 -51 -19 -69 18 -20 0
-1 94 -44 67 77 31 96 -29 -75 -89 0
-1 94 -44 67 -77 82 -88 -27 0
-1 94 44 37 58 -49 0
1 55 -76 -43 60 51 -83 26 -87 29 0
-1 -94 -28 66 37 4 -30 -26 0
1 -55 -33 82 17 32 -76 54 41 0
1 -55 -33 -82 -79 48 88 19 40 -68 0
1 -55 33 13 29 -31 -34 73 -83 -39 -11 0
-1 94 -44 67 -77 82 88 27 51 86 0
-1 94 -44 67 -77 82 88 27 51 -86 75 0
1 -55 -33 -82 79 -81 64 66 98 32 0
-1 94 44 37 -58 46 65 17 41 -10 71 -60 -51 0
1 -55 33 13 29 31 4 2 -89 0
-1 94 -44 67 77 31 96 29 93 0
1 -55 -33 -82 -79 48 88 19 40 68 -67 49 0
1 -55 -33 82 -17 3 -21 -64 91 81 25 0
-1 94 -44 67 -77 82 88 -27 81 69 -91 0
-1 -94 -28 66 -37 24 55 0
-1 94 44 -37 -34 7 66 -26 0
1 -55 33 13 29 -31 -34 73 83 -22 -88 -95 0
1 55 -76 -43 60 -51 19 0
1 55 76 35 -11 17 -63 0
-1 -94 -28 66 -37 -24 -95 59 -85 0
-1 -94 -28 66 37 -4 -10 0
1 55 -76 -43 60 -51 -19 69 -11 -81 0
1 -55 -33 82 17 -32 38 -56 91 -87 0
1 -55 33 13 29 -31 -34 73 -83 -39 11 0
-1 94 44 37 -58 46 65 -17 -7 -79 0
1 55 -76 43 -37 28 -14 -94 0
-1 94 44 37 -58 46 65 17 41 -10 -71 0
-1 94 -44 67 -77 82 88 -27 -81 18 -68 -43 0
1 -55 -33 82 -17 3 -21 -64 -91 54 0
1 -55 33 13 -29 68 -46 -92 0
-1 -94 -28 66 -37 -24 -95 -59 0
1 -55 -33 82 -17 3 -21 -64 91 81 -25 67 0
1 -55 33 13 29 -31 34 -23 50 -24 0
-1 -94 28 -68 -29 -47 2 -85 11 0
1 55 76 -35 -93 -10 -42 0
1 -55 33 13 29 -31 -34 -73 67 -47 48 0
-1 94 44 -37 34 79 -2 -90 65 14 0
-1 94 44 -37 34 -79 58 -67 0
-1 -94 28 -68 -29 -47 2 85 -83 36 0
1 55 -76 43 -37 -28 -59 61 0
-1 -94 28 -68 -29 47 -92 0
1 55 -76 43 -37 -28 59 25 -12 -74 0
1 55 -76 -43 60 51 83 -38 -47 -59 0
1 55 76 35 -11 17 63 -88 25 0
-1 94 44 37 -58 46 65 17 41 -10 71 -60 51 0
1 55 -76 -43 60 51 -83 26 -87 -29 -85 -52 0
-1 -94 -28 66 37 -4 10 -9 0
1 55 -76 -43 -60 -75 31 46 -37 97 -91 0
1 -55 -33 82 17 32 -76 -54 0
-1 94 -44 -67 23 76 -32 41 15 0
-1 -94 -28 66 37 -4 10 9 0
1 -55 33 13 29 -31 -34 73 -83 39 -88 0
-1 94 -44 -67 23 76 32 -58 66 -62 0
1 -55 33 13 29 -31 -34 73 83 -22 88 -69 0
1 -55 -33 82 -17 -3 79 0
-1 94 -44 -67 -23 55 70 93 0
-1 94 -44 67 77 31 96 29 -93 0
-1 -94 28 -68 -29 -47 2 85 83 31 38 0
-1 94 44 -37 34 79 -2 90 -97 87 0
1 -55 -33 82 -17 3 -21 64 94 0
-1 94 44 -37 34 -79 58 67 0
1 -55 33 13 29 -31 -34 -73 -67 -74 47 -9 0
-1 -94 28 -68 29 -13 69 0
-1 -94 28 -68 -29 -47 -2 0
-1 94 44 -37 34 -79 -58 6 -8 55 0
1 -55 -33 82 -17 3 21 -13 0
-1 94 -44 67 -77 82 88 -27 81 69 91 0
1 55 -76 43 37 -94 -49 75 0
1 -55 -33 -82 -79 -48 -10 89 0
-1 94 44 -37 34 79 2 49 0
-1 94 44 37 -58 -46 90 -7 83 26 0
1 -55 33 13 29 31 4 -2 -5 -66 0
1 55 -76 -43 60 -51 -19 69 -11 81 57 0
1 55 -76 -43 60 51 -83 -26 0
1 -55 -33 -82 79 -81 -64 67 -39 -86 80 0
1 -55 33 13 29 -31 -34 -73 -67 -74 47 9 70 0
1 -55 -33 82 -17 -3 -79 0
-1 94 44 37 -58 -46 90 7 -39 91 -88 -55 0
1 55 -76 -43 -60 -75 31 -46 53 -5 16 0
1 -55 -33 82 -17 3 -21 -64 91 81 -25 -67 -85 14 0
-1 94 -44 -67 23 -76 -69 -8 0
-1 94 44 37 -58 -46 -90 -8 98 -21 -53 97 0
1 55 -76 -43 60 51 83 38 0
1 55 -76 43 -37 28 14 0
-1 94 -44 67 -77 -82 62 48 72 -7 43 -84 93 0
-1 -94 -28 66 -37 -24 95 -13 26 0
-1 94 44 37 -58 -46 -90 8 32 16 0
1 55 76 35 -11 -17 0
-1 94 44 -37 34 79 -2 -90 -65 57 47 -81 0
-1 94 44 37 58 49 95 -30 75 0
-1 94 44 37 -58 -46 -90 -8 -98 -85 0
-1 -94 -28 66 -37 -24 95 13 0
1 55 -76 -43 -60 75 -15 0
-1 -94 28 68 54 -78 0
1 -55 33 13 29 -31 -34 -73 -67 -74 47 9 -70 -62 0
1 -55 33 13 -29 -68 21 31 0
-1 94 44 37 -58 -46 90 7 39 -65 0
1 -55 33 13 29 -31 -34 73 83 -22 -88 95 0
-1 94 -44 67 -77 -82 -62 -85 0
-1 94 -44 -67 23 76 32 -58 66 62 0
1 -55 -33 82 -17 3 -21 -64 91 81 -25 -67 -85 -14 0
-1 94 -44 67 -77 -82 62 -48 -2 52 0
1 -55 -33 -82 -79 48 -88 -17 -6 0
-1 94 44 37 -58 -46 90 7 -39 91 88 -47 0
-1 94 -44 -67 23 76 -32 41 -15 -4 0
-1 -94 -28 -66 74 85 88 12 0
1 55 -76 43 37 -94 49 61 0
1 -55 -33 82 -17 3 21 13 -60 0
1 55 -76 43 37 -94 -49 -75 0
1 55 76 -35 93 43 -25 -16 0
-1 94 -44 67 -77 -82 62 48 72 -7 -43 -95 0
1 -55 33 13 29 31 4 2 89 -22 3 0
1 -55 33 13 -29 -68 -21 0
-1 94 -44 67 -77 82 -88 27 0
-1 94 -44 67 -77 82 88 -27 81 -69 21 0
1 -55 33 13 29 -31 -34 -73 67 -47 -48 -56 0
1 55 -76 43 -37 -28 59 25 12 -94 0
-1 94 44 37 -58 -46 90 -7 -83 -24 -96 -59 0
-1 94 44 -37 34 -79 -58 6 8 0
-1 94 -44 67 -77 -82 62 48 72 -7 43 -84 -93 0
1 55 -76 -43 60 -51 -19 -69 18 20 0
1 55 -76 -43 -60 -75 31 46 37 0
1 -55 33 13 29 -31 -34 73 83 22 62 -49 0
-1 94 44 37 -58 -46 90 7 -39 -91 -32 0
1 55 -76 43 37 -94 49 -61 0
-1 -94 -28 66 37 4 30 0
-1 94 44 37 -58 -46 90 -7 83 -26 0
-1 94 44 -37 34 79 -2 -90 -65 57 47 81 66 0
1 -55 33 -13 47 43 0
-1 94 44 37 58 49 95 -30 -75 0
1 -55 -33 -82 -79 -48 -10 -89 0
-1 94 -44 -67 -23 55 -70 7 0
1 -55 33 13 29 -31 -34 73 -83 39 88 0
1 -55 33 -13 47 -43 -53 0
1 -55 -33 -82 79 -81 -64 67 -39 -86 -80 0
1 -55 33 -13 47 -43 53 81 0
-1 94 44 37 -58 46 65 17 41 -10 71 60 26 0
1 -55 -33 82 -17 3 -21 -64 -91 -54 0
1 55 -76 -43 -60 -75 31 46 -37 -97 0
1 -55 33 13 29 -31 -34 -73 -67 -74 -47 0
1 -55 33 13 29 -31 -34 -73 -67 -74 47 9 -70 62 0
-1 94 44 37 -58 -46 -90 -8 -98 85 -76 0
1 55 -76 43 -37 -28 -59 -61 -11 0
1 -55 33 -13 47 -43 53 -81 0
1 55 -76 43 37 94 61 26 0
-1 94 -44 67 -77 82 88 -27 81 -69 -21 -33 0
1 -55 33 13 29 -31 -34 73 83 22 62 49 0
-1 94 44 37 -58 46 65 -17 -7 79 -57 0
-1 -94 -28 -66 74 85 88 -12 0
-1 94 -44 -67 23 76 32 58 42 55 10 0
-1 -94 -28 -66 74 85 -88 -89 0
-1 94 -44 -67 -23 55 -70 -7 0
1 -55 -33 82 17 32 -76 54 -41 0
-1 -94 -28 66 -37 -24 95 -13 -26 0
-1 94 44 -37 -34 7 -66 86 0
-1 94 -44 67 -77 -82 62 -48 2 0
-1 94 44 37 -58 -46 90 -7 -83 -24 96 0
-1 94 -44 67 77 -31 28 -98 87 12 0
-1 -94 -28 66 -37 -24 -95 59 85 0
-1 94 44 -37 34 79 2 -49 0
1 -55 -33 82 17 -32 38 56 -16 0
-1 94 -44 -67 23 76 32 -58 -66 0
-1 -94 28 -68 -29 -47 2 85 83 -31 0
1 55 -76 43 -37 -28 59 25 -12 74 0
1 -55 -33 82 -17 3 -21 64 -94 0
-1 94 44 -37 34 79 -2 90 -97 -87 -78 0
-1 94 44 -37 -34 7 -66 -86 -27 0
1 -55 33 13 29 31 4 -2 -5 66 51 -81 0
-1 94 44 37 -58 -46 -90 -8 98 21 0
-1 -94 28 -68 -29 -47 2 85 83 31 -38 0
-1 94 44 -37 -34 7 -66 -86 27 -48 0
1 55 76 -35 -93 10 0
1 -55 -33 -82 79 -81 64 -66 0
-1 94 44 37 -58 -46 90 7 -39 91 88 47 78 0
-1 -94 -28 -66 74 -85 -13 0
1 -55 -33 82 17 -32 38 -56 91 87 0
-1 94 -44 -67 -23 -55 35 0
1 55 76 35 -11 17 63 88 -28 56 0
1 -55 -33 -82 79 81 0
1 55 -76 43 37 94 -61 8 0
1 -55 -33 -82 -79 48 88 19 40 68 67 0
1 -55 33 13 29 31 4 2 89 -22 -3 -51 -11 0
1 -55 33 13 29 31 4 -2 5 0
-1 94 44 -37 34 79 -2 -90 -65 57 47 81 -66 0
1 -55 33 13 29 -31 -34 73 83 22 -62 -81 -51 0
1 -55 -33 82 17 -32 38 -56 -91 0
1 -55 -33 -82 -79 48 -88 17 -92 0
1 55 -76 -43 60 -51 -19 -69 -18 0
1 -55 33 13 -29 -68 21 -31 0
1 -55 33 13 29 -31 34 -23 -50 0
-1 94 -44 67 77 -31 28 -98 87 -12 0
-1 94 44 37 -58 -46 -90 8 -32 0
-1 94 -44 67 -77 -82 62 48 72 -7 -43 95 0
1 55 -76 -43 -60 75 15 -39 -4 0
-1 94 44 37 -58 46 65 17 -41 0
1 55 -76 -43 -60 -75 31 -46 53 5 82 0
-1 94 44 37 58 49 -95 0
1 -55 33 13 29 -31 -34 73 83 -22 88 69 0
-1 -94 -28 -66 -74 79 0
-1 94 -44 -67 23 76 32 58 -42 35 0
1 55 -76 43 37 94 -61 -8 45 0
-1 94 44 -37 34 -79 -58 -6 0
1 -55 33 13 29 31 -4 0
1 55 76 35 11 0
-1 94 44 -37 34 79 -2 -90 -65 57 -47 -25 0
-1 94 -44 -67 23 76 32 58 42 55 -10 0
1 -55 -33 82 17 32 76 -62 0
-1 94 44 37 -58 46 65 17 41 10 0
-1 94 -44 67 -77 -82 62 48 -72 0
-1 94 44 37 -58 46 65 17 41 -10 71 60 -26 0
1 -55 33 13 29 -31 -34 73 83 22 -62 81 -17 0
1 -55 -33 -82 79 -81 64 66 -98 0
1 55 -76 43 37 94 61 -26 0
1 -55 -33 82 -17 3 -21 -64 91 81 -25 -67 85 -79 0
1 55 76 -35 93 43 -25 16 0
-1 94 44 37 -58 -46 90 7 39 65 0
-1 94 44 37 -58 -46 90 7 -39 -91 32 0
-1 94 44 -37 34 79 -2 -90 -65 -57 0
-1 -94 -28 -66 -74 -79 0
1 -55 -33 -82 79 -81 -64 -67 54 0
1 -55 33 13 29 -31 -34 73 83 22 -62 -81 51 0
-1 94 44 37 58 49 95 30 31 0
1 -55 33 13 29 -31 34 23 -97 0
1 -55 -33 82 17 -32 -38 0
1 55 -76 -43 60 -51 -19 69 -11 81 -57 0
1 -55 -33 -82 79 -81 -64 -67 -54 0
1 55 -76 -43 -60 75 15 -39 4 0
-1 94 -44 -67 23 76 -32 -41 0
-1 94 44 37 -58 -46 -90 8 32 -16 -42 82 0
-1 94 -44 67 -77 82 88 27 51 -86 -75 84 0
1 -55 33 13 29 31 4 -2 -5 66 -51 0
-1 94 44 37 -58 -46 -90 8 32 -16 42 0
1 -55 -33 82 -17 3 -21 -64 91 -81 0
-1 94 -44 67 77 -31 28 -98 -87 0
-1 94 -44 67 -77 -82 62 48 72 -7 43 84 0
-1 94 44 -37 34 -79 -58 6 -8 -55 0
-1 94 -44 67 77 31 96 -29 75 0
-1 94 -44 67 -77 -82 62 -48 -2 -52 0
-1 94 -44 -67 -23 -55 -35 0
-1 94 -44 67 77 31 -96 0
1 55 -76 -43 60 51 -83 26 -87 -29 85 0
-1 94 -44 67 -77 82 88 -27 -81 18 -68 43 0
-1 94 44 -37 -34 7 -66 -86 27 48 0
1 55 76 -35 93 -43 -75 -2 -91 0
-1 94 44 37 58 49 95 30 -31 -33 12 0
-1 -94 28 68 54 78 0
-1 94 44 37 -58 -46 90 7 -39 91 -88 55 0
-1 94 -44 -67 23 76 -32 41 -15 4 0
1 -55 33 13 29 -31 -34 -73 67 -47 -48 56 77 0
-1 94 -44 -67 23 -76 -69 8 0
