c NeuroCodeBench 2.0 CNF formula with verdict Unsat
p cnf 72 259
1 -16 50 -17 43 -67 -42 0
-1 69 -23 47 41 58 72 10 36 38 -57 0
1 16 -11 -50 -49 0
-1 69 23 68 37 30 -72 19 15 -26 0
1 -16 50 17 -48 -37 45 9 26 65 0
-1 69 -23 47 41 -58 14 0
-1 69 23 -68 4 -13 32 15 0
-1 -69 3 44 -51 -29 48 42 0
1 -16 50 -17 -43 28 36 0
-1 -69 -3 -56 5 -38 11 43 -51 61 0
-1 -69 -3 56 -61 -64 -44 -9 32 7 39 19 -23 -24 0
-1 -69 -3 -56 5 38 0
1 16 11 -59 42 0
-1 69 -23 47 41 -58 -14 0
-1 -69 -3 56 -61 64 21 0
-1 69 23 -68 -4 39 -32 43 0
-1 -69 -3 56 61 -24 -65 5 -18 32 0
-1 69 23 68 -37 -9 38 -43 41 -66 -11 0
-1 69 23 -68 -4 -39 14 25 48 0
1 -16 50 17 -48 -37 -45 59 43 0
-1 -69 -3 -56 -5 -15 27 41 0
-1 -69 3 -44 -41 57 26 -63 31 43 0
-1 69 -23 -47 32 -18 0
1 -16 50 -17 -43 -28 38 -9 0
-1 69 23 -68 -4 -39 -14 -64 -46 2 0
1 -16 -50 8 71 57 -4 0
-1 69 23 -68 4 13 11 44 -60 -53 0
-1 -69 -3 56 -61 64 -21 -67 -45 72 -27 0
1 -16 50 -17 -43 -28 38 9 0
1 -16 -50 8 71 -57 -43 53 0
-1 69 23 -68 -4 -39 -14 64 0
-1 69 23 68 -37 -9 -38 -41 62 0
-1 -69 -3 56 61 -24 65 -39 -21 0
-1 -69 3 -44 41 19 51 -9 6 0
-1 -69 -3 56 -61 -64 -44 -9 32 7 39 19 -23 24 0
1 16 -11 50 33 18 0
-1 69 -23 47 41 58 -72 -66 63 14 0
1 -16 -50 8 -71 3 14 0
-1 -69 -3 56 -61 -64 -44 -9 32 -7 34 0
1 -16 -50 -8 -55 69 0
-1 -69 3 -44 41 -19 6 30 32 -27 -9 0
-1 69 23 -68 4 13 -11 54 -36 -49 0
1 -16 -50 8 71 57 4 -69 0
-1 69 23 68 -37 -9 -38 41 0
-1 69 -23 -47 -32 36 0
-1 69 23 68 37 30 72 -51 24 -39 14 0
-1 69 -23 47 41 58 -72 -66 63 -14 0
-1 69 -23 47 41 58 72 10 36 38 57 0
-1 -69 3 -44 41 -19 -6 61 -30 27 0
-1 -69 3 -44 -41 57 26 63 -36 -51 -33 0
-1 -69 3 -44 41 -19 -6 -61 -34 54 -10 0
-1 69 23 -68 4 -13 -32 -35 -20 -67 0
1 16 11 -59 -42 -32 61 0
-1 69 23 -68 -4 -39 14 -25 0
1 -16 50 17 -48 37 -11 31 -62 0
-1 -69 -3 56 61 -24 -65 5 18 -28 72 0
-1 69 23 -68 -4 39 32 -58 10 -9 -12 0
-1 -69 -3 56 -61 -64 -44 -9 32 7 39 19 23 0
1 -16 50 17 -48 -37 45 -9 0
-1 69 23 68 -37 -9 38 -43 -41 0
-1 69 23 -68 4 13 -11 -54 -6 0
-1 -69 3 -44 -41 57 26 63 36 56 0
1 -16 -50 -8 55 -35 -22 0
-1 69 23 -68 4 -13 32 -15 0
-1 -69 -3 -56 5 -38 -11 -52 0
-1 -69 3 -44 -41 57 26 63 -36 -51 33 0
-1 69 -23 47 41 58 -72 66 -2 0
-1 69 23 68 37 30 -72 19 15 26 0
1 -16 50 -17 -43 28 -36 3 0
-1 -69 3 -44 41 -19 6 30 -32 0
-1 69 23 68 37 -30 0
-1 -69 -3 56 -61 -64 -44 -9 32 7 -39 0
-1 -69 3 -44 41 19 51 9 31 0
-1 -69 -3 -56 -5 -15 -27 0
1 16 -11 50 33 -18 55 0
-1 69 23 68 -37 -9 38 43 -12 29 30 56 -66 0
-1 -69 3 -44 41 -19 -6 -61 -34 54 10 0
-1 -69 -3 56 -61 -64 -44 -9 -32 57 30 0
-1 69 23 -68 4 13 11 -44 51 37 30 0
-1 -69 -3 56 61 -24 -65 -5 -8 0
-1 -69 -3 -56 5 -38 11 43 -51 -61 0
1 -16 -50 8 71 -57 -43 -53 0
-1 69 23 -68 4 -13 -32 35 56 -55 -29 -36 0
1 -16 50 17 48 -68 -22 -2 0
-1 69 23 68 -37 9 49 0
-1 -69 3 -44 -41 57 -26 0
1 -16 50 -17 43 -67 42 71 0
-1 69 23 68 37 30 72 -51 -24 -49 0
1 -16 50 -17 43 67 0
1 -16 50 17 -48 37 11 -7 -27 0
1 16 -11 50 -33 34 0
-1 69 23 -68 4 13 11 -44 -51 -28 0
-1 69 23 68 -37 -9 38 43 -12 29 -30 -35 0
-1 69 23 68 -37 9 -49 0
-1 -69 3 -44 41 19 51 9 -31 0
-1 -69 -3 56 61 -24 65 39 11 -36 0
1 -16 50 17 -48 37 -11 -31 0
-1 69 23 68 37 30 -72 -19 0
-1 -69 3 -44 41 19 51 -9 -6 0
-1 -69 3 -44 -41 57 26 -63 -31 28 0
-1 69 23 68 37 30 72 -51 -24 49 -19 0
1 -16 50 17 -48 37 11 7 -53 0
-1 69 23 -68 4 13 11 44 60 0
-1 69 23 -68 4 13 -11 54 -36 49 0
-1 69 23 68 -37 -9 38 43 12 0
-1 69 -23 -47 32 18 0
-1 69 23 -68 4 -13 -32 -35 20 51 14 0
-1 -69 3 -44 41 -19 -6 -61 34 0
-1 -69 3 44 51 49 68 0
-1 -69 3 -44 41 19 -51 55 0
-1 -69 3 -44 -41 57 26 -63 -31 -28 52 0
-1 -69 3 -44 -41 57 26 63 36 -56 0
-1 69 -23 47 41 58 -72 66 2 0
-1 -69 -3 56 -61 -64 -44 9 0
-1 -69 -3 56 -61 -64 -44 -9 -32 -57 0
1 -16 -50 8 -71 3 -14 0
-1 69 23 -68 -4 39 32 -58 -10 -24 -46 13 0
-1 69 23 -68 4 13 11 -44 51 37 -30 0
-1 -69 -3 56 -61 -64 -44 -9 -32 57 -30 0
-1 69 23 -68 4 -13 -32 -35 -20 67 0
-1 -69 3 -44 41 -19 6 30 32 -27 9 0
-1 69 23 68 -37 -9 38 43 -12 29 30 56 66 0
1 -16 50 -17 43 -67 42 -71 0
-1 69 23 68 37 30 72 -51 24 39 0
-1 69 23 -68 4 -13 -32 35 -56 -21 52 0
-1 -69 3 -44 41 -19 6 30 32 27 0
1 -16 -50 -8 -55 -69 0
-1 69 23 68 -37 -9 38 43 -12 -29 0
-1 69 23 68 37 30 72 -51 24 -39 -14 0
-1 -69 3 -44 41 -19 -6 -61 -34 -54 0
-1 69 -23 -47 -32 -36 -28 0
-1 69 23 -68 -4 39 32 -58 -10 -24 46 0
-1 -69 -3 56 61 -24 -65 5 18 28 -58 0
-1 69 23 -68 4 13 -11 54 36 0
1 -16 -50 -8 55 -35 22 5 0
-1 -69 -3 56 61 -24 -65 -5 8 0
1 -16 -50 8 71 -57 43 35 38 0
1 -16 50 -17 -43 -28 -38 0
-1 -69 3 44 -51 -29 -48 0
-1 69 23 -68 4 -13 -32 35 -56 -21 -52 -42 0
-1 69 23 -68 4 13 11 -44 51 -37 0
-1 69 -23 47 -41 36 -54 -57 -49 0
-1 -69 3 44 -51 29 12 0
-1 69 -23 47 41 58 -72 -66 -63 0
1 -16 -50 8 71 -57 43 -35 -67 0
-1 -69 3 -44 41 -19 -6 61 30 7 0
-1 69 -23 47 -41 36 54 -60 -4 0
-1 -69 -3 56 -61 64 -21 -67 45 0
-1 69 23 68 -37 -9 38 -43 41 -66 11 0
-1 -69 -3 -56 -5 15 -37 16 0
-1 -69 3 44 51 -49 13 0
-1 69 23 68 -37 -9 -38 -41 -62 0
1 16 -11 50 33 -18 -55 -19 0
-1 -69 3 -44 41 -19 -6 61 -30 -27 -51 0
-1 -69 -3 56 -61 64 -21 -67 -45 -72 48 0
-1 -69 3 -44 41 19 -51 -55 -32 0
-1 -69 3 -44 -41 57 26 63 -36 51 7 0
-1 -69 -3 -56 -5 15 37 -33 -48 0
-1 -69 3 -44 41 19 -51 -55 32 0
-1 69 23 -68 -4 39 32 -58 -10 24 64 0
-1 69 23 -68 -4 39 32 -58 10 9 0
-1 -69 -3 56 -61 64 -21 67 54 0
-1 69 23 -68 4 -13 -32 35 -56 -21 -52 42 0
1 -16 50 17 48 -68 22 0
-1 69 -23 47 41 58 72 10 -36 0
-1 69 23 -68 -4 39 -32 -43 0
1 -16 50 17 -48 -37 -45 59 -43 0
-1 69 -23 47 -41 36 -54 57 0
-1 -69 3 -44 -41 -57 70 0
-1 -69 3 -44 -41 57 26 -63 31 -43 0
-1 -69 -3 56 -61 -64 44 -18 0
1 -16 50 17 -48 37 11 -7 27 0
-1 69 23 68 -37 -9 38 -43 41 66 0
-1 -69 3 -44 41 -19 -6 61 30 -7 0
-1 69 -23 47 -41 36 54 -60 4 -35 0
-1 -69 -3 -56 -5 15 -37 -16 0
-1 -69 -3 -56 5 -38 11 43 51 0
-1 69 23 -68 4 13 11 44 -60 53 0
-1 -69 3 44 -51 -29 48 -42 0
-1 -69 -3 56 -61 64 -21 -67 -45 -72 -48 0
-1 69 23 -68 -4 -39 -14 -64 -46 -2 0
-1 -69 -3 56 61 -24 65 -39 21 0
1 16 11 -59 -42 -32 -61 0
-1 69 23 -68 4 -13 -32 -35 20 51 -14 0
-1 -69 -3 56 -61 64 -21 -67 -45 72 27 0
-1 -69 -3 -56 -5 15 37 -33 48 0
-1 69 23 -68 -4 -39 -14 -64 46 0
-1 -69 3 -44 -41 57 26 63 -36 51 -7 0
-1 69 -23 47 -41 -36 0
-1 69 23 -68 -4 39 32 58 7 0
-1 -69 -3 56 61 24 0
-1 -69 -3 56 61 -24 -65 5 18 28 58 0
-1 -69 -3 56 -61 -64 -44 -9 32 -7 -34 0
-1 69 -23 47 -41 36 -54 -57 49 0
-1 -69 -3 -56 5 -38 -11 52 0
1 16 -11 -50 49 -47 0
1 -16 -50 -8 55 35 0
-1 -69 -3 56 61 -24 65 39 -11 0
1 -16 50 17 48 -68 -22 2 0
-1 69 23 -68 -4 39 32 -58 10 -9 12 0
-1 69 23 68 37 30 72 51 38 0
-1 69 23 -68 4 -13 -32 35 56 55 0
1 -16 50 -17 -43 28 -36 -3 0
-1 69 23 -68 4 -13 -32 35 56 -55 29 0
-1 -69 -3 -56 5 -38 11 -43 0
-1 69 23 68 37 30 72 -51 -24 49 19 0
1 -16 50 17 -48 -37 -45 -59 15 0
1 -16 -50 8 71 -57 43 -35 67 0
1 -16 50 17 -48 37 -11 31 62 0
1 16 -11 -50 49 47 0
1 -16 50 17 -48 -37 45 9 -26 0
-1 -69 -3 56 -61 -64 -44 -9 32 7 39 -19 0
-1 69 23 -68 -4 39 32 -58 -10 24 -64 -65 0
-1 -69 -3 -56 -5 -15 27 -41 0
-1 -69 3 44 51 49 -68 0
-1 69 23 68 -37 -9 38 43 -12 29 30 -56 0
1 -16 -50 -8 55 -35 22 -5 0
-1 69 23 -68 4 -13 -32 -35 20 -51 0
-1 69 23 -68 -4 39 32 -58 -10 -24 -46 -13 0
-1 -69 3 -44 41 -19 6 -30 -32 0
-1 -69 3 -44 41 -19 6 -30 32 0
1 16 11 -59 -42 32 0
-1 69 23 68 -37 -9 38 43 -12 29 -30 35 0
-1 -69 3 -44 -41 -57 -70 0
1 -16 -50 8 71 57 4 69 0
-1 69 23 -68 -4 39 32 58 -7 0
-1 69 -23 -47 -32 -36 28 0
-1 69 -23 47 -41 36 54 60 0
-1 69 -23 47 41 58 72 -10 0
-1 69 23 -68 -4 39 32 -58 -10 24 -64 65 0
1 16 -11 50 -33 -34 0
1 -16 -50 8 -71 -3 -33 0
-1 69 23 -68 4 -13 -32 35 56 -55 -29 36 0
-1 -69 3 44 51 -49 -13 0
-1 69 -23 47 -41 36 54 -60 4 35 0
1 -16 50 17 48 68 0
1 16 -11 50 33 -18 -55 19 0
-1 -69 3 -44 -41 57 26 -63 -31 -28 -52 0
1 -16 50 17 -48 -37 45 9 26 -65 0
-1 -69 3 -44 41 -19 -6 61 -30 -27 51 0
-1 -69 -3 56 -61 -64 44 18 0
1 -16 50 17 -48 37 11 7 53 0
-1 -69 -3 56 -61 64 -21 67 -54 0
-1 69 23 -68 -4 -39 14 25 -48 0
-1 -69 -3 56 61 -24 65 39 11 36 0
-1 69 -23 47 41 58 72 10 36 -38 0
-1 -69 3 44 -51 29 -12 0
-1 69 23 68 37 30 72 51 -38 0
1 16 11 59 0
-1 69 23 -68 4 -13 -32 35 -56 21 0
-1 -69 -3 -56 -5 15 37 33 0
1 -16 -50 8 71 -57 43 35 -38 0
1 -16 50 17 -48 -37 -45 -59 -15 0
-1 -69 -3 56 61 -24 -65 5 -18 -32 0
1 -16 -50 8 -71 -3 33 0
-1 -69 -3 56 61 -24 -65 5 18 -28 -72 0
-1 69 23 -68 4 13 -11 -54 6 0
-1 69 23 -68 4 13 11 -44 -51 28 0
-1 69 23 68 37 30 -72 19 -15 0
