c NeuroCodeBench 2.0 CNF formula with verdict Unsat
p cnf 61 587
1 50 -55 -12 60 48 -27 61 44 -25 0
1 -50 -46 16 21 -49 -40 -13 14 -31 0
1 50 55 8 -28 30 -2 -58 -24 10 0
-1 8 -51 18 46 -3 -12 53 0
-1 8 51 26 36 24 7 0
1 -50 46 48 52 16 26 -43 -7 -10 0
1 50 -55 -12 -60 38 -9 5 -41 -27 29 -17 0
1 50 -55 12 -22 11 -4 15 26 0
1 50 -55 -12 -60 -38 -31 -3 23 27 -47 -45 0
-1 -8 19 -48 -24 -28 2 -52 -39 0
1 50 -55 12 22 -2 -39 -13 61 -32 -40 0
-1 -8 19 48 -20 -15 33 -27 26 32 0
-1 -8 19 -48 -24 -28 2 52 -53 -27 0
1 -50 -46 -16 -25 54 61 0
1 -50 -46 16 21 49 26 4 53 -61 0
1 -50 -46 -16 25 14 -41 -13 -8 20 0
1 -50 -46 16 -21 18 -3 34 33 0
-1 -8 19 -48 -24 -28 -2 -36 9 0
1 -50 -46 16 21 49 -26 14 9 3 -20 -48 0
1 -50 -46 -16 -25 -54 -5 -9 37 3 0
1 -50 -46 -16 25 14 41 -17 3 0
1 -50 -46 16 21 -49 40 -13 -34 39 60 0
-1 8 51 26 36 -24 -44 20 38 -6 0
1 50 55 8 -28 30 -2 58 -14 -32 22 -59 0
1 50 55 8 -28 -30 -7 -52 57 2 -49 0
1 50 -55 12 22 2 -35 44 -34 -42 59 25 0
-1 -8 -19 29 28 -27 4 -55 36 5 0
-1 8 51 26 -36 6 37 43 20 18 0
-1 -8 19 -48 -24 28 -32 42 17 0
1 -50 -46 16 21 -49 40 -13 34 -4 28 0
-1 -8 19 48 -20 15 -43 23 -30 -13 50 0
1 -50 46 -48 12 -25 -35 -17 -23 49 57 0
-1 8 51 -26 61 7 -20 28 0
-1 8 -51 18 46 3 -48 14 0
-1 8 51 -26 61 -7 60 -13 0
-1 8 51 -26 61 7 20 -37 -38 0
1 -50 -46 16 21 -49 40 -13 -34 -39 -26 55 0
-1 8 51 -26 61 -7 -60 -17 -57 2 20 0
-1 8 51 26 -36 6 37 -43 -40 0
1 50 55 8 -28 -30 -7 52 -24 14 -61 57 21 0
-1 8 51 -26 -61 38 0
1 -50 -46 16 21 49 -26 14 -9 -23 -60 0
1 -50 -46 16 21 49 -26 14 9 -3 -17 -57 13 0
-1 -8 19 -48 -24 -28 2 52 53 -23 0
-1 -8 19 -48 -24 28 -32 -42 51 -22 0
1 50 55 8 -28 -30 -7 52 -24 14 61 0
1 50 -55 -12 -60 38 -9 5 41 30 -27 0
-1 -8 -19 29 28 27 -41 0
1 50 -55 12 -22 11 4 29 -7 0
1 50 -55 12 22 -2 39 -34 -58 -26 6 0
1 -50 46 -48 12 -25 35 -24 -2 0
-1 8 -51 18 -46 -31 12 21 -24 -45 -2 0
1 -50 46 -48 12 -25 -35 17 28 16 52 0
1 50 -55 12 22 2 -35 -44 15 34 -13 -23 0
-1 -8 19 -48 -24 -28 -2 -36 -9 -29 38 0
1 50 55 8 -28 30 -2 58 -14 32 0
1 -50 46 48 -52 -25 -12 -26 0
1 50 -55 -12 60 48 -27 61 -44 -38 42 0
1 -50 -46 -16 -25 54 -61 0
1 -50 -46 16 21 -49 40 -13 -34 39 -60 -58 15 0
1 -50 46 48 -52 25 24 -12 0
1 50 -55 -12 60 48 27 20 25 0
1 50 55 8 -28 -30 -7 -52 57 2 49 0
-1 -8 19 48 -20 -15 -33 18 -50 24 -12 0
1 50 -55 12 22 -2 39 34 44 9 -40 -20 -26 0
-1 8 51 26 -36 6 37 -43 40 61 -56 33 -34 0
1 50 55 8 -28 -30 7 -5 38 0
1 50 -55 12 22 2 -35 44 34 -4 0
1 -50 46 -48 12 -25 35 24 60 44 -31 0
-1 -8 -19 29 28 27 41 37 0
1 50 55 8 28 -43 56 -5 44 0
-1 -8 19 48 -20 -15 33 27 29 56 -44 -46 0
1 50 55 8 -28 30 -2 -58 -24 -10 33 -23 38 0
1 -50 46 -48 12 -25 -35 17 -28 53 20 55 0
1 50 -55 12 -22 11 -4 -15 16 60 0
1 -50 -46 -16 -25 -54 -5 9 0
-1 8 51 26 -36 6 37 43 20 -18 35 0
1 -50 -46 16 21 -49 40 13 41 42 -15 0
-1 -8 -19 29 -28 -7 -35 61 26 0
-1 8 -51 18 -46 -31 12 21 -24 -45 2 0
1 50 55 8 -28 -30 7 -5 -38 16 40 -54 0
-1 8 51 26 36 -24 44 17 0
1 -50 -46 -16 25 14 41 17 7 -27 21 19 0
1 -50 -46 -16 -25 -54 5 31 0
1 50 -55 12 22 -2 39 34 -44 -7 37 0
1 50 55 8 -28 -30 7 -5 -38 16 -40 0
-1 8 -51 18 -46 31 7 -14 -52 -40 -28 -45 0
1 50 55 -8 -20 -37 58 29 23 0
-1 8 -51 18 -46 31 7 14 16 43 0
1 -50 46 -48 12 -25 -35 -17 23 2 -18 0
-1 8 -51 18 46 3 48 58 25 -56 0
-1 -8 19 -48 -24 28 -32 -42 -51 0
1 -50 -46 16 21 49 -26 14 9 3 -20 48 42 -5 -32 0
-1 -8 -19 29 28 -27 4 -55 -36 0
1 50 55 -8 -20 37 53 -49 -3 0
-1 -8 19 48 20 13 -38 0
1 -50 -46 16 -21 18 3 -17 5 -41 -60 37 0
-1 -8 -19 29 28 -27 4 -55 36 -5 -26 0
-1 8 51 -26 61 7 -20 -28 21 48 0
-1 8 51 26 36 24 -7 -34 0
1 -50 -46 16 21 -49 40 13 -41 -17 -11 53 34 -38 0
-1 -8 19 48 -20 -15 -33 -18 29 -14 7 34 0
1 50 55 -8 -20 -37 -58 -29 0
1 50 55 8 -28 -30 -7 52 -24 14 -61 57 -21 0
-1 8 51 26 36 -24 -44 20 -38 28 -45 0
1 50 -55 -12 -60 38 -9 5 -41 27 49 -44 0
1 50 -55 -12 -60 38 -9 5 -41 27 -49 -52 40 -57 0
1 50 55 8 -28 -30 -7 52 -24 -14 -43 0
1 50 -55 12 22 -2 39 34 44 -9 -31 0
1 50 -55 12 -22 11 4 -29 -9 0
1 50 -55 12 22 2 -35 44 34 4 0
1 50 -55 -12 -60 38 -9 5 41 30 27 -22 0
1 -50 46 -48 12 -25 -35 -17 -23 -49 15 0
1 50 -55 12 22 2 -35 44 -34 -42 -59 0
-1 -8 19 48 -20 -15 33 27 29 -56 58 57 0
-1 -8 -19 29 -28 -7 35 0
-1 -8 -19 29 28 -27 -4 -36 0
1 -50 -46 16 21 -49 40 -13 34 4 0
1 50 -55 12 22 2 -35 -44 -15 -45 -4 0
-1 8 51 -26 61 7 20 37 6 53 -34 -60 0
1 -50 -46 -16 -25 -54 -5 -9 -37 14 22 0
1 50 -55 12 22 -2 39 34 -44 7 0
1 -50 -46 16 21 49 -26 14 9 -3 -17 57 39 52 0
1 -50 -46 16 21 49 -26 14 9 -3 -17 57 -39 0
1 50 -55 12 22 -2 -39 -13 61 -32 40 20 45 0
-1 -8 19 -48 -24 -28 -2 36 -5 50 -58 0
-1 -8 19 48 -20 15 -43 23 -30 -13 -50 -61 -39 0
1 -50 46 48 -52 -25 -12 26 0
1 50 -55 -12 -60 38 -9 5 -41 27 -49 -52 -40 0
-1 -8 -19 -29 33 18 -59 24 12 0
1 50 -55 12 -22 11 -4 15 -26 0
1 50 55 8 28 -43 -56 -47 20 0
-1 8 51 -26 61 -7 60 13 -2 -44 41 0
1 50 55 8 -28 -30 -7 -52 57 -2 49 -18 0
1 50 -55 12 22 -2 39 34 44 9 -40 -20 26 0
-1 8 -51 -18 -11 14 -2 0
-1 -8 19 48 -20 -15 33 -27 -26 17 10 3 45 0
1 50 55 8 -28 30 2 -40 29 -56 18 19 0
1 -50 -46 16 21 49 -26 14 9 3 -20 48 -42 -53 -34 -60 0
-1 -8 -19 -29 33 18 -59 -24 0
1 50 55 8 -28 -30 -7 -52 57 -2 49 18 0
1 50 -55 12 22 -2 -39 -13 -61 20 -58 0
-1 -8 19 -48 -24 -28 2 -52 39 0
-1 -8 19 48 -20 15 -43 23 30 -13 0
1 50 -55 12 22 2 35 -58 0
1 50 55 -8 -20 37 -53 0
1 -50 -46 16 -21 18 3 -17 5 41 14 0
-1 -8 -19 29 28 27 41 -37 0
-1 8 51 26 -36 6 -37 53 0
1 -50 -46 16 -21 18 -3 34 -33 0
-1 8 51 -26 61 -7 -60 -17 -57 2 -20 -9 0
-1 8 51 -26 61 -7 -60 -17 -57 2 -20 9 0
-1 8 -51 -18 -11 14 2 0
-1 -8 19 -48 -24 -28 -2 36 -5 50 58 0
1 -50 -46 -16 25 14 41 17 7 -27 21 -19 0
1 -50 -46 16 21 49 26 4 -53 -36 -43 0
1 50 -55 12 -22 -11 34 -4 8 -59 38 0
1 -50 46 48 52 16 26 -43 7 -33 0
1 -50 -46 16 -21 18 -3 -34 -47 0
1 -50 46 48 -52 -25 12 -32 0
1 50 -55 -12 -60 -38 31 -59 -18 -47 0
1 50 55 8 -28 30 2 -40 -29 0
1 -50 -46 16 21 -49 -40 13 26 0
1 -50 46 48 52 -16 53 -9 -15 -28 -54 0
1 -50 -46 16 21 49 -26 14 9 3 -20 48 -42 53 0
-1 8 51 26 -36 6 37 -43 40 61 56 0
-1 -8 19 48 -20 -15 -33 -18 -29 -30 0
1 50 -55 12 -22 11 4 -29 9 5 -6 0
-1 8 -51 18 46 3 -48 -14 31 0
1 50 -55 12 22 -2 39 34 -44 -7 -37 -31 0
1 50 -55 12 22 -2 39 34 44 9 -40 20 -33 0
1 50 -55 12 22 -2 -39 -13 -61 20 58 0
-1 -8 19 48 -20 15 -43 23 -30 -13 -50 61 0
-1 8 51 -26 61 7 20 37 6 -53 0
1 50 -55 12 -22 11 4 -29 9 -5 0
1 50 -55 12 22 -2 -39 -13 -61 -20 -15 38 0
1 50 -55 12 22 2 35 58 0
-1 -8 -19 29 -28 -7 -35 61 -26 0
1 50 -55 -12 60 -48 -11 -8 0
-1 8 51 -26 61 7 20 37 6 53 -34 60 0
-1 -8 19 48 20 -13 42 0
-1 -8 19 -48 -24 -28 2 52 53 23 0
-1 -8 19 48 -20 15 43 -30 -40 7 0
1 50 -55 -12 -60 38 -9 5 -41 27 49 44 0
1 50 55 8 -28 30 -2 -58 -24 -10 -33 0
-1 -8 19 -48 24 35 0
-1 8 51 -26 61 -7 60 13 -2 44 27 0
1 50 55 8 28 43 -37 61 -49 17 0
1 -50 46 -48 12 -25 -35 17 -28 53 20 -55 -49 -36 0
1 -50 -46 16 21 49 -26 14 9 3 20 0
-1 8 -51 -18 -11 -14 61 50 0
1 50 -55 12 22 2 -35 -44 15 34 -13 23 0
-1 -8 -19 -29 33 18 -59 24 -12 0
1 -50 -46 -16 25 14 -41 -13 8 0
1 -50 46 -48 12 -25 -35 -17 23 -2 0
1 -50 -46 16 -21 -18 0
-1 -8 19 48 -20 15 43 -30 40 -32 0
1 -50 46 48 52 16 26 43 -2 41 -36 -34 -30 0
1 -50 -46 16 21 -49 -40 -13 -14 0
1 50 55 8 28 43 -37 -61 0
1 50 -55 -12 -60 38 -9 5 -41 -27 -29 -53 0
1 50 55 8 -28 -30 7 5 0
1 -50 46 -48 12 -25 35 24 -60 0
-1 -8 19 48 -20 15 43 -30 -40 -7 0
1 50 -55 -12 -60 38 9 51 -15 0
-1 -8 -19 -29 33 18 59 0
-1 8 51 26 -36 -6 14 0
-1 -8 19 -48 -24 -28 2 52 -53 27 0
1 50 -55 12 22 -2 -39 -13 61 32 26 0
1 50 -55 -12 60 48 -27 61 -44 38 -43 0
-1 -8 19 48 -20 15 43 30 24 0
-1 8 51 26 36 24 -7 34 -16 0
-1 -8 -19 29 -28 7 -2 0
1 -50 -46 16 21 49 -26 14 -9 -23 60 28 0
-1 8 51 -26 61 7 20 37 -6 -55 0
-1 8 51 -26 -61 -38 0
-1 -8 19 48 -20 15 -43 -23 0
-1 -8 19 48 -20 -15 33 27 29 56 44 14 0
1 50 55 8 -28 -30 -7 52 24 -41 0
1 -50 46 48 52 16 -26 -45 -15 0
-1 8 -51 18 -46 31 -7 0
1 50 -55 -12 -60 38 9 -51 0
-1 8 51 26 -36 6 -37 -53 19 0
1 50 55 8 -28 30 2 -40 29 -56 18 -19 0
-1 8 51 -26 61 7 20 37 6 53 34 5 0
1 -50 -46 -16 25 14 -41 -13 -8 -20 -55 0
1 -50 -46 16 -21 18 3 -17 -5 0
1 -50 46 -48 12 -25 -35 17 -28 53 -20 33 0
-1 -8 19 48 -20 -15 -33 -18 29 14 60 -43 0
-1 8 -51 18 -46 -31 12 -21 0
-1 8 51 -26 61 -7 -60 17 49 -29 48 0
1 -50 -46 -16 -25 -54 5 -31 0
-1 -8 19 -48 -24 -28 -2 -36 -9 -29 -38 0
-1 -8 19 48 -20 -15 -33 -18 29 -14 -7 0
-1 8 51 26 -36 6 37 -43 40 61 -56 33 34 0
1 -50 -46 -16 25 14 -41 13 24 0
1 -50 -46 16 21 49 -26 14 9 3 -20 48 42 -5 32 0
1 -50 -46 16 21 -49 40 13 -41 -17 11 -55 0
1 50 -55 12 -22 -11 34 -4 8 -59 -38 5 0
-1 -8 19 48 -20 -15 -33 18 -50 24 12 -3 0
-1 -8 -19 29 -28 7 2 0
1 -50 -46 16 21 -49 40 13 -41 17 -8 0
1 50 55 8 28 43 37 11 34 0
1 50 -55 12 -22 11 4 29 7 -42 -39 0
-1 -8 19 -48 -24 28 32 10 0
1 -50 46 48 52 -16 -53 13 0
1 50 55 8 -28 30 -2 -58 -24 -10 33 -23 -38 0
-1 8 51 -26 61 -7 -60 17 49 29 -40 10 0
1 50 55 8 28 43 37 11 -34 -53 0
1 50 55 8 -28 -30 7 -5 -38 -16 0
-1 -8 19 48 -20 15 -43 23 -30 -13 -50 -61 39 0
1 -50 46 48 -52 25 -24 -17 0
1 50 -55 12 22 2 -35 -44 15 -34 60 -48 0
-1 8 51 26 -36 -6 -14 0
1 50 -55 -12 60 48 27 -20 28 -14 -3 8 0
1 -50 46 -48 12 -25 -35 -17 -23 -49 -15 0
1 -50 46 -48 12 -25 35 -24 2 0
-1 8 -51 18 46 -3 12 0
1 50 -55 -12 -60 38 -9 -5 35 0
1 50 -55 12 -22 -11 -34 -27 0
-1 8 51 26 36 -24 -44 20 38 6 54 0
1 50 -55 12 22 2 -35 -44 -15 45 0
1 -50 46 -48 12 -25 -35 17 28 -16 0
1 -50 -46 16 21 49 -26 14 9 3 -20 48 42 5 0
-1 -8 19 48 -20 -15 33 -27 -26 -17 0
-1 -8 19 48 -20 -15 33 27 29 56 44 -14 0
1 -50 46 48 52 -16 53 9 -2 -14 -56 0
-1 -8 19 -48 -24 -28 -2 36 5 0
-1 8 51 -26 61 -7 -60 17 -49 -35 0
1 -50 46 -48 12 -25 -35 17 28 16 -52 0
1 -50 46 -48 12 -25 -35 -17 23 2 18 0
-1 8 51 -26 61 7 20 37 6 53 34 -5 0
1 50 55 8 28 -43 -56 47 0
1 -50 46 48 52 -16 53 9 -2 -14 56 0
1 -50 -46 -16 -25 -54 -5 -9 37 -3 0
-1 -8 19 48 -20 -15 33 27 29 -56 58 -57 -53 0
1 -50 -46 -16 25 14 41 -17 -3 0
-1 -8 19 48 -20 15 43 30 -24 51 -44 0
1 50 -55 -12 -60 38 -9 5 41 30 27 22 -23 28 0
1 -50 -46 16 21 -49 40 13 41 42 15 43 0
1 -50 -46 -16 -25 -54 -5 -9 -37 14 -22 0
1 50 -55 12 22 -2 39 34 44 9 -40 20 33 28 0
1 -50 -46 16 21 49 -26 14 9 -3 17 -28 0
1 -50 -46 16 21 -49 40 13 -41 -17 -11 53 34 38 -58 0
1 -50 -46 16 21 49 26 4 -53 36 0
1 -50 46 48 52 -16 53 9 -2 14 38 0
1 50 -55 12 22 -2 39 -34 58 43 14 0
1 -50 -46 -16 25 14 41 17 7 27 0
-1 8 51 -26 61 -7 -60 -17 -57 -2 0
-1 -8 19 -48 -24 -28 -2 36 -5 -50 0
1 50 55 -8 -20 -37 58 -29 0
-1 -8 19 48 -20 -15 -33 -18 -29 30 0
-1 -8 19 48 -20 -15 33 -27 -26 17 10 -3 0
1 50 -55 -12 -60 -38 31 -59 -18 47 45 -11 0
-1 -8 19 -48 24 -35 0
1 50 55 -8 20 33 -27 0
1 50 -55 -12 -60 38 -9 5 -41 -27 29 17 0
1 -50 46 -48 12 25 4 61 0
-1 -8 19 48 -20 -15 33 27 29 -56 -58 0
1 -50 -46 16 21 49 -26 14 -9 -23 60 -28 0
1 50 55 8 -28 30 -2 -58 24 25 -37 0
1 -50 -46 16 21 -49 40 13 41 42 15 -43 26 0
1 50 55 8 28 43 -37 61 -49 -17 0
1 50 -55 -12 -60 38 -9 5 41 -30 -39 0
1 -50 46 48 52 16 -26 45 21 5 0
1 -50 46 -48 12 -25 35 24 60 44 31 0
1 50 55 8 28 43 37 11 -34 53 5 0
-1 8 -51 18 -46 31 7 14 16 -43 0
1 50 55 8 28 43 37 -11 0
1 50 -55 12 -22 11 4 29 7 42 0
-1 -8 19 48 20 -13 -42 0
1 -50 46 48 -52 -25 12 32 0
1 50 -55 -12 60 48 -27 -61 0
1 50 -55 -12 -60 -38 31 -59 -18 47 -45 0
1 50 -55 -12 -60 -38 -31 -3 -23 -16 -11 0
-1 8 51 26 -36 6 -37 -53 -19 0
1 50 -55 12 22 -2 39 34 44 9 40 0
1 50 55 -8 -20 -37 -58 29 0
-1 -8 19 48 -20 -15 33 27 29 56 -44 46 -47 0
1 -50 46 48 52 16 26 43 2 -18 5 0
1 -50 -46 16 21 -49 40 13 -41 -17 -11 53 34 38 58 0
1 50 -55 12 22 -2 -39 -13 61 32 -26 0
1 -50 46 48 52 16 26 43 -2 41 -36 -34 30 0
1 50 -55 -12 -60 -38 -31 -3 -23 16 0
1 50 -55 12 22 -2 -39 -13 61 -32 40 20 -45 0
1 50 -55 12 -22 11 -4 -15 -16 49 0
-1 -8 19 48 -20 -15 33 27 29 56 -44 46 47 0
1 50 -55 -12 -60 -38 31 -59 18 0
-1 -8 19 -48 -24 28 -32 42 -17 0
-1 8 -51 18 46 3 -48 -14 -31 0
1 50 -55 -12 60 48 27 -20 28 14 0
1 -50 46 -48 12 25 -4 0
-1 8 51 -26 61 -7 -60 -17 57 0
1 50 -55 12 22 -2 39 -34 58 43 -14 0
1 -50 -46 -16 25 14 -41 -13 -8 -20 55 0
1 50 55 8 -28 30 -2 58 14 0
-1 -8 19 48 -20 -15 33 -27 -26 17 10 3 -45 0
-1 8 51 -26 61 -7 -60 17 49 29 -40 -10 0
1 -50 -46 -16 25 14 41 17 -7 0
1 50 55 8 28 43 -37 61 49 -4 0
1 -50 -46 16 21 49 -26 14 9 -3 -17 57 39 -52 0
1 -50 46 -48 12 -25 -35 17 -28 53 20 -55 49 0
-1 -8 19 48 -20 15 43 -30 40 32 14 0
-1 -8 19 48 -20 15 -43 23 -30 13 0
1 -50 46 -48 12 -25 -35 17 -28 -53 47 -4 0
1 -50 46 48 52 16 26 43 -2 -41 42 0
1 50 -55 -12 -60 -38 -31 3 47 0
1 50 55 8 28 43 37 11 -34 53 -5 0
1 -50 -46 -16 25 -14 29 0
1 50 -55 12 22 2 -35 -44 -15 -45 4 0
-1 -8 19 48 -20 15 43 30 -24 51 44 0
1 50 -55 12 22 -2 -39 -13 -61 -20 -15 -38 0
-1 -8 19 48 -20 -15 33 27 29 -56 58 -57 53 0
1 -50 46 48 52 16 -26 -45 15 7 0
1 50 55 8 -28 30 2 -40 29 56 0
1 -50 -46 16 21 49 -26 -14 10 22 0
1 -50 46 -48 12 -25 -35 17 -28 53 -20 -33 0
-1 8 -51 18 -46 -31 12 21 24 0
1 50 -55 -12 -60 38 -9 -5 -35 47 0
1 -50 46 48 52 16 26 43 2 -18 -5 0
1 50 -55 12 -22 11 4 29 7 -42 39 0
1 -50 46 48 52 -16 53 -9 15 28 37 0
1 50 -55 -12 -60 38 -9 5 41 30 27 22 -23 -28 0
1 -50 -46 -16 25 14 -41 13 -24 0
1 50 -55 -12 60 48 27 -20 28 -14 -3 -8 0
1 50 -55 12 22 -2 39 34 44 9 -40 20 33 -28 0
1 -50 46 48 -52 25 -24 17 -29 0
-1 8 51 26 36 -24 44 -17 0
-1 8 51 -26 61 -7 -60 17 49 29 40 -32 0
1 50 -55 12 22 -2 39 -34 -58 -26 -6 0
1 50 55 8 -28 30 2 -40 29 -56 -18 0
1 50 -55 -12 60 48 -27 61 44 25 -39 0
1 -50 46 48 52 16 -26 45 -21 0
1 -50 -46 16 21 -49 40 -13 -34 39 -60 -58 -15 0
1 50 55 8 -28 -30 -7 -52 -57 0
1 50 55 8 -28 -30 -7 -52 57 -2 -49 3 0
-1 8 -51 18 46 3 48 58 -25 0
-1 -8 19 48 -20 15 -43 23 30 13 0
1 50 -55 12 22 2 -35 -44 15 -34 60 48 0
-1 8 -51 18 -46 31 7 -14 52 26 0
-1 8 51 -26 61 -7 60 13 -2 -44 -41 0
1 -50 -46 16 21 49 -26 14 9 3 -20 48 -42 -53 -34 60 0
1 -50 -46 16 21 49 -26 14 9 -3 17 28 0
1 -50 46 48 52 16 -26 -45 15 -7 0
-1 8 -51 -18 11 0
1 50 -55 12 22 2 -35 44 -34 42 -40 0
1 50 -55 -12 60 48 -27 61 -44 38 43 0
1 50 -55 12 -22 -11 34 -4 -8 0
-1 8 -51 18 -46 -31 12 21 -24 45 0
1 50 55 8 -28 -30 -7 -52 57 -2 -49 -3 33 0
1 50 -55 12 22 -2 -39 13 -18 0
1 -50 -46 16 21 49 -26 14 9 -3 -17 -57 -13 0
1 50 -55 12 22 2 -35 -44 15 -34 -60 0
-1 -8 19 48 -20 15 43 -30 40 32 -14 0
1 -50 -46 16 21 -49 40 13 -41 17 8 37 -23 0
-1 -8 19 -48 -24 28 32 -10 3 0
-1 8 -51 18 -46 31 7 -14 -52 -40 28 0
1 50 -55 -12 -60 38 -9 5 -41 27 -49 52 0
1 -50 46 48 52 -16 -53 -13 -36 -39 0
1 50 -55 -12 -60 -38 -31 -3 23 27 -47 45 0
-1 -8 -19 29 28 -27 4 55 0
1 -50 -46 16 21 -49 40 13 41 -42 0
1 50 -55 -12 -60 -38 -31 -3 23 -27 0
1 50 55 8 -28 30 -2 -58 24 25 37 0
1 50 -55 -12 60 48 27 -20 28 -14 3 0
1 50 -55 -12 -60 -38 31 59 0
1 -50 46 -48 12 -25 35 24 60 -44 -26 0
1 50 -55 12 -22 11 -4 -15 16 -60 0
-1 8 -51 18 -46 31 7 -14 -52 40 0
1 -50 -46 16 -21 18 3 17 0
-1 -8 -19 -29 -33 -55 0
-1 -8 19 48 -20 -15 33 27 -29 -32 0
-1 8 -51 -18 -11 -14 -61 -16 0
1 -50 -46 16 21 -49 40 13 41 42 15 -43 -26 0
1 50 -55 12 22 2 -35 44 -34 42 40 0
1 50 -55 12 22 -2 39 34 -44 -7 -37 31 0
-1 8 51 26 36 -24 -44 20 -38 -28 0
1 -50 -46 -16 25 14 41 17 7 -27 -21 0
-1 8 51 26 -36 6 37 -43 40 61 -56 -33 0
1 50 -55 12 22 -2 39 -34 -58 26 0
1 50 55 -8 -20 37 53 -49 3 0
1 50 55 8 28 -43 56 5 0
1 50 -55 -12 60 48 27 -20 -28 -14 0
1 50 -55 -12 -60 38 -9 5 -41 27 -49 -52 40 57 0
1 -50 46 48 52 16 26 -43 7 33 29 -14 0
-1 8 51 26 36 24 -7 34 16 52 0
-1 8 51 -26 61 7 -20 -28 -21 0
1 50 -55 12 -22 11 4 -29 9 5 6 0
1 50 -55 -12 -60 38 -9 5 41 -30 39 0
1 50 55 8 -28 30 -2 58 -14 -32 22 59 -42 0
1 -50 46 -48 12 -25 -35 17 -28 -53 -47 0
-1 8 -51 18 46 3 48 -58 0
1 -50 -46 16 21 -49 -40 13 -26 19 0
1 50 -55 -12 60 -48 11 -8 31 0
1 -50 -46 -16 -25 -54 -5 -9 -37 -14 0
1 50 55 8 -28 30 -2 -58 -24 -10 33 23 0
-1 8 -51 -18 -11 -14 61 -50 0
1 -50 -46 16 21 -49 -40 -13 14 31 0
-1 8 51 -26 61 7 20 -37 38 0
1 -50 46 -48 -12 0
1 50 -55 12 22 2 -35 44 -34 -42 59 -25 0
-1 -8 19 48 -20 -15 -33 18 -50 -24 -51 0
1 50 -55 -12 60 48 27 -20 -28 14 38 0
1 50 55 -8 -20 37 53 49 0
1 50 -55 12 -22 -11 -34 27 0
1 -50 46 48 52 -16 53 -9 15 28 -37 0
-1 -8 19 48 -20 -15 33 -27 26 -32 0
1 -50 46 48 52 16 26 43 2 18 -36 -39 0
-1 -8 19 48 -20 -15 33 -27 -26 17 -10 0
1 50 55 8 -28 -30 7 -5 -38 16 40 54 0
-1 8 51 26 36 -24 -44 20 38 6 -54 0
-1 8 -51 18 -46 31 7 14 -16 0
1 -50 -46 16 21 49 -26 14 -9 23 33 0
1 50 -55 -12 60 -48 -11 8 0
-1 -8 19 -48 -24 28 -32 -42 51 22 0
-1 -8 19 -48 -24 28 32 -10 -3 0
1 50 55 8 -28 -30 -7 52 -24 14 -61 -57 0
-1 8 51 26 36 24 -7 34 16 -52 0
-1 8 -51 18 -46 31 7 -14 -52 -40 -28 45 0
1 -50 -46 16 21 -49 40 13 -41 -17 -11 -53 0
1 -50 46 48 52 -16 53 9 -2 14 -38 0
1 50 55 8 -28 -30 -7 52 -24 -14 43 0
1 50 -55 12 -22 -11 34 -4 8 -59 -38 -5 0
1 50 55 8 -28 30 -2 58 -14 -32 -22 0
1 50 -55 -12 -60 38 9 51 15 0
1 -50 46 48 52 -16 53 -9 -15 28 0
1 -50 46 48 52 16 26 43 -2 41 -36 34 0
1 50 -55 -12 -60 38 -9 5 -41 -27 -29 53 0
-1 -8 19 48 -20 -15 -33 18 50 -49 0
1 50 -55 -12 60 48 27 20 -25 0
-1 8 51 -26 61 -7 -60 17 -49 35 10 0
1 50 -55 12 -22 11 -4 -15 -16 -49 0
1 50 -55 12 22 -2 -39 -13 -61 -20 15 0
1 50 -55 12 -22 -11 34 4 0
-1 8 51 26 36 -24 -44 -20 0
1 -50 46 48 52 16 26 43 2 18 36 0
1 50 55 -8 20 33 27 14 0
1 -50 46 48 52 16 26 43 -2 -41 -42 0
1 50 -55 -12 60 48 27 -20 -28 14 -38 49 -37 0
1 50 55 8 -28 30 -2 58 -14 -32 22 59 42 0
-1 -8 19 48 -20 -15 -33 -18 29 14 -60 44 0
1 50 -55 12 22 -2 39 -34 58 -43 0
1 -50 -46 16 21 -49 40 13 -41 -17 -11 53 -34 0
-1 8 51 26 36 -24 -44 20 -38 28 45 0
1 -50 46 48 52 16 26 -43 7 33 -29 0
1 -50 -46 16 21 -49 40 -13 -34 39 -60 58 0
1 -50 46 -48 12 -25 -35 -17 -23 49 -57 61 0
-1 8 -51 18 -46 31 7 -14 52 -26 0
1 -50 46 -48 12 -25 35 24 60 -44 26 -49 8 -58 0
1 -50 -46 16 21 49 -26 14 9 3 -20 48 -42 -53 34 0
-1 -8 19 48 20 13 38 0
-1 8 -51 18 46 3 48 58 25 56 0
1 50 -55 -12 60 48 -27 61 44 25 39 0
1 50 -55 12 22 -2 -39 -13 61 -32 40 -20 0
1 50 55 8 28 -43 -56 -47 -20 0
1 -50 -46 16 21 49 26 -4 0
-1 8 51 26 -36 6 37 43 -20 16 0
1 50 55 -8 20 -33 -53 0
-1 -8 -19 29 28 -27 -4 36 0
1 -50 46 -48 12 -25 35 24 60 -44 26 49 0
-1 -8 19 48 -20 -15 -33 18 -50 -24 51 0
-1 8 51 -26 61 -7 -60 17 49 -29 -48 0
-1 -8 19 48 -20 -15 -33 18 50 49 0
1 -50 46 48 52 16 26 -43 -7 10 0
1 50 -55 -12 -60 -38 31 -59 -18 47 45 11 0
-1 8 51 -26 61 7 20 37 -6 55 0
-1 -8 -19 -29 33 -18 0
-1 -8 -19 -29 -33 55 0
-1 -8 19 48 -20 -15 -33 -18 29 -14 7 -34 0
-1 8 -51 18 46 -3 -12 -53 0
1 -50 -46 16 21 -49 40 -13 -34 -39 -26 -55 0
1 -50 46 48 52 16 26 43 -2 41 36 0
1 50 -55 -12 60 48 27 -20 -28 14 -38 -49 0
-1 8 51 26 -36 6 37 -43 40 -61 0
1 -50 -46 16 21 -49 40 -13 34 -4 -28 0
-1 8 51 -26 61 -7 -60 17 49 29 40 32 0
-1 8 51 26 -36 6 37 43 -20 -16 0
1 50 55 8 -28 -30 -7 -52 57 -2 -49 -3 -33 0
1 -50 46 -48 12 25 4 -61 0
1 -50 -46 16 21 49 26 4 -53 -36 43 0
1 -50 -46 16 21 -49 -40 13 -26 -19 0
1 50 55 -8 -20 -37 58 29 -23 0
1 -50 46 48 52 -16 -53 -13 -36 39 0
1 -50 -46 16 21 49 -26 -14 10 -22 0
1 -50 46 48 52 -16 -53 -13 36 0
1 50 55 -8 20 33 27 -14 0
1 -50 -46 16 21 -49 40 -13 -34 -39 26 0
1 50 -55 12 -22 -11 34 -4 8 59 0
1 -50 -46 16 21 -49 40 13 -41 -17 11 55 0
1 -50 46 -48 12 -25 -35 -17 -23 49 -57 -61 0
1 50 -55 -12 -60 -38 -31 -3 -23 -16 11 0
1 -50 46 -48 12 -25 35 24 60 -44 26 -49 8 58 0
-1 -8 -19 29 -28 -7 -35 -61 0
1 50 -55 -12 -60 -38 -31 3 -47 0
1 -50 -46 16 21 49 -26 -14 -10 -4 0
-1 -8 19 -48 -24 -28 -2 -36 -9 29 0
1 -50 46 48 52 16 -26 45 21 -5 0
1 -50 -46 16 21 -49 40 13 -41 17 8 37 23 0
1 50 -55 12 22 -2 39 34 44 -9 31 0
1 50 -55 -12 60 -48 11 8 0
1 -50 -46 -16 25 -14 -29 0
-1 -8 19 48 -20 15 43 30 -24 -51 0
1 50 -55 -12 -60 38 -9 -5 -35 -47 0
1 50 -55 12 22 2 -35 -44 15 34 13 0
1 50 -55 -12 -60 38 -9 5 41 30 27 22 23 0
-1 8 -51 18 -46 -31 -12 0
1 50 -55 -12 -60 -38 -31 -3 23 27 47 0
1 -50 -46 16 -21 18 3 -17 5 -41 60 0
1 50 55 8 -28 30 2 40 0
-1 -8 19 48 -20 -15 33 27 -29 32 0
1 -50 46 48 52 -16 53 -9 -15 -28 54 0
-1 8 51 -26 61 7 -20 -28 21 -48 0
1 -50 46 48 52 -16 53 9 2 0
1 50 55 8 -28 -30 -7 52 24 41 0
-1 -8 19 48 -20 -15 -33 -18 29 14 -60 -44 -56 0
-1 -8 19 48 -20 -15 -33 18 -50 24 12 3 0
1 -50 46 48 52 16 26 -43 7 33 29 14 0
-1 8 51 -26 61 -7 -60 17 -49 35 -10 0
1 -50 -46 16 21 49 26 4 53 61 0
1 50 55 8 28 -43 56 -5 -44 0
1 -50 46 48 -52 25 24 12 0
1 -50 46 -48 12 -25 -35 17 -28 53 20 -55 -49 36 0
-1 -8 -19 29 28 -27 4 -55 36 -5 26 0
1 -50 46 48 52 -16 53 -9 15 -28 0
-1 8 -51 -18 -11 -14 -61 16 0
1 -50 -46 16 21 -49 40 13 -41 17 8 -37 0
1 -50 -46 16 -21 18 3 -17 5 -41 -60 -37 0
1 -50 -46 16 -21 18 -3 -34 47 0
-1 -8 19 48 -20 -15 -33 -18 29 14 -60 -44 56 0
1 50 55 8 28 43 -37 61 49 4 0
-1 8 51 26 -36 6 37 43 20 -18 -35 0
1 50 -55 12 22 -2 -39 13 18 0
1 -50 -46 16 21 49 -26 -14 -10 4 0
1 -50 46 48 52 16 26 43 2 18 -36 39 0
-1 8 51 -26 61 -7 60 13 -2 44 -27 0
1 50 55 -8 20 -33 53 0
1 50 -55 -12 60 48 -27 61 -44 -38 -42 0
1 -50 46 -48 12 -25 -35 17 -28 -53 47 4 0
1 50 -55 -12 60 48 27 -20 -28 14 -38 49 37 0
1 50 55 8 -28 30 -2 -58 24 -25 0
-1 8 51 -26 61 -7 60 13 2 0
-1 -8 19 48 -20 -15 -33 -18 29 14 60 43 0
1 -50 46 -48 12 -25 35 24 60 -44 26 -49 -8 0
1 -50 46 48 -52 25 -24 17 29 0
1 -50 -46 16 -21 18 3 -17 5 41 -14 0
1 50 -55 -12 60 -48 11 -8 -31 0
1 -50 -46 16 21 49 -26 14 -9 23 -33 0
