c NeuroCodeBench 2.0 CNF formula with verdict Unsat
p cnf 53 305
-1 39 -35 -15 20 13 2 43 0
1 -26 36 22 19 -27 -30 29 -51 20 -9 -3 0
-1 -39 -43 -50 28 -9 0
1 -26 -36 45 27 -11 10 5 0
1 -26 -36 -45 -31 37 25 3 10 -2 0
1 -26 -36 -45 31 23 -10 -30 33 -2 0
-1 39 -35 15 3 -8 5 26 0
1 -26 -36 -45 31 -23 -44 -25 0
1 26 -29 19 38 -13 52 -10 0
1 26 -29 19 -38 -6 -16 35 25 -24 41 43 0
1 -26 36 22 19 -27 -30 -29 0
1 -26 36 22 19 -27 30 -38 -32 2 -18 41 49 4 0
1 -26 -36 -45 31 -23 44 -13 0
-1 39 -35 -15 -20 -40 4 -12 0
1 26 -29 -19 -45 -38 -21 32 7 0
1 26 -29 -19 -45 -38 -21 32 -7 -17 0
-1 -39 43 -41 -48 37 0
-1 39 -35 -15 20 -13 -34 -8 0
1 -26 -36 45 27 11 -51 -48 -7 3 0
1 26 29 37 -48 -25 0
-1 39 -35 15 3 8 37 0
-1 -39 43 41 -51 -11 33 0
-1 -39 -43 -50 -28 48 -16 -32 4 0
-1 39 -35 15 -3 25 -8 19 5 32 0
1 -26 36 -22 35 49 24 -33 0
-1 39 -35 15 -3 25 -8 19 5 -32 0
1 -26 36 -22 35 -49 -4 -10 0
1 -26 36 -22 -35 -23 14 0
-1 39 35 -29 6 -10 50 8 19 0
1 26 -29 -19 45 39 0
-1 39 35 -29 6 -10 50 -8 42 37 0
1 -26 -36 45 27 -11 10 -5 -20 46 -8 0
-1 -39 -43 50 -24 -27 30 0
1 -26 -36 -45 -31 -37 48 -9 -39 -13 19 0
-1 39 -35 15 -3 -25 47 -34 0
-1 39 35 29 -40 -42 -46 14 -11 0
1 -26 36 22 19 -27 -30 29 -51 20 9 0
1 26 -29 19 38 -13 52 10 0
1 -26 36 22 19 -27 30 -38 -32 -2 -39 0
1 -26 36 22 19 -27 30 -38 -32 2 18 35 0
-1 -39 43 -41 48 40 10 36 45 0
1 26 -29 19 -38 6 -30 0
-1 39 35 -29 6 -10 -50 -3 5 27 0
1 -26 36 22 19 -27 30 38 23 7 5 -43 34 0
-1 -39 43 -41 -48 -37 -30 -21 52 0
1 26 29 37 -48 25 0
-1 39 -35 15 -3 25 8 -47 -16 -17 0
-1 39 35 29 40 -46 12 -49 0
1 -26 -36 45 27 11 -51 -48 -7 -3 -53 0
1 -26 36 -22 35 49 24 33 0
1 26 -29 -19 -45 -38 -21 -32 0
1 -26 36 22 19 27 51 -53 -13 -3 49 0
-1 -39 -43 -50 -28 -48 21 0
1 26 -29 19 -38 6 30 -44 0
1 -26 -36 -45 31 -23 -44 25 0
1 26 -29 -19 -45 38 -25 6 0
1 -26 -36 45 27 -11 10 -5 -20 -46 0
1 -26 -36 -45 -31 37 25 3 10 2 0
1 -26 -36 -45 31 23 -10 -30 33 2 0
-1 -39 43 41 -51 -11 -33 -9 35 0
1 26 29 37 48 -11 0
1 26 -29 19 -38 -6 -16 35 25 -24 -41 -13 0
-1 -39 43 41 -51 11 -2 -28 36 0
1 -26 36 22 19 -27 -30 29 51 -34 20 0
-1 -39 43 41 -51 11 -2 28 0
1 -26 36 22 -19 35 2 31 -42 0
1 26 -29 19 -38 -6 16 0
-1 -39 43 41 -51 -11 -33 9 -21 0
-1 39 35 -29 6 10 -53 22 0
-1 39 35 -29 6 -10 -50 -3 -5 -45 -19 0
-1 -39 43 -41 -48 -37 -30 -21 -52 36 0
-1 39 35 29 -40 -42 46 0
1 -26 36 22 19 -27 -30 29 51 34 -37 -3 0
1 -26 -36 45 -27 52 -9 37 4 0
1 26 29 -37 0
1 -26 36 -22 -35 23 32 -8 -39 29 0
1 26 -29 -19 45 -39 0
1 -26 -36 -45 -31 -37 48 9 -33 0
-1 39 -35 15 -3 25 -8 19 -5 0
1 -26 -36 45 27 11 -51 48 35 28 17 0
-1 39 -35 -15 -20 -40 -4 24 -21 0
-1 39 35 -29 6 10 53 -28 0
-1 39 -35 -15 20 -13 34 42 0
1 -26 36 -22 -35 23 -32 -10 -11 40 -52 42 0
1 26 -29 -19 -45 -38 -21 32 -7 17 0
-1 -39 -43 50 -24 27 -45 -5 0
1 -26 -36 -45 -31 -37 48 -9 39 40 19 0
1 26 -29 19 -38 -6 -16 -35 -50 0
-1 -39 -43 50 -24 -27 -30 0
1 -26 36 22 19 27 51 -53 -13 3 0
-1 39 -35 15 -3 -25 47 34 0
-1 39 -35 15 -3 25 8 47 44 29 0
1 -26 -36 45 27 11 -51 48 35 28 -17 0
-1 -39 -43 -50 28 9 0
1 -26 -36 45 27 -11 10 -5 -20 46 8 0
1 -26 36 22 19 27 51 -53 13 0
1 -26 36 22 -19 35 -2 48 0
-1 -39 43 41 -51 11 2 -22 13 0
1 26 -29 19 38 13 43 -25 8 45 0
1 -26 36 -22 -35 23 32 8 0
1 -26 -36 -45 -31 -37 48 9 33 0
1 -26 36 22 -19 35 2 31 42 -53 0
-1 39 35 -29 6 -10 -50 3 42 0
1 -26 36 22 19 27 -51 29 0
-1 -39 -43 -50 -28 48 -16 32 0
-1 39 -35 15 -3 25 8 -47 16 -31 6 0
1 26 29 37 48 11 0
1 -26 -36 45 27 11 -51 -48 7 0
-1 -39 43 -41 48 40 10 -36 23 0
-1 39 -35 15 3 8 -37 0
-1 39 -35 15 -3 25 8 -47 -16 17 0
1 -26 36 -22 -35 -23 -14 0
1 -26 36 22 19 -27 30 -38 32 0
-1 39 35 29 40 -46 12 49 0
-1 39 -35 15 -3 25 8 -47 16 31 0
-1 -39 43 -41 48 40 -10 -27 0
-1 39 -35 15 -3 25 8 47 -44 46 0
-1 -39 43 -41 48 40 10 -36 -23 0
-1 39 -35 15 -3 -25 -47 46 -31 -26 11 22 0
-1 39 35 -29 6 -10 50 -8 -42 0
1 -26 -36 45 -27 52 -9 -37 0
-1 -39 -43 50 -24 27 45 -36 16 0
1 26 -29 -19 -45 38 -25 -6 0
1 -26 36 22 19 -27 30 -38 -32 2 -18 -41 -5 45 0
-1 39 -35 15 -3 -25 -47 46 -31 -26 -11 -27 0
-1 -39 43 -41 -48 -37 30 0
-1 39 35 29 40 -46 -12 -25 0
-1 39 35 -29 6 -10 -50 3 -42 38 0
1 -26 36 -22 35 -49 -4 10 0
1 -26 36 22 19 -27 30 38 23 7 -5 44 0
-1 39 35 29 -40 42 -6 -19 0
1 -26 36 22 -19 35 -2 -48 0
-1 39 35 29 40 -46 -12 25 -28 0
-1 39 35 29 40 46 14 0
1 -26 -36 45 27 -11 10 -5 20 -50 0
1 -26 36 -22 -35 23 -32 -10 -11 40 52 -16 0
1 -26 -36 45 -27 -52 28 -4 0
-1 -39 43 41 51 0
1 -26 -36 45 -27 52 9 18 22 0
1 -26 36 22 19 -27 -30 29 51 34 -37 3 0
1 -26 36 -22 -35 23 32 -8 -39 -29 0
-1 39 35 29 40 46 -14 0
1 -26 36 22 19 27 51 53 50 39 -33 0
1 -26 36 -22 35 -49 4 53 0
-1 39 -35 -15 -20 40 47 30 0
1 26 -29 19 38 13 43 -25 -8 0
1 26 -29 19 38 -13 -52 -4 11 -50 0
-1 39 35 29 -40 42 6 -4 -33 0
1 -26 -36 -45 -31 37 -25 22 0
1 -26 36 -22 -35 23 -32 -10 -11 40 52 16 45 0
-1 -39 43 -41 48 40 10 36 -45 0
1 -26 36 -22 -35 23 -32 -10 -11 -40 -16 0
1 -26 36 22 19 -27 -30 29 -51 20 -9 3 0
-1 39 -35 15 -3 25 -8 -19 -42 -44 -43 0
-1 39 -35 15 -3 -25 -47 46 -31 -26 11 -22 -51 0
1 26 -29 19 38 13 43 25 -32 0
-1 -39 -43 50 24 -20 -48 -19 0
1 -26 36 22 19 -27 30 -38 -32 2 -18 41 -49 0
1 26 -29 19 38 13 43 25 32 0
-1 -39 -43 50 -24 27 45 -36 -16 0
-1 39 -35 15 -3 25 8 47 44 -29 0
1 -26 36 -22 -35 23 -32 -10 11 0
1 26 -29 19 -38 -6 -16 35 25 24 0
1 26 -29 -19 -45 38 25 22 -50 0
-1 -39 -43 50 24 -20 48 -44 7 0
-1 39 35 29 -40 -42 -46 14 11 0
1 -26 -36 45 -27 52 9 18 -22 0
1 -26 -36 -45 -31 37 25 3 -10 -27 0
-1 39 -35 -15 -20 40 -47 0
1 26 -29 19 38 13 -43 44 7 0
-1 39 -35 -15 -20 -40 4 12 0
1 -26 36 22 19 -27 -30 29 -51 -20 -42 0
-1 -39 43 -41 -48 -37 -30 21 7 0
1 -26 36 22 19 27 51 53 50 39 33 0
1 26 -29 19 -38 -6 -16 -35 50 0
1 26 -29 -19 -45 38 25 22 50 -3 6 0
-1 39 35 -29 6 10 -53 -22 0
1 26 -29 19 -38 -6 -16 35 -25 0
1 -26 -36 45 27 11 51 -22 0
-1 39 35 29 -40 42 6 -4 33 0
-1 39 35 -29 6 -10 -50 -3 -5 -45 19 0
-1 39 -35 15 -3 25 8 -47 16 -31 -6 0
1 -26 -36 45 27 11 -51 48 35 -28 0
-1 -39 -43 -50 -28 -48 -21 0
1 -26 36 22 -19 35 2 -31 -16 0
1 -26 -36 45 -27 52 -9 37 -4 0
1 -26 -36 -45 31 23 -10 30 0
1 -26 36 22 19 27 51 -53 -13 -3 -49 -47 0
1 -26 -36 -45 31 -23 44 13 0
1 -26 36 22 -19 -35 -44 0
1 -26 36 -22 -35 23 -32 -10 -11 -40 16 0
1 26 -29 19 38 -13 -52 4 -27 0
-1 -39 -43 -50 -28 48 16 0
-1 39 35 -29 6 -10 -50 3 -42 -38 0
-1 39 35 -29 6 10 53 28 0
-1 39 -35 -15 -20 -40 -4 -24 0
1 -26 36 -22 35 -49 4 -53 0
-1 39 -35 -15 -20 40 47 -30 0
-1 39 35 -29 6 -10 50 -8 42 -37 0
-1 -39 43 41 -51 -11 -33 -9 -35 0
-1 -39 43 -41 48 40 -10 27 -25 0
1 -26 36 22 19 -27 30 38 23 7 5 43 0
1 -26 36 22 19 -27 30 -38 -32 2 -18 -41 5 0
1 -26 36 22 19 -27 -30 29 -51 -20 42 0
-1 39 -35 15 -3 25 8 47 -44 -46 0
-1 -39 -43 50 24 -20 48 -44 -7 0
1 -26 36 22 19 27 51 53 -50 0
1 -26 36 22 19 27 51 -53 -13 -3 -49 47 0
-1 39 35 -29 6 -10 50 8 -19 0
1 26 -29 19 38 13 43 -25 8 -45 0
-1 -39 43 41 -51 11 2 -22 -13 0
1 -26 36 22 19 -27 30 -38 -32 2 -18 41 49 -4 0
1 -26 -36 -45 -31 -37 -48 0
1 26 -29 19 -38 6 30 44 0
-1 39 35 -29 -6 0
1 -26 36 -22 -35 23 -32 10 0
1 -26 -36 -45 -31 -37 48 -9 39 -40 0
1 -26 -36 45 27 11 -51 -48 -7 -3 53 0
-1 -39 43 -41 -48 -37 -30 21 -7 0
-1 39 -35 15 -3 25 -8 -19 -42 44 -24 0
-1 39 -35 15 -3 -25 -47 46 31 0
1 -26 -36 45 27 -11 10 -5 20 50 -9 0
1 -26 36 22 19 -27 -30 29 51 -34 -20 0
1 26 -29 19 38 13 -43 44 -7 0
-1 -39 -43 -50 -28 48 -16 -32 -4 0
-1 39 -35 15 -3 -25 -47 46 -31 -26 -11 27 0
1 -26 -36 45 27 11 51 22 14 47 0
1 -26 -36 45 27 -11 10 -5 20 50 9 0
1 -26 36 22 -19 35 2 -31 16 0
1 -26 36 22 19 -27 30 38 -23 0
1 -26 36 -22 -35 23 32 -8 39 -9 0
1 -26 -36 45 27 11 51 22 -14 0
-1 39 -35 15 -3 -25 -47 46 -31 26 -48 0
1 26 -29 -19 -45 38 25 -22 0
-1 39 -35 15 3 -8 5 -26 0
1 -26 36 -22 -35 23 32 -8 39 9 0
-1 -39 43 41 -51 11 2 22 -32 0
1 -26 36 22 19 -27 30 -38 -32 2 -18 -41 -5 -45 0
1 26 -29 19 -38 -6 -16 35 25 -24 41 -43 0
1 -26 -36 45 -27 -52 28 4 0
-1 -39 43 41 -51 11 2 22 32 0
-1 39 -35 15 -3 25 -8 -19 -42 44 24 0
1 -26 -36 45 -27 52 9 -18 0
-1 -39 -43 50 24 20 0
1 26 -29 19 -38 -6 -16 35 25 -24 -41 13 0
-1 39 -35 -15 -20 -40 -4 24 21 0
1 26 -29 19 38 13 -43 -44 0
1 26 -29 19 38 -13 -52 -4 11 50 0
1 26 -29 -19 -45 38 25 22 50 -3 -6 0
-1 39 35 -29 6 -10 -50 -3 5 -27 0
-1 -39 43 -41 48 40 -10 27 25 0
-1 39 -35 15 3 -8 -5 0
-1 39 -35 -15 20 13 2 -43 0
-1 39 35 29 -40 42 -6 19 0
-1 39 35 -29 6 -10 -50 -3 -5 45 0
-1 -39 43 41 -51 -11 -33 9 21 16 0
-1 39 -35 -15 20 13 -2 0
1 -26 36 22 19 27 -51 -29 0
-1 39 35 29 40 -46 -12 25 28 0
1 -26 -36 45 -27 -52 -28 0
-1 -39 43 41 -51 11 -2 -28 -36 0
1 -26 36 22 19 -27 -30 29 51 34 37 0
1 -26 -36 -45 31 23 -10 -30 -33 0
1 -26 -36 -45 -31 37 25 -3 0
-1 39 -35 15 -3 -25 -47 46 -31 26 48 0
1 -26 36 22 19 27 51 53 50 -39 40 0
1 -26 -36 -45 -31 37 -25 -22 0
1 -26 36 22 19 -27 30 -38 -32 2 18 -35 0
-1 -39 43 -41 -48 -37 -30 -21 -52 -36 0
1 -26 -36 45 27 11 -51 48 -35 0
1 -26 36 -22 -35 23 -32 -10 -11 40 52 16 -45 0
1 -26 -36 -45 -31 -37 48 -9 39 40 -19 0
1 -26 36 22 -19 35 2 31 42 53 0
1 -26 -36 -45 -31 37 25 3 -10 27 0
1 -26 -36 45 27 -11 -10 0
1 -26 36 -22 -35 23 -32 -10 -11 40 -52 -42 0
1 -26 36 22 19 -27 30 38 23 7 -5 -44 0
-1 39 -35 -15 20 -13 34 -42 0
1 -26 -36 -45 31 23 10 0
1 -26 36 -22 35 49 -24 0
-1 -39 -43 50 24 -20 -48 19 0
-1 39 -35 15 -3 -25 -47 46 -31 -26 11 -22 51 0
1 -26 -36 -45 -31 -37 48 -9 -39 -13 -19 0
1 -26 36 22 19 27 51 53 50 -39 -40 0
1 -26 36 22 -19 -35 44 0
-1 39 35 29 -40 42 6 4 0
-1 -39 43 -41 48 -40 0
1 26 -29 -19 -45 38 25 22 50 3 0
1 -26 -36 45 27 11 51 22 14 -47 0
-1 -39 -43 50 -24 27 -45 5 0
-1 39 -35 15 -3 25 -8 -19 42 0
-1 -39 -43 50 -24 27 45 36 0
1 -26 36 22 19 -27 30 38 23 -7 0
1 26 -29 -19 -45 -38 21 0
1 -26 36 22 19 -27 30 38 23 7 5 -43 -34 0
-1 -39 43 41 -51 -11 -33 9 21 -16 0
1 26 -29 19 38 -13 -52 4 27 0
1 -26 36 22 19 -27 30 -38 -32 -2 39 0
-1 39 -35 15 -3 -25 -47 -46 0
-1 -39 -43 50 24 -20 48 44 0
-1 39 -35 15 -3 25 -8 -19 -42 -44 43 0
1 26 -29 19 38 -13 -52 -4 -11 0
-1 39 35 29 -40 -42 -46 -14 0
1 -26 -36 -45 -31 -37 48 -9 -39 13 0
-1 39 -35 -15 20 -13 -34 8 0
