c NeuroCodeBench 2.0 CNF formula with verdict Unsat
p cnf 33 282
-1 27 8 33 32 -25 18 0
-1 -27 15 -10 -21 18 -7 29 -24 23 0
-1 27 8 33 -32 31 18 -10 -11 -16 -6 9 0
1 29 2 5 26 19 11 28 0
-1 -27 15 -10 -21 18 -7 -29 -6 0
-1 27 8 33 -32 31 18 -10 -11 -16 6 0
1 -29 5 -22 -8 16 -31 28 -15 -32 0
1 -29 5 22 -14 23 -7 -27 -9 -16 -26 0
1 -29 5 -22 -8 16 -31 28 -15 32 0
1 29 -2 25 -24 32 -33 -17 27 0
-1 27 8 -33 -11 28 -15 3 26 -30 13 17 0
1 -29 5 -22 -8 16 -31 28 15 0
1 29 -2 25 24 -12 -27 0
-1 -27 15 10 24 31 -20 -25 8 16 0
-1 27 8 33 -32 31 18 -10 11 2 0
-1 -27 15 10 -24 4 -17 -26 -25 0
1 -29 5 22 14 19 -17 0
1 -29 5 -22 8 -20 -3 0
-1 27 -8 33 -25 -12 -6 -32 14 0
-1 -27 15 10 -24 4 17 18 -32 -29 0
1 29 2 -5 33 -11 -21 -15 3 0
-1 27 8 -33 11 15 -6 10 7 0
1 29 2 -5 33 -11 21 32 22 7 26 0
1 29 -2 25 24 12 -26 -6 -5 0
1 -29 5 22 -14 23 -7 27 0
-1 27 -8 -33 -10 -31 18 0
-1 -27 15 -10 21 23 6 17 0
-1 27 8 -33 -11 28 -15 3 26 -30 13 -17 0
-1 -27 15 10 24 -31 -17 33 -21 0
1 -29 -5 22 -8 10 -26 -13 -15 0
1 29 -2 25 24 12 -26 6 -22 0
1 29 2 5 -26 28 32 -13 0
-1 27 8 -33 11 15 -6 10 -7 -20 0
-1 27 8 -33 11 15 6 23 -9 -13 0
-1 27 8 -33 -11 28 -15 -3 -10 0
-1 27 8 -33 -11 28 -15 3 26 30 0
-1 -27 15 10 -24 4 -17 26 33 29 0
-1 27 8 33 32 25 -5 24 0
-1 -27 -15 9 24 26 -22 0
-1 -27 15 10 -24 -4 22 28 -33 -6 -14 13 0
1 29 -2 -25 20 -19 11 -8 12 0
1 -29 -5 22 -8 10 -26 -13 15 0
1 29 -2 25 -24 -32 12 27 -18 0
-1 27 -8 -33 10 17 7 -3 0
-1 27 8 -33 -11 28 -15 3 26 -30 -13 10 2 0
-1 -27 15 -10 -21 18 -7 29 24 -30 0
-1 -27 15 -10 -21 -18 24 26 0
1 29 -2 25 24 -12 27 22 -10 3 0
-1 -27 -15 -9 0
-1 27 8 -33 11 -15 6 13 7 -24 0
-1 -27 15 10 -24 -4 22 28 33 0
-1 -27 15 10 24 -31 17 0
1 -29 5 -22 -8 16 -31 -28 -13 0
1 29 -2 25 24 -12 27 -22 30 0
1 29 -2 -25 20 -19 11 8 0
-1 -27 15 10 -24 4 17 -18 19 28 0
1 -29 -5 -22 13 -33 -23 -26 0
1 -29 -5 22 8 4 0
-1 27 -8 33 -25 -12 -6 32 21 0
-1 27 8 -33 11 15 6 23 -9 13 3 -4 30 0
1 29 2 -5 33 -11 21 32 22 -7 31 0
1 -29 5 -22 -8 -16 -13 -4 -3 0
1 29 2 -5 -33 -6 -8 0
1 -29 5 22 -14 23 -7 -27 -9 -16 26 0
-1 27 8 -33 11 -15 6 13 7 24 0
1 29 2 5 26 -19 -3 0
1 -29 -5 22 8 -4 -23 -32 0
1 -29 -5 22 8 -4 -23 32 0
-1 -27 15 -10 21 23 -6 4 0
1 -29 5 22 14 19 17 0
-1 27 -8 33 25 23 14 0
-1 -27 15 -10 -21 18 -7 29 -24 -23 0
1 29 2 -5 33 -11 21 32 -22 -13 0
-1 27 8 -33 11 -15 -6 -31 0
1 29 -2 25 24 -12 27 22 -10 -3 -20 0
1 -29 5 -22 -8 -16 -13 -4 3 -27 0
-1 -27 15 -10 21 -23 -28 0
-1 -27 15 10 -24 4 -17 26 33 -29 32 23 0
-1 27 8 -33 11 15 6 -23 30 12 0
1 -29 5 -22 8 20 -25 0
1 29 2 5 -26 28 -32 0
-1 -27 15 10 -24 -4 22 -28 30 0
-1 27 8 -33 -11 -28 32 -13 0
1 29 2 -5 33 -11 21 32 22 -7 -31 0
-1 -27 15 10 -24 -4 -22 3 0
-1 27 8 33 32 25 -5 -24 0
1 29 2 -5 33 11 25 0
-1 -27 15 10 24 31 -20 -25 -8 0
-1 27 8 -33 11 15 6 23 -9 13 -3 -19 -16 5 0
1 -29 5 22 -14 -23 -33 0
1 29 -2 25 24 -12 27 22 10 0
-1 -27 15 10 -24 4 -17 26 -33 2 3 -32 0
1 -29 5 -22 -8 -16 13 0
-1 -27 15 10 -24 4 -17 26 -33 2 3 32 0
-1 27 -8 33 -25 -12 -6 -32 -14 0
1 29 -2 -25 -20 -10 0
-1 -27 -15 9 -24 -30 11 0
1 29 -2 25 24 -12 27 -22 -30 0
-1 -27 15 10 -24 4 -17 26 33 -29 32 -23 -2 0
1 -29 -5 22 -8 10 -26 13 -33 0
-1 27 8 33 32 25 5 0
-1 27 8 -33 11 15 6 23 -9 13 3 -4 -30 0
-1 27 -8 33 -25 12 10 0
-1 27 8 -33 -11 -28 -32 0
-1 27 -8 -33 10 17 7 3 0
-1 -27 15 10 -24 4 -17 -26 25 -29 -6 0
-1 -27 15 10 -24 4 -17 26 33 -29 -32 7 0
-1 27 8 -33 11 15 -6 -10 -3 0
-1 27 8 -33 -11 28 -15 3 -26 -16 -2 9 0
-1 27 8 -33 11 15 6 23 9 -18 0
1 29 -2 25 -24 -32 -12 19 0
1 -29 -5 -22 13 33 6 0
-1 -27 15 10 24 -31 -17 -33 5 0
-1 27 8 -33 11 15 6 -23 -30 21 0
1 -29 5 -22 -8 -16 -13 -4 3 27 21 0
1 29 2 -5 33 11 -25 0
1 29 -2 25 -24 32 33 -28 5 0
1 29 -2 25 -24 -32 12 27 18 0
1 -29 -5 -22 13 -33 -23 26 0
1 -29 5 -22 8 20 25 0
1 -29 5 -22 -8 16 31 0
-1 27 -8 33 25 -23 -16 0
-1 -27 15 -10 -21 -18 -24 0
1 29 -2 -25 -20 10 0
1 -29 -5 -22 13 -33 23 -32 0
-1 -27 15 10 -24 4 -17 26 -33 -2 -11 6 0
1 -29 -5 -22 13 -33 23 32 0
-1 27 -8 33 -25 12 -10 -9 0
-1 27 8 -33 -11 28 -15 -3 10 0
-1 -27 15 10 -24 -4 22 28 -33 -6 14 0
1 -29 -5 22 -8 10 -26 13 33 0
1 29 -2 25 24 12 26 10 30 23 0
-1 -27 15 10 -24 -4 22 -28 -30 0
-1 -27 15 10 -24 4 -17 -26 25 29 13 0
1 29 -2 -25 20 -19 -11 9 -26 -33 0
1 -29 5 22 -14 23 7 21 0
-1 27 8 -33 11 15 6 23 -9 13 -3 19 0
-1 27 -8 33 -25 12 -10 9 0
1 -29 -5 22 -8 -10 -19 0
-1 27 -8 -33 10 -17 26 -15 -20 0
-1 27 8 -33 -11 28 -15 3 -26 -16 2 -31 4 0
1 29 -2 25 24 12 26 10 30 -23 0
1 29 2 -5 33 -11 -21 15 32 12 0
-1 -27 15 10 -24 -4 22 28 -33 -6 -14 -13 0
1 -29 -5 22 -8 10 26 -19 0
1 29 2 5 26 -19 3 0
1 -29 5 -22 -8 -16 -13 4 9 2 0
-1 27 -8 33 25 23 -14 -26 0
-1 -27 15 10 -24 4 -17 26 33 -29 32 -23 2 0
-1 -27 15 10 -24 4 17 18 -32 29 0
1 29 2 -5 33 -11 -21 15 -32 0
-1 -27 15 10 -24 4 -17 -26 25 -29 6 -19 0
1 -29 5 -22 -8 -16 -13 4 -9 0
-1 -27 15 10 -24 4 -17 26 33 -29 -32 -7 0
-1 -27 15 10 -24 4 -17 26 -33 -2 11 0
-1 27 8 -33 11 15 6 23 -9 13 3 4 20 5 0
1 -29 5 -22 8 -20 3 0
-1 27 8 33 -32 31 -18 0
1 -29 5 -22 -8 -16 -13 4 9 -2 30 0
-1 27 8 33 -32 -31 0
-1 -27 15 10 -24 4 17 18 32 6 22 0
1 29 -2 -25 20 -19 -11 -9 0
-1 27 8 -33 11 15 6 -23 -30 -21 0
1 29 -2 -25 20 -19 11 -8 -12 0
1 29 2 5 26 19 -11 0
1 29 2 5 26 19 11 -28 0
1 -29 -5 22 8 -4 23 0
1 29 2 -5 -33 6 -3 -27 0
-1 27 8 -33 11 -15 6 -13 30 0
-1 27 8 -33 -11 28 -15 3 -26 -16 2 31 0
-1 27 8 -33 11 15 6 23 -9 13 -3 -19 16 0
-1 27 8 33 -32 31 18 -10 -11 -16 -6 -9 14 0
-1 -27 15 10 -24 4 17 -18 -19 0
-1 27 -8 -33 10 17 -7 0
1 29 2 -5 33 -11 -21 15 32 -12 -10 0
-1 -27 15 10 24 -31 -17 33 21 0
1 29 -2 25 -24 32 -33 17 0
1 29 -2 25 -24 -32 -12 -19 -15 0
-1 27 8 -33 -11 28 -15 3 -26 16 0
-1 27 8 -33 11 15 6 23 -9 13 -3 -19 -16 -5 0
1 -29 5 22 14 -19 7 0
1 29 -2 -25 20 -19 -11 9 26 0
-1 27 8 -33 11 15 -6 -10 3 0
-1 27 8 -33 -11 28 15 29 0
-1 27 8 33 -32 31 18 -10 -11 16 0
-1 -27 15 -10 21 23 -6 -4 0
1 -29 5 22 -14 23 7 -21 0
-1 27 -8 33 -25 -12 -6 32 -21 0
1 29 -2 25 24 -12 27 22 -10 -3 20 -17 0
-1 27 8 -33 11 15 6 23 -9 13 3 4 -20 0
1 29 -2 25 -24 -32 -12 -19 15 0
-1 -27 15 10 -24 4 -17 26 -33 -2 -11 -6 0
-1 27 8 -33 -11 28 -15 3 26 -30 -13 -10 0
-1 -27 15 -10 21 -23 28 0
-1 27 8 -33 11 -15 6 -13 -30 -9 0
1 29 -2 25 -24 32 -33 -17 -27 0
1 29 -2 25 24 12 26 10 -30 0
-1 27 8 -33 11 15 6 23 9 18 0
1 29 2 5 -26 28 32 13 0
1 29 -2 25 -24 -32 12 -27 7 0
1 29 -2 -25 20 19 0
-1 27 8 -33 11 -15 6 -13 -30 9 0
-1 -27 15 -10 -21 18 -7 29 24 30 0
1 29 -2 25 24 12 -26 6 22 0
1 29 2 -5 33 -11 -21 15 32 -12 10 0
1 29 2 -5 -33 -6 8 23 0
1 29 -2 25 -24 32 33 -28 -5 17 0
-1 -27 15 10 -24 4 -17 26 -33 2 -3 0
-1 27 8 -33 -11 28 -15 3 -26 -16 -2 -9 21 0
-1 -27 15 10 24 -31 -17 -33 -5 0
-1 27 8 33 -32 31 18 10 0
1 29 2 -5 -33 -6 8 -23 0
-1 -27 -15 9 24 26 22 -16 0
1 -29 5 -22 -8 -16 -13 4 9 -2 -30 0
1 29 -2 25 24 12 -26 -6 5 0
-1 27 -8 33 25 23 -14 26 0
-1 27 8 -33 11 15 6 -23 30 -12 0
-1 27 -8 -33 -10 -31 -18 0
-1 27 -8 33 25 -23 16 -13 -10 0
-1 -27 15 -10 -21 18 -7 -29 6 0
1 29 -2 25 -24 32 33 -28 -5 -17 0
1 -29 5 22 14 -19 -7 0
-1 -27 15 10 -24 -4 -22 -3 0
-1 -27 15 10 -24 4 17 -18 19 -28 0
1 29 2 -5 33 -11 -21 -15 -3 0
1 -29 -5 -22 -13 0
1 -29 5 -22 -8 16 -31 -28 13 0
-1 -27 15 10 24 31 -20 25 0
-1 27 8 -33 11 15 -6 10 -7 20 0
-1 27 -8 -33 10 -17 -26 -25 0
1 29 2 -5 33 -11 21 32 22 7 -26 0
1 29 -2 -25 20 -19 -11 9 -26 33 0
1 29 -2 25 24 12 26 -10 0
-1 -27 15 10 -24 -4 22 28 -33 6 8 0
1 29 2 5 -26 -28 0
-1 -27 15 -10 21 23 6 -17 0
1 -29 5 22 -14 -23 33 31 0
-1 -27 -15 9 24 -26 0
-1 27 -8 33 25 -23 16 -13 10 0
-1 -27 15 10 -24 4 -17 -26 25 29 -13 0
1 29 -2 25 -24 -32 12 -27 -7 0
-1 -27 15 10 -24 4 17 18 32 -6 0
1 -29 5 -22 -8 -16 -13 -4 3 27 -21 0
-1 27 8 33 -32 31 18 -10 11 -2 0
1 29 2 -5 33 -11 21 -32 0
-1 -27 15 -10 -21 18 7 0
-1 -27 -15 9 24 26 22 16 0
1 -29 -5 22 -8 -10 19 0
-1 27 8 -33 11 15 6 23 -9 13 3 4 20 -5 0
-1 -27 15 10 24 31 20 0
-1 27 -8 33 25 -23 16 13 0
1 29 -2 25 24 -12 27 22 -10 -3 20 17 0
1 -29 -5 22 -8 10 26 19 0
-1 27 -8 33 -25 -12 6 0
1 29 2 -5 33 -11 21 32 -22 13 0
-1 27 8 -33 -11 28 -15 3 -26 -16 2 -31 -4 0
-1 27 8 -33 -11 28 15 -29 0
1 -29 -5 -22 13 33 -6 0
-1 27 -8 -33 10 -17 26 15 0
-1 27 8 -33 -11 -28 32 13 0
-1 -27 15 10 -24 -4 22 28 -33 6 -8 0
1 -29 5 22 -14 23 -7 -27 -9 16 0
-1 -27 15 10 24 31 -20 -25 8 -16 0
-1 -27 15 -10 -21 -18 24 -26 0
-1 -27 -15 9 -24 -30 -11 0
-1 27 8 33 -32 31 18 -10 -11 -16 -6 -9 -14 0
-1 27 8 -33 -11 28 -15 3 -26 -16 -2 -9 -21 0
-1 27 8 -33 11 -15 -6 31 0
1 29 2 -5 -33 6 -3 27 0
-1 -27 15 10 -24 4 -17 -26 25 -29 6 19 0
1 -29 5 22 -14 -23 33 -31 0
-1 27 8 -33 11 -15 6 13 -7 0
-1 27 8 33 32 -25 -18 0
1 29 -2 25 -24 32 33 28 0
-1 27 -8 -33 -10 31 0
1 -29 5 22 -14 23 -7 -27 9 0
-1 -27 15 10 -24 4 17 18 32 6 -22 0
-1 -27 -15 9 -24 30 0
-1 27 -8 -33 10 -17 26 -15 20 0
1 29 2 -5 -33 6 3 0
-1 27 8 -33 -11 28 -15 3 26 -30 -13 10 -2 0
-1 27 -8 -33 10 -17 -26 25 0
