c NeuroCodeBench 2.0 CNF formula with verdict Unsat
p cnf 56 490
1 52 -36 31 6 -51 -35 48 54 0
-1 -10 -42 -34 12 -35 -14 17 6 -49 0
-1 10 23 50 56 -41 4 -34 -35 -38 32 19 -44 0
-1 -10 -42 -34 12 35 56 -16 -24 25 0
1 -52 -20 55 -39 32 27 10 46 0
1 -52 -20 -55 -16 26 -23 -4 -44 43 -38 47 0
-1 10 23 50 56 -41 -4 55 -16 37 -48 0
1 -52 -20 -55 16 15 35 -13 0
-1 -10 42 -33 8 -44 30 22 35 0
-1 -10 -42 -34 -12 -15 6 54 -41 27 0
1 52 -36 31 -6 46 40 50 -29 -14 0
-1 -10 -42 34 -9 -55 -24 13 22 52 48 0
1 -52 20 -26 -14 -44 -53 0
1 52 36 47 -15 -3 38 27 -5 0
1 -52 20 -26 14 53 -4 49 -13 -38 0
-1 10 -23 17 -9 55 -26 44 43 21 31 25 -38 -28 0
-1 -10 -42 -34 12 35 56 16 15 50 -48 0
-1 -10 -42 -34 12 -35 -14 -17 41 -45 0
-1 10 23 50 56 -41 -4 -55 40 51 52 0
-1 -10 -42 -34 12 35 56 -16 24 -51 43 -41 0
-1 -10 -42 -34 12 35 56 -16 24 51 -39 -26 -2 -17 0
1 52 -36 31 -6 46 -40 -17 42 21 -35 34 0
1 -52 20 26 30 21 22 49 0
1 -52 -20 -55 -16 26 -23 -4 -44 -43 0
-1 10 23 50 -56 28 46 -42 2 30 39 0
-1 -10 -42 -34 12 35 56 16 15 50 48 -44 37 0
-1 10 -23 -17 43 29 -8 -55 -7 3 19 50 -35 0
-1 -10 42 -33 -8 24 0
1 -52 -20 -55 -16 26 -23 4 -18 -41 0
1 -52 20 26 30 -21 0
-1 -10 42 33 -4 47 49 35 -50 0
1 52 -36 31 6 51 -16 -28 0
-1 -10 -42 -34 12 35 56 -16 24 51 -39 26 3 -25 0
1 52 36 47 -15 -3 38 -27 10 0
1 52 36 47 15 42 -13 56 -27 22 0
1 52 -36 -31 -13 45 4 33 -28 0
-1 -10 -42 -34 12 -35 14 0
1 -52 -20 55 39 51 -8 38 26 18 0
1 -52 -20 -55 16 -15 -45 27 -9 21 41 0
-1 -10 42 33 -4 47 -49 -11 6 0
1 -52 -20 -55 16 15 35 13 41 0
-1 10 -23 -17 43 29 -8 -55 7 35 0
1 52 -36 -31 13 49 -20 39 -46 0
-1 10 23 50 56 41 47 55 33 31 7 0
-1 10 -23 -17 -43 -20 5 50 15 -52 0
-1 10 -23 -17 43 29 -8 -55 -7 -3 12 46 0
-1 10 23 50 56 41 47 -55 -48 35 -5 43 0
1 52 -36 31 6 -51 -35 -48 13 50 7 0
1 -52 20 -26 14 53 -4 49 13 -46 -24 -10 0
-1 10 23 -50 -30 41 55 0
-1 10 23 50 56 41 47 -55 -48 35 5 0
-1 10 23 50 -56 -28 17 -16 41 24 0
-1 -10 -42 -34 12 35 56 -16 24 -51 -43 17 0
-1 10 23 50 56 -41 -4 55 -16 37 48 43 0
1 52 -36 31 -6 46 40 -50 -2 11 -29 0
1 -52 20 -26 14 -53 46 -23 -47 5 0
-1 -10 42 -33 8 -44 -30 -38 -24 -17 22 0
1 52 36 47 15 42 13 14 32 0
-1 -10 -42 -34 -12 15 31 -55 38 0
-1 10 23 50 56 41 47 55 33 31 -7 0
-1 -10 42 -33 8 -44 -30 38 -16 0
-1 10 -23 17 -9 55 -26 44 43 21 31 -25 -37 0
-1 -10 -42 -34 12 35 56 -16 24 -51 -43 -17 -27 0
-1 10 -23 -17 -43 20 -36 0
1 52 -36 -31 -13 -45 0
-1 -10 -42 -34 -12 -15 -6 5 -9 -25 -31 0
-1 10 23 50 56 41 47 -55 -48 -35 3 0
-1 10 -23 -17 43 -29 -7 -40 -4 -38 16 -11 39 0
-1 10 -23 17 9 45 12 0
-1 -10 -42 -34 12 35 -56 -49 17 0
-1 -10 -42 -34 12 35 56 -16 24 51 39 -38 0
-1 10 -23 17 9 -45 51 -11 0
-1 -10 -42 34 -9 -55 -24 13 -22 -33 0
1 52 -36 31 -6 46 -40 17 25 0
1 52 -36 -31 13 49 -20 -39 43 0
-1 10 23 50 56 41 -47 -55 -5 -40 28 0
1 52 36 -47 -21 25 -23 -37 26 0
1 -52 -20 55 39 51 -8 38 26 -18 41 0
-1 10 23 50 -56 28 -46 2 14 0
-1 -10 42 -33 8 44 43 0
-1 10 23 50 56 -41 -4 55 -16 -37 -18 0
1 52 -36 31 -6 46 -40 17 -25 20 -11 0
-1 10 23 50 56 -41 4 -34 -35 -38 32 -19 0
-1 10 -23 -17 -43 -20 5 50 -15 -49 0
-1 10 -23 17 9 -45 -51 -54 0
-1 -10 -42 -34 12 35 56 16 15 -50 0
-1 -10 -42 -34 -12 -15 6 -54 0
-1 10 23 50 56 41 47 55 33 -31 21 -6 0
1 52 -36 31 6 -51 35 -42 19 21 0
-1 -10 -42 34 9 44 47 23 0
-1 -10 -42 -34 -12 -15 -6 5 -9 25 0
1 -52 20 -26 14 -53 46 -23 -47 -5 34 0
-1 10 -23 -17 43 29 -8 -55 -7 3 19 -50 0
1 -52 -20 -55 16 -15 -45 -27 7 0
-1 10 23 50 -56 -28 17 -16 41 -24 -18 0
-1 -10 42 33 -4 47 49 35 50 -8 0
1 -52 20 -26 -14 44 54 19 0
1 -52 -20 55 39 51 -8 -38 25 0
1 52 36 47 -15 -3 38 27 5 16 29 23 0
1 52 -36 31 -6 46 -40 17 -25 20 11 0
1 52 36 47 -15 -3 38 -27 -10 -28 0
-1 10 23 50 56 -41 -4 -55 -40 -32 -27 0
1 52 -36 31 -6 46 40 -50 -2 -11 17 0
1 52 -36 -31 -13 45 4 33 28 0
-1 10 23 -50 -30 -41 -39 -32 -35 -7 0
-1 10 -23 17 -9 55 -26 44 43 21 31 25 38 -12 35 -5 0
-1 -10 -42 -34 -12 15 -31 -24 -4 52 0
1 -52 -20 -55 16 -15 -45 -27 -7 0
-1 10 -23 -17 -43 -20 5 50 -15 49 0
-1 -10 -42 -34 12 35 -56 49 26 0
-1 10 -23 -17 43 -29 -7 -40 -4 -38 -16 0
-1 -10 -42 -34 -12 -15 -6 -5 40 -33 0
-1 10 23 50 -56 28 -46 2 -14 0
-1 10 -23 -17 43 -29 -7 40 27 0
-1 10 23 -50 30 27 -13 0
-1 10 23 50 56 -41 -4 -55 -40 32 0
1 52 36 47 -15 3 28 -21 -29 0
1 52 36 47 15 -42 51 10 0
1 52 -36 31 6 -51 -35 48 -54 25 -19 -5 0
1 52 -36 -31 13 49 -20 39 46 0
-1 10 -23 17 9 45 -12 0
-1 10 -23 -17 43 29 -8 -55 7 -35 0
-1 10 23 50 56 41 47 -55 -48 -35 -3 0
-1 -10 -42 -34 -12 -15 6 54 41 4 49 20 25 0
-1 -10 -42 34 9 44 47 -23 0
1 -52 -20 -55 16 -15 45 0
-1 10 -23 -17 43 -29 -7 -40 4 -31 55 28 0
1 -52 20 -26 14 -53 -46 -22 -32 -5 -42 7 17 0
1 -52 -20 -55 -16 26 23 49 43 0
1 -52 20 -26 14 -53 46 -23 47 0
-1 10 -23 17 -9 55 26 19 -7 33 0
-1 10 23 50 56 41 47 55 33 -31 -21 15 5 0
-1 10 -23 -17 43 -29 -7 -40 4 -31 -55 41 30 20 33 0
-1 10 23 50 -56 -28 17 16 27 -53 0
-1 -10 -42 -34 12 35 56 -16 24 51 -39 -26 2 0
1 52 -36 31 -6 46 40 50 29 -48 -5 -44 0
1 52 36 47 -15 -3 38 27 5 16 29 -23 0
1 -52 20 -26 14 -53 -46 -22 -32 5 -4 -9 0
-1 -10 -42 -34 -12 -15 -6 -5 -40 -25 0
1 -52 20 -26 14 -53 -46 -22 -32 5 -4 9 0
-1 10 -23 17 -9 55 26 -19 34 0
-1 10 23 50 -56 28 46 42 -7 43 38 0
1 -52 -20 -55 -16 26 -23 -4 -44 43 -38 -47 0
1 52 -36 31 6 -51 35 -42 19 -21 0
1 -52 -20 -55 -16 26 -23 4 -18 41 0
-1 -10 -42 -34 -12 -15 6 54 41 4 49 -20 0
1 -52 -20 55 39 -51 0
-1 10 23 50 56 -41 -4 55 16 -39 0
-1 10 23 50 56 41 -47 -55 -5 -40 -28 0
-1 -10 42 33 4 -29 -25 31 0
1 52 -36 -31 13 -49 38 0
-1 -10 42 -33 8 -44 -30 38 16 -6 0
1 52 36 47 -15 3 -28 -14 -41 0
-1 -10 -42 34 -9 -55 -24 -13 -5 7 0
-1 10 23 50 56 41 47 -55 48 -52 46 0
-1 -10 42 33 4 -29 -25 -31 55 0
1 -52 20 -26 14 -53 -46 -22 32 0
1 -52 -20 55 -39 -32 -50 27 -49 11 0
1 52 -36 31 -6 46 40 50 29 48 45 41 0
1 52 -36 31 -6 46 40 50 29 48 -45 -5 0
-1 -10 -42 -34 12 35 56 16 -15 6 0
1 52 36 47 -15 -3 38 27 5 -16 0
1 -52 20 -26 14 53 4 0
-1 -10 -42 -34 12 35 56 -16 24 51 -39 26 3 25 0
1 -52 -20 -55 -16 26 23 -49 0
-1 -10 -42 -34 -12 -15 -6 5 9 35 0
-1 10 -23 17 -9 55 -26 44 43 21 -31 -46 0
1 -52 -20 -55 -16 26 -23 4 18 -42 0
-1 10 -23 17 -9 55 -26 44 -43 47 0
1 52 36 -47 -21 25 -23 -37 -26 0
-1 -10 -42 -34 -12 -15 -6 -5 40 33 -43 0
-1 -10 -42 34 -9 -55 -24 13 -22 33 -8 0
-1 10 -23 17 -9 55 -26 44 43 21 31 25 38 12 0
-1 10 23 -50 30 -27 -17 0
1 52 -36 -31 13 -49 -38 -54 12 0
-1 10 23 50 -56 28 46 -42 2 -30 24 0
-1 10 23 -50 -30 -41 -39 -32 35 0
1 52 -36 31 -6 46 -40 -17 42 21 35 -15 0
1 -52 20 -26 -14 44 54 -19 0
-1 -10 -42 -34 -12 -15 -6 -5 -40 25 -51 0
-1 -10 -42 34 -9 -55 -24 -13 -5 -7 -45 -2 0
1 -52 20 -26 14 -53 -46 22 0
1 -52 -20 -55 16 -15 -45 27 -9 -21 0
1 -52 20 -26 14 -53 -46 -22 -32 5 4 0
1 -52 20 26 30 21 -22 38 0
1 52 36 47 -15 -3 38 -27 -10 28 0
1 52 36 47 -15 3 28 21 0
-1 10 -23 -17 -43 -20 -5 -54 -6 0
-1 10 23 -50 -30 -41 39 -11 0
1 -52 -20 55 -39 32 -27 0
1 52 -36 31 6 51 16 -49 0
-1 -10 -42 -34 12 35 56 -16 24 51 -39 26 -3 0
1 52 -36 -31 13 49 20 -18 0
-1 -10 -42 34 -9 -55 -24 13 22 -52 0
-1 -10 42 33 -4 -47 53 30 -13 0
-1 10 -23 17 -9 55 -26 -44 -40 -30 27 12 0
1 52 -36 31 6 -51 -35 -48 13 -50 0
1 52 36 47 15 -42 51 -10 0
-1 -10 -42 -34 -12 15 -31 24 9 -55 0
-1 -10 -42 34 -9 -55 -24 -13 -5 -7 -45 2 0
-1 10 23 50 56 -41 4 -34 -35 -38 -32 27 8 0
-1 10 23 50 56 -41 -4 -55 40 51 -52 0
1 52 -36 -31 13 -49 -38 54 0
1 52 36 47 15 -42 -51 0
-1 10 23 50 56 -41 -4 -55 40 -51 13 -20 -31 54 0
-1 -10 -42 -34 12 35 56 16 15 50 48 44 0
-1 10 23 50 56 -41 4 -34 35 -51 0
-1 10 -23 -17 43 -29 -7 -40 4 -31 55 -28 0
1 52 -36 31 6 -51 -35 48 -54 -25 46 47 0
1 52 -36 31 -6 46 40 50 29 -48 -5 44 0
-1 10 23 50 -56 -28 17 -16 41 -24 18 -46 0
-1 -10 -42 -34 -12 15 -31 24 -9 -6 0
1 52 -36 31 -6 46 40 -50 -2 -11 -17 0
-1 -10 -42 -34 12 35 -56 49 -26 0
-1 10 -23 17 -9 -55 0
-1 10 23 50 56 -41 -4 -55 40 -51 13 -20 -31 -54 0
-1 -10 42 33 -4 47 49 -35 34 0
1 -52 -20 -55 -16 26 -23 4 18 42 0
-1 10 -23 -17 43 -29 -7 -40 4 31 52 35 0
-1 -10 -42 34 -9 55 -17 22 -3 -6 0
1 -52 20 -26 14 53 -4 49 13 -46 24 0
1 52 -36 31 6 51 16 49 0
-1 -10 -42 -34 -12 15 -31 -24 4 0
-1 -10 -42 -34 12 35 56 -16 24 -51 -43 -17 27 0
1 -52 20 26 -30 -54 -15 29 55 -37 0
-1 -10 -42 -34 -12 15 31 55 0
1 -52 20 -26 14 -53 -46 -22 -32 -5 -42 7 -17 0
1 52 36 47 15 42 -13 56 27 0
1 52 36 47 15 42 -13 -56 -53 0
-1 10 -23 -17 -43 -20 5 -50 12 0
-1 10 -23 17 -9 55 -26 -44 -40 30 -6 0
1 52 -36 31 6 -51 -35 48 -54 25 19 0
1 -52 20 -26 -14 -44 53 0
1 -52 20 26 -30 54 38 0
1 52 -36 31 -6 46 40 -50 -2 11 29 0
1 52 -36 -31 13 -49 -38 -54 -12 0
-1 -10 -42 34 -9 -55 -24 -13 5 0
-1 10 23 50 -56 -28 -17 3 -29 24 0
-1 10 23 50 56 41 -47 -55 -5 40 0
1 -52 -20 -55 16 15 -35 0
-1 10 -23 -17 43 -29 -7 -40 4 -31 -55 41 30 -20 38 0
1 52 -36 31 6 -51 35 42 0
-1 10 23 50 56 41 47 -55 48 -52 -46 -25 0
-1 10 -23 17 -9 55 -26 -44 40 4 -28 0
1 -52 -20 -55 16 -15 -45 27 -9 21 -41 0
1 52 36 47 -15 -3 38 27 5 16 -29 0
1 -52 20 26 -30 -54 -15 29 -55 0
-1 10 23 50 56 -41 -4 55 -16 -37 18 0
-1 10 -23 -17 43 29 -8 -55 -7 3 -19 -9 0
-1 10 -23 17 -9 55 26 19 -7 -33 0
-1 10 -23 -17 43 -29 -7 -40 4 -31 -55 41 30 20 -33 0
-1 10 23 -50 -30 -41 -39 -32 -35 7 0
-1 10 -23 17 9 -45 51 11 0
1 -52 20 -26 14 -53 -46 -22 -32 -5 42 0
-1 10 23 50 56 -41 4 -34 35 51 0
1 52 36 47 -15 -3 -38 0
-1 -10 42 -33 8 -44 -30 -38 24 0
-1 10 23 50 56 -41 -4 55 16 39 0
-1 -10 42 -33 8 44 -43 -49 0
1 52 36 47 15 42 13 -14 -23 0
-1 10 -23 17 -9 55 -26 44 43 21 -31 46 0
-1 10 23 50 56 -41 4 -34 -35 -38 -32 -27 0
-1 10 -23 -17 43 -29 -7 -40 4 31 -52 26 0
-1 -10 -42 -34 -12 -15 -6 5 9 -35 0
-1 10 23 50 56 41 -47 55 0
-1 -10 -42 34 -9 55 -17 -22 16 0
-1 10 23 50 56 -41 -4 -55 40 -51 13 20 36 0
-1 10 23 -50 -30 -41 -39 32 0
-1 -10 -42 -34 -12 -15 -6 -5 -40 25 51 45 0
-1 -10 -42 34 -9 55 17 0
-1 10 23 50 56 -41 -4 -55 -40 -32 27 0
1 52 -36 -31 -13 45 -4 19 0
-1 -10 -42 34 9 44 -47 0
-1 -10 -42 34 -9 -55 -24 -13 -5 -7 45 0
-1 -10 42 33 4 -29 25 -7 -8 27 0
1 -52 -20 -55 16 -15 -45 27 9 0
1 52 -36 31 -6 46 40 -50 2 0
1 52 -36 31 6 -51 -35 -48 -13 21 0
-1 10 23 50 56 -41 4 34 42 0
-1 -10 -42 -34 12 35 56 16 15 50 48 -44 -37 21 0
-1 -10 -42 34 -9 55 -17 -22 -16 0
1 -52 -20 55 39 51 8 0
-1 10 -23 -17 43 -29 -7 -40 4 -31 -55 41 -30 -28 0
1 52 36 47 -15 3 -28 -14 41 0
-1 -10 42 -33 8 44 -43 49 0
-1 10 -23 -17 -43 -20 5 -50 -12 0
1 52 -36 31 -6 46 -40 -17 -42 -18 0
-1 10 23 50 -56 28 46 -42 2 -30 -24 0
1 -52 -20 55 39 51 -8 38 26 -18 -41 0
-1 -10 -42 -34 12 35 56 -16 24 -51 43 41 0
-1 10 23 -50 -30 41 -55 0
-1 -10 42 33 -4 -47 -53 -51 0
1 52 -36 31 -6 46 -40 -17 -42 18 0
-1 10 23 50 -56 28 46 42 -7 43 -38 0
-1 10 23 50 56 -41 4 -34 -35 -38 -32 27 -8 0
-1 -10 -42 -34 -12 15 -31 -24 -4 -52 0
-1 -10 42 33 -4 47 -49 11 0
-1 10 23 50 -56 28 46 42 7 -19 12 0
-1 10 23 50 -56 -28 17 -16 -41 0
1 -52 20 -26 14 53 -4 49 13 -46 -24 10 0
-1 10 -23 17 -9 55 -26 44 43 -21 0
1 -52 -20 55 -39 -32 50 -9 38 0
-1 -10 42 33 -4 47 -49 -11 -6 0
-1 10 23 50 56 -41 -4 -55 40 -51 -13 0
1 52 -36 31 -6 -46 0
1 -52 20 26 -30 -54 -15 29 55 37 0
-1 10 -23 -17 43 -29 -7 -40 4 31 52 -35 0
1 52 36 47 -15 3 -28 14 0
-1 10 23 50 56 -41 4 -34 -35 38 0
1 -52 -20 55 -39 -32 -50 -27 -10 -36 0
1 -52 20 -26 14 -53 -46 -22 -32 -5 -42 -7 0
1 -52 -20 55 -39 -32 -50 -27 10 0
-1 10 23 -50 30 27 13 0
1 52 36 47 15 42 -13 56 -27 -22 0
-1 10 -23 -17 43 29 8 -41 0
-1 -10 42 33 4 29 0
-1 10 -23 -17 43 -29 -7 -40 -4 38 0
-1 -10 -42 -34 12 35 -56 -49 -17 0
1 -52 -20 55 -39 32 27 -10 0
1 -52 20 26 30 21 22 -49 -25 0
1 -52 -20 -55 -16 26 23 49 -43 0
-1 10 -23 17 -9 55 -26 44 -43 -47 0
-1 10 -23 17 -9 55 -26 44 43 21 31 25 38 -12 -35 0
-1 10 -23 17 -9 55 -26 -44 40 4 28 0
-1 -10 -42 34 9 -44 -40 0
-1 10 23 50 56 41 47 55 33 -31 -21 15 -5 0
-1 -10 42 -33 -8 -24 -35 0
1 52 36 -47 -21 25 23 -48 0
1 52 -36 31 6 -51 -35 -48 -13 -21 0
-1 -10 -42 -34 -12 -15 6 54 -41 -27 0
-1 -10 -42 -34 12 35 56 16 15 50 48 -44 -37 -21 0
-1 -10 42 33 -4 47 49 35 50 8 0
-1 10 -23 -17 43 -29 -7 -40 -4 -38 16 11 0
-1 -10 -42 -34 12 -35 -14 -17 41 45 0
-1 10 -23 -17 43 29 -8 -55 -7 -3 -12 0
-1 10 23 50 -56 -28 17 16 -27 0
-1 10 -23 17 -9 55 26 -19 -34 0
1 -52 -20 55 -39 -32 50 9 0
1 -52 20 26 30 21 -22 -38 0
1 -52 20 -26 14 53 -4 49 13 46 0
-1 10 23 50 -56 28 46 42 7 19 0
-1 10 23 50 56 41 47 55 33 -31 -21 -15 0
-1 10 23 50 56 41 47 55 33 -31 21 6 -51 0
-1 -10 42 33 -4 -47 -53 51 0
-1 10 -23 -17 -43 -20 5 50 15 52 0
-1 -10 42 -33 8 -44 -30 -38 -24 -17 -22 0
1 52 -36 -31 -13 45 4 -33 0
-1 -10 -42 -34 12 35 56 -16 -24 -25 0
1 -52 20 26 30 21 22 -49 25 -35 0
1 52 -36 -31 -13 45 -4 -19 0
-1 -10 -42 34 9 -44 40 0
1 -52 20 -26 14 53 -4 49 -13 38 0
-1 10 23 50 -56 -28 -17 3 -29 -24 0
-1 10 -23 -17 43 -29 -7 -40 4 31 -52 -26 0
1 52 -36 31 6 -51 -35 48 -54 -25 46 -47 0
-1 -10 42 33 -4 -47 53 -30 -9 0
1 52 36 -47 -21 25 -23 37 -28 0
-1 -10 -42 -34 12 -35 -14 17 6 49 0
-1 -10 42 33 -4 -47 53 -30 9 0
1 52 -36 -31 13 49 20 18 0
-1 10 23 50 -56 28 46 42 7 -19 -12 0
-1 10 23 50 -56 -28 17 16 27 53 0
1 -52 20 -26 14 -53 46 -23 -47 -5 -34 30 0
1 -52 20 -26 -14 44 -54 0
1 52 -36 31 -6 46 -40 -17 42 21 -35 -34 0
-1 -10 -42 -34 12 -35 -14 -17 -41 -30 0
-1 10 -23 -17 43 -29 -7 -40 4 -31 -55 41 -30 28 0
-1 -10 -42 34 -9 55 -17 22 3 0
-1 10 23 -50 -30 -41 39 11 0
1 52 -36 31 -6 46 40 50 29 48 45 -41 0
-1 -10 42 -33 8 -44 -30 38 16 6 0
1 -52 -20 -55 -16 -26 -13 14 0
1 52 -36 31 -6 46 -40 -17 42 -21 0
1 -52 20 26 -30 -54 15 0
1 52 36 47 15 42 13 -14 23 0
-1 10 -23 -17 -43 20 36 0
-1 10 23 50 56 41 47 -55 48 -52 -46 25 0
1 -52 20 26 -30 54 -38 0
1 52 36 47 15 42 -13 -56 53 3 0
1 -52 -20 -55 -16 26 -23 -4 -44 43 38 0
1 -52 -20 -55 -16 -26 13 -2 0
-1 10 23 50 56 -41 4 34 -42 0
-1 10 23 50 56 41 47 -55 -48 35 -5 -43 0
-1 -10 -42 -34 -12 -15 6 54 41 4 -49 0
-1 -10 -42 34 -9 -55 -24 13 22 52 -48 0
-1 10 23 50 56 41 47 55 -33 54 0
-1 10 -23 -17 43 -29 -7 -40 4 -31 -55 41 30 -20 -38 0
-1 10 23 50 56 41 -47 -55 5 0
-1 10 23 50 -56 28 -46 -2 0
-1 10 23 50 56 41 47 55 33 -31 21 6 51 0
-1 -10 42 -33 -8 -24 35 0
1 -52 20 -26 14 -53 46 23 0
-1 -10 42 -33 8 -44 30 -22 0
-1 10 23 50 56 -41 -4 55 -16 37 48 -43 0
-1 -10 42 33 -4 -47 53 30 13 0
1 52 -36 31 -6 46 -40 -17 42 21 35 15 0
1 -52 -20 -55 16 15 35 13 -41 0
1 52 -36 31 6 -51 -35 -48 13 50 -7 0
-1 10 23 50 56 -41 4 -34 -35 -38 32 19 44 0
1 52 -36 31 6 -51 -35 48 -54 -25 -46 -37 0
1 -52 -20 55 -39 32 27 10 -46 0
-1 10 23 50 56 41 47 55 -33 -54 0
-1 -10 42 33 4 -29 25 7 0
-1 10 23 50 -56 28 46 -42 2 30 -39 0
-1 10 -23 -17 43 29 -8 -55 -7 3 -19 9 14 0
-1 -10 -42 -34 -12 -15 6 54 41 -4 0
-1 -10 42 33 4 -29 -25 -31 -55 0
1 -52 -20 -55 -16 -26 13 2 0
1 -52 -20 -55 -16 26 -23 -4 44 28 0
-1 -10 -42 -34 -12 15 31 -55 -38 -51 0
-1 10 23 50 -56 -28 -17 3 29 0
-1 -10 42 33 -4 47 49 -35 -34 0
-1 10 -23 17 -9 55 -26 44 43 21 31 25 38 -12 35 5 0
-1 -10 -42 -34 12 35 56 -16 24 51 39 38 0
-1 -10 -42 -34 12 35 56 -16 24 51 -39 -26 -2 17 0
1 -52 20 26 30 21 22 -49 25 35 0
-1 10 -23 -17 -43 -20 -5 -54 6 0
1 -52 -20 -55 -16 -26 -13 -14 0
-1 10 -23 17 -9 55 -26 -44 -40 -30 27 -12 0
-1 -10 -42 34 -9 -55 -24 13 -22 33 8 0
-1 10 -23 17 9 -45 -51 54 0
1 -52 20 -26 14 -53 46 -23 -47 -5 -34 -30 0
-1 10 23 50 -56 -28 -17 -3 0
-1 10 23 -50 30 -27 17 0
-1 -10 42 33 4 -29 25 -7 8 0
-1 10 23 50 -56 28 46 -42 -2 0
-1 10 -23 -17 43 29 -8 -55 -7 3 19 50 35 0
1 52 -36 -31 13 49 -20 -39 -43 0
1 52 36 47 15 42 13 14 -32 0
-1 -10 -42 -34 -12 15 -31 24 -9 6 0
-1 10 23 50 -56 28 46 42 -7 -43 0
-1 10 -23 -17 43 -29 7 0
1 -52 20 -26 14 53 -4 -49 0
-1 -10 -42 -34 -12 -15 -6 5 -9 -25 31 0
1 52 -36 31 6 -51 -35 48 -54 25 -19 5 44 7 0
-1 10 -23 17 -9 55 -26 44 43 21 31 25 -38 28 0
-1 -10 42 -33 8 -44 -30 -38 -24 17 0
-1 -10 42 -33 8 -44 30 22 -35 0
-1 -10 -42 -34 -12 -15 -6 -5 -40 25 51 -45 0
1 52 36 -47 21 0
1 52 36 -47 -21 25 23 48 0
-1 10 23 50 56 -41 -4 -55 40 -51 13 20 -36 0
1 52 36 -47 -21 25 -23 37 28 0
-1 -10 -42 34 -9 55 -17 22 -3 6 0
-1 -10 -42 -34 12 35 56 16 -15 -6 0
1 52 -36 31 6 -51 35 -42 -19 0
1 52 -36 31 -6 46 -40 17 -25 -20 0
-1 10 -23 -17 43 29 -8 -55 -7 3 -19 9 -14 0
1 52 -36 31 6 -51 -35 48 -54 25 -19 5 -44 0
1 52 36 47 15 42 -13 -56 53 -3 0
-1 -10 -42 -34 -12 15 -31 24 9 55 0
1 52 -36 31 6 51 -16 28 0
-1 10 -23 -17 43 29 8 41 0
-1 10 23 50 56 -41 -4 -55 40 -51 13 -20 31 0
-1 10 -23 -17 43 29 -8 -55 -7 -3 12 -46 0
1 52 -36 31 6 -51 -35 48 -54 25 -19 5 44 -7 0
-1 -10 42 33 4 -29 25 -7 -8 -27 0
-1 10 -23 -17 -43 -20 -5 54 0
-1 10 -23 17 -9 55 -26 -44 -40 30 6 0
-1 10 23 50 -56 -28 17 -16 41 -24 18 46 0
-1 10 -23 -17 43 -29 -7 40 -27 0
-1 10 -23 -17 43 -29 -7 -40 4 -31 -55 -41 0
-1 10 -23 -17 43 -29 -7 -40 -4 -38 16 -11 -39 0
1 52 -36 31 -6 46 40 50 29 -48 5 0
1 -52 -20 55 39 51 -8 -38 -25 0
-1 -10 -42 -34 -12 15 31 -55 -38 51 0
1 -52 -20 55 -39 -32 50 -9 -38 0
-1 10 -23 17 -9 55 -26 -44 40 -4 0
1 52 -36 31 -6 46 40 50 -29 14 0
1 52 36 47 -15 3 28 -21 29 0
1 -52 -20 55 -39 -32 -50 27 49 0
1 52 -36 31 -6 46 40 50 29 48 -45 5 0
-1 10 -23 -17 43 29 -8 55 0
-1 -10 -42 -34 12 -35 -14 17 -6 0
-1 -10 -42 -34 12 -35 -14 -17 -41 30 0
-1 10 -23 17 -9 55 26 19 7 0
-1 10 23 50 56 41 47 -55 48 52 54 0
-1 -10 -42 34 -9 -55 24 0
1 -52 -20 55 -39 -32 -50 27 -49 -11 0
-1 -10 -42 -34 -12 -15 -6 -5 40 33 43 0
-1 10 -23 17 -9 55 -26 -44 -40 -30 -27 0
-1 -10 -42 -34 -12 -15 6 54 41 4 49 20 -25 0
1 -52 -20 -55 -16 26 -23 -4 44 -28 0
1 -52 -20 55 39 51 -8 38 -26 0
1 -52 20 26 -30 -54 -15 -29 0
1 -52 -20 55 -39 -32 -50 -27 -10 36 0
-1 10 23 50 56 41 47 -55 48 52 -54 0
-1 10 -23 17 -9 55 -26 44 43 21 31 -25 37 0
1 52 36 -47 -21 -25 0
1 52 -36 31 6 -51 -35 48 -54 -25 -46 37 0
