c NeuroCodeBench 2.0 CNF formula with verdict Unsat
p cnf 91 560
-1 65 -75 -90 62 27 12 -37 77 10 0
1 -63 29 20 14 -85 13 57 -4 0
1 -63 -29 -10 -61 46 -35 0
-1 65 -75 -90 -62 78 5 -14 46 0
-1 65 -75 -90 -62 -78 -6 41 -28 64 0
1 63 47 55 -17 -26 -65 -36 39 0
1 63 47 55 17 -13 58 -16 -4 -34 0
-1 -65 -53 21 -7 56 9 -19 -8 6 76 32 13 31 0
-1 65 75 -36 -9 -22 -61 15 -2 -26 0
1 -63 -29 10 -67 -82 0
-1 -65 53 -90 -81 -68 -21 -61 31 22 -64 0
-1 65 -75 -90 62 27 12 -37 -77 -83 54 11 0
-1 65 -75 -90 -62 78 5 -14 -46 -28 0
-1 65 75 36 71 57 43 -85 -80 0
-1 -65 53 -90 -81 68 61 -55 30 -86 -66 0
-1 65 -75 -90 -62 -78 -6 -41 -37 -64 80 0
1 63 47 -55 -8 -90 91 25 -50 12 0
-1 65 -75 -90 62 -27 -56 69 7 -10 31 -61 0
-1 -65 53 -90 -81 68 -61 57 4 31 -67 0
1 -63 29 20 14 85 82 18 -54 -36 -71 0
-1 -65 -53 21 7 25 5 -27 45 0
-1 65 75 36 -71 -38 70 -15 -43 63 0
1 63 47 55 -17 26 -43 -89 -88 65 58 34 -24 -38 25 0
1 -63 29 20 14 85 -82 72 27 67 77 42 -18 0
1 -63 -29 10 67 33 -71 -39 65 -27 0
1 -63 29 20 14 -85 -13 87 -86 -49 41 -3 0
-1 -65 53 -90 -81 68 -61 57 4 -31 -6 0
1 63 47 55 17 13 -68 -20 33 -31 0
-1 -65 -53 21 -7 -56 -25 -67 14 38 0
1 -63 29 20 -14 -30 57 -45 36 -21 75 -6 0
-1 -65 53 -90 81 -51 86 6 59 -12 0
1 -63 29 -20 81 -22 -87 17 -57 0
1 -63 29 -20 -81 44 -9 61 23 -69 0
1 -63 29 20 14 85 -82 72 27 -67 30 55 -2 0
-1 65 75 36 71 -57 -32 -55 12 -8 -48 88 -23 0
-1 65 75 36 -71 -38 70 -15 -43 -63 0
-1 65 75 -36 -9 22 71 -13 52 -41 0
1 63 47 55 -17 -26 65 16 13 38 0
-1 65 -75 -90 -62 -78 -6 -41 -37 64 0
1 -63 29 20 -14 -30 -57 77 -78 75 0
1 -63 29 20 14 85 82 18 54 89 55 6 0
-1 -65 53 -90 -81 68 -61 57 4 31 67 -55 84 -44 0
-1 -65 53 90 -56 -72 23 32 75 0
-1 -65 -53 21 -7 56 9 19 43 39 -69 31 -12 0
-1 -65 53 90 -56 72 28 0
1 -63 29 20 -14 30 -73 36 -42 45 0
-1 -65 53 -90 -81 68 -61 57 -4 20 0
1 63 -47 56 -36 49 84 78 35 0
-1 65 75 -36 9 19 -39 90 0
-1 65 -75 -90 -62 78 5 14 -50 -22 12 0
1 63 47 55 17 13 -68 20 42 43 40 0
1 63 47 55 17 -13 -58 73 56 38 0
1 63 47 -55 8 -51 -34 0
1 63 47 55 -17 26 43 38 -80 77 6 -73 88 0
1 -63 29 -20 -81 44 9 -2 -61 5 27 0
1 63 47 55 -17 26 43 -38 41 -68 0
1 -63 29 20 14 -85 -13 -87 2 0
1 -63 29 -20 -81 -44 -75 33 85 0
1 -63 -29 10 -67 82 -33 0
-1 65 75 -36 9 -19 -81 11 -48 -39 0
-1 -65 -53 21 -7 56 9 -19 -8 6 76 -32 0
1 63 -47 56 -36 49 -84 -2 52 -80 0
1 63 -47 56 36 43 -27 -16 -26 7 0
1 63 47 55 -17 26 -43 -89 -88 65 -58 -60 0
1 63 -47 56 36 43 27 -54 41 0
-1 65 -75 -90 -62 78 5 14 -50 22 0
-1 65 -75 -90 -62 -78 6 3 0
1 -63 29 -20 81 -22 -87 -17 0
-1 65 -75 90 -48 -37 -81 74 30 -40 15 -17 0
1 -63 -29 10 67 33 -71 39 0
1 63 47 55 -17 -26 -65 36 0
1 63 47 55 -17 -26 65 -16 0
-1 65 75 36 71 -57 -32 -55 -12 41 -25 38 0
1 63 47 55 -17 -26 65 16 -13 0
1 -63 29 20 14 85 82 18 54 -89 0
1 63 -47 56 -36 -49 13 0
1 -63 29 -20 -81 44 9 2 59 -68 -57 0
-1 65 75 -36 -9 -22 -61 15 -2 26 62 -71 31 0
-1 65 75 36 71 -57 -32 55 17 21 79 0
1 63 47 -55 -8 -90 91 25 -50 -12 0
-1 65 75 36 71 57 -43 -22 -89 -58 59 0
1 63 -47 56 36 43 -27 -16 -26 -7 0
-1 -65 53 -90 81 -51 -86 -14 -23 -32 0
-1 65 75 -36 9 19 -39 -90 60 0
-1 65 75 36 -71 -38 70 -15 43 3 -44 0
-1 65 -75 -90 62 27 12 -37 77 -10 0
-1 65 75 -36 -9 22 71 13 -15 59 0
1 -63 29 -20 81 22 -10 -85 -4 0
-1 65 75 -36 -9 -22 61 0
1 -63 -29 10 67 33 71 57 -62 0
-1 65 75 36 -71 38 3 39 -34 0
1 63 47 55 17 13 68 43 0
-1 65 75 36 71 -57 -32 -55 -12 41 25 43 0
-1 -65 -53 21 7 25 -5 78 -80 28 56 0
1 63 -47 56 36 43 27 54 31 73 -16 25 0
-1 -65 53 -90 -81 -68 21 72 -75 78 24 0
1 63 47 -55 -8 -90 -91 -28 -76 0
-1 -65 53 -90 81 -51 86 6 59 12 17 0
1 -63 29 20 14 85 82 18 54 89 -55 -24 0
1 -63 29 20 -14 30 -73 36 -42 -45 26 0
1 -63 -29 -10 -61 46 35 39 0
-1 -65 53 -90 -81 68 -61 -57 -36 -39 0
1 -63 -29 -10 61 -44 -4 -45 -9 0
-1 65 75 -36 -9 -22 -61 -15 84 0
1 63 -47 56 36 -43 -45 77 88 0
-1 -65 53 90 -56 -72 23 -32 0
-1 65 -75 -90 -62 78 5 -14 -46 28 0
-1 -65 -53 21 -7 56 9 -19 8 0
-1 -65 53 -90 81 51 50 82 0
-1 -65 -53 21 7 25 -5 78 80 30 0
-1 -65 53 -90 81 -51 86 -6 78 0
1 -63 29 -20 -81 -44 -75 -33 0
1 -63 29 20 -14 -30 -57 77 -78 -75 0
1 63 47 55 -17 26 43 38 -80 -77 -67 -42 -62 0
1 63 47 55 17 13 -68 20 -42 -73 0
-1 -65 53 -90 -81 68 -61 57 4 31 67 -55 84 44 0
-1 -65 53 90 -56 -72 23 32 -75 0
-1 65 -75 -90 -62 78 -5 0
-1 -65 53 -90 -81 68 61 -55 30 86 -29 45 13 0
-1 65 -75 -90 -62 78 5 14 -50 -22 -12 0
1 63 47 55 -17 26 -43 -89 -88 -65 44 0
1 63 -47 -56 -4 -17 51 -11 0
-1 -65 -53 -21 55 -74 50 -57 82 0
-1 -65 53 -90 81 -51 86 6 -59 -74 -12 -67 0
-1 65 -75 90 -48 -37 -81 -74 -30 0
-1 -65 -53 -21 55 74 5 -70 -59 0
-1 65 75 36 71 -57 -32 -55 12 -8 -48 -88 -40 0
-1 65 -75 -90 -62 -78 -6 -41 37 28 86 0
1 -63 29 -20 -81 44 9 -2 61 54 0
1 63 -47 56 36 -43 -45 -77 0
1 63 -47 56 36 43 -27 16 -35 0
1 63 -47 56 -36 49 84 -78 -14 -81 0
-1 65 75 36 71 -57 32 -51 0
-1 -65 -53 21 7 25 5 27 -49 22 0
1 63 -47 56 36 -43 -45 77 -88 0
-1 65 -75 -90 62 -27 -56 -69 -3 -70 67 0
-1 65 75 36 -71 38 -3 -4 -83 0
-1 65 75 36 -71 -38 -70 60 64 -58 0
-1 -65 53 90 56 48 85 24 0
-1 -65 -53 21 7 25 5 27 49 0
1 -63 -29 10 67 -33 -56 73 -14 21 82 0
-1 65 -75 90 48 -2 0
1 -63 29 -20 -81 44 9 -2 61 -54 0
1 -63 29 20 14 -85 -13 87 -86 -49 -41 19 0
1 -63 29 -20 -81 44 -9 61 -23 26 47 -68 0
-1 -65 53 -90 81 51 -50 0
-1 65 75 36 71 57 43 85 0
1 63 -47 56 -36 49 84 -78 14 0
1 -63 29 20 14 85 82 18 -54 36 50 0
-1 -65 53 -90 81 -51 86 6 -59 74 0
-1 -65 -53 21 -7 56 9 19 43 -39 85 0
1 -63 29 20 14 85 -82 72 27 -67 30 -55 0
1 -63 29 20 -14 30 -73 36 42 0
-1 -65 -53 21 7 25 -5 78 -80 28 -56 -4 0
-1 -65 53 -90 -81 -68 -21 61 -5 6 -59 0
1 -63 29 20 14 85 -82 72 27 -67 -30 -64 0
-1 -65 -53 21 -7 56 9 -19 -8 6 76 32 13 -31 0
1 63 -47 56 -36 -49 -13 -7 0
-1 65 -75 -90 62 27 -12 52 -89 13 0
1 -63 29 20 14 -85 -13 87 86 -10 0
-1 65 75 36 71 -57 -32 55 -17 -54 0
-1 65 -75 90 -48 -37 -81 74 30 -40 15 17 42 0
-1 65 75 36 71 -57 -32 -55 -12 -41 0
1 -63 -29 10 67 -33 56 -84 -49 0
-1 65 75 36 -71 -38 -70 60 64 58 0
1 -63 -29 10 67 -33 -56 73 -14 -21 -55 0
-1 65 75 36 71 -57 -32 -55 12 -8 -48 88 23 0
-1 65 75 36 71 57 -43 22 0
-1 65 -75 -90 62 -27 -56 69 -7 0
-1 65 -75 90 -48 37 20 81 -30 0
1 -63 29 20 -14 30 73 -60 -57 19 62 0
1 -63 29 20 14 85 82 -18 86 31 0
-1 65 75 -36 9 19 39 26 0
-1 65 75 -36 -9 -22 -61 -15 -84 0
1 -63 29 -20 -81 -44 75 40 0
1 63 47 55 -17 26 -43 -89 -88 65 58 34 -24 38 0
-1 65 75 -36 9 -19 81 87 0
-1 65 -75 90 -48 -37 -81 74 -30 0
-1 -65 53 -90 -81 -68 -21 61 -5 -6 -49 -11 0
-1 65 75 -36 9 -19 -81 11 -48 39 0
1 63 47 55 17 -13 -58 73 56 -38 61 88 0
-1 65 75 -36 -9 22 71 -13 -52 45 -34 -11 0
-1 -65 53 -90 -81 68 61 -55 30 86 -29 -45 0
-1 65 -75 -90 62 27 12 37 0
1 63 -47 56 36 43 27 54 31 73 16 0
1 -63 29 20 14 -85 13 -57 0
1 -63 -29 10 67 33 71 -57 44 66 0
-1 -65 53 -90 -81 68 61 55 -14 17 0
-1 -65 -53 21 -7 56 -9 -79 -44 15 30 0
-1 -65 -53 21 -7 56 9 -19 -8 6 76 32 -13 0
-1 65 75 36 71 -57 32 51 -15 3 0
1 -63 -29 -10 61 -44 4 46 -27 0
1 -63 -29 10 67 -33 -56 73 -14 -21 55 -6 0
-1 -65 -53 21 -7 56 -9 79 30 0
-1 65 75 36 71 57 -43 -22 -89 58 0
1 -63 29 -20 -81 44 -9 61 -23 26 -47 0
1 63 47 55 -17 26 43 38 -80 77 -6 -44 -87 88 75 0
1 63 47 55 17 -13 -58 73 -56 0
1 63 47 55 17 -13 -58 73 56 -38 61 -88 -83 0
-1 65 -75 -90 -62 78 5 14 50 70 0
1 -63 29 20 -14 -30 57 -45 -36 0
1 63 -47 56 36 43 -27 16 35 0
-1 -65 -53 21 -7 56 -9 -79 -44 -15 -48 0
-1 65 -75 -90 -62 -78 -6 -41 37 -28 40 14 -53 0
1 -63 -29 10 67 -33 56 -84 49 0
-1 -65 -53 -21 55 -74 50 57 0
-1 65 75 36 -71 38 3 -39 0
-1 -65 -53 21 -7 -56 -25 -67 14 -38 0
1 -63 29 -20 -81 44 9 2 59 -68 57 0
1 63 47 55 17 13 -68 20 42 43 -40 0
-1 65 75 -36 -9 22 71 -13 -52 45 -34 11 -53 -29 0
1 -63 29 -20 -81 44 -9 61 -23 -26 55 0
-1 -65 53 90 56 -48 0
-1 65 -75 -90 -62 -78 -6 -41 37 28 -86 26 0
1 -63 29 20 -14 30 -73 36 -42 -45 -26 0
-1 -65 53 -90 81 51 50 -82 0
1 -63 29 -20 81 22 10 76 0
-1 65 75 -36 -9 -22 -61 15 -2 26 -62 -56 -74 0
1 -63 29 -20 -81 44 -9 -61 -7 0
-1 -65 53 -90 -81 -68 -21 -61 -31 0
1 63 47 55 -17 -26 65 16 13 -38 0
1 -63 29 20 14 85 -82 72 27 67 77 42 18 0
1 63 47 -55 -8 -90 91 -25 0
1 63 47 55 17 -13 58 16 -31 -46 43 0
1 -63 -29 10 67 33 -71 -39 65 27 0
1 63 47 -55 8 51 7 -13 0
-1 -65 -53 21 7 25 -5 -78 11 -88 0
-1 65 -75 -90 -62 -78 6 -3 -2 -70 -66 0
1 63 47 -55 -8 -90 -91 28 -88 0
-1 65 75 -36 -9 -22 -61 15 -2 26 62 71 -50 0
-1 65 -75 -90 62 -27 56 -30 -53 -64 0
-1 -65 53 -90 -81 68 -61 -57 -36 39 0
-1 65 75 36 71 -57 -32 -55 12 8 26 -53 0
1 -63 -29 -10 61 -44 -4 45 -56 0
-1 65 75 -36 -9 -22 -61 15 -2 26 -62 -56 74 0
-1 -65 -53 21 7 25 5 -27 -45 55 0
1 -63 29 20 14 -85 -13 87 -86 -49 -41 -19 0
-1 -65 53 -90 81 -51 -86 -14 -23 32 0
-1 65 75 -36 -9 -22 -61 15 -2 26 62 -71 -31 0
-1 65 -75 -90 -62 78 5 14 50 -70 0
-1 -65 53 -90 -81 68 61 55 14 78 0
-1 65 -75 -90 62 -27 -56 69 7 10 0
-1 -65 53 -90 -81 -68 -21 61 -5 -6 49 87 0
1 -63 -29 -10 61 -44 -4 45 56 0
1 -63 -29 10 67 -33 -56 73 -14 21 -82 0
1 -63 29 20 14 85 -82 72 27 -67 30 55 2 0
1 -63 29 20 14 85 -82 72 -27 3 0
1 63 47 55 17 -13 -58 -73 -4 0
1 63 -47 56 36 -43 45 90 70 66 0
1 -63 29 20 14 85 -82 -72 73 0
-1 65 -75 90 -48 -37 -81 -74 30 0
1 -63 29 20 -14 30 73 -60 -57 -19 0
-1 65 -75 90 -48 37 20 -81 0
-1 65 -75 -90 62 -27 -56 69 7 -10 -31 0
1 -63 29 20 14 85 -82 -72 -73 -76 0
-1 65 75 36 71 -57 -32 -55 -12 41 -25 -38 0
-1 -65 -53 21 7 25 -5 78 80 -30 -2 0
1 63 -47 56 -36 -49 -13 7 -66 0
-1 -65 53 -90 81 -51 86 6 -59 -74 12 0
-1 -65 -53 21 -7 56 -9 -79 -44 15 -30 0
-1 65 -75 90 -48 -37 81 68 63 0
-1 65 75 36 -71 38 -3 4 -19 0
1 63 47 55 17 13 -68 -20 33 31 -6 0
1 63 47 55 -17 26 -43 89 -25 0
-1 -65 -53 21 -7 56 -9 79 -30 0
-1 65 75 36 71 57 -43 -22 89 0
1 63 -47 56 -36 49 -84 -2 -52 0
-1 65 -75 90 -48 -37 81 68 -63 0
-1 65 -75 90 -48 -37 -81 74 30 40 0
1 63 47 55 17 -13 58 16 -31 46 0
-1 65 75 36 -71 -38 70 -15 43 3 44 -37 0
1 -63 -29 10 67 -33 -56 -73 -58 -83 0
1 -63 29 -20 -81 44 -9 -61 7 80 0
-1 -65 53 90 56 48 85 -24 0
1 63 47 55 17 13 68 -43 46 0
-1 -65 -53 21 7 25 -5 78 80 -30 2 0
-1 -65 53 -90 -81 -68 21 -72 0
1 -63 29 -20 -81 44 -9 61 23 69 0
1 -63 29 20 -14 -30 57 -45 36 21 0
1 63 47 55 -17 26 43 38 -80 77 -6 -44 -87 88 -75 0
-1 -65 -53 21 7 25 -5 -78 -11 0
-1 -65 -53 21 -7 56 9 -19 -8 6 -76 5 0
-1 65 -75 90 -48 37 -20 0
1 63 47 55 -17 26 -43 -89 -88 -65 -44 38 0
-1 -65 53 -90 -81 -68 -21 61 5 -85 84 0
-1 -65 53 -90 -81 68 -61 57 4 -31 6 0
1 -63 29 20 -14 -30 57 -45 36 -21 75 6 0
-1 -65 53 -90 -81 68 61 -55 30 86 29 43 0
-1 -65 53 -90 -81 -68 21 72 -75 -78 41 0
-1 65 -75 -90 62 -27 56 -30 -53 64 43 0
-1 -65 53 -90 81 -51 -86 -14 23 0
-1 65 -75 -90 -62 -78 -6 -41 37 -28 40 14 53 0
1 -63 -29 -10 61 -44 -4 -45 9 0
1 63 47 55 -17 26 -43 -89 -88 65 58 -34 15 0
-1 65 -75 -90 -62 -78 -6 41 -28 -64 0
1 -63 -29 10 67 -33 -56 -73 -58 83 0
1 63 -47 -56 4 0
-1 65 75 -36 9 19 39 -26 0
-1 -65 -53 21 7 25 5 27 -49 -22 0
1 -63 29 20 14 85 82 18 -54 -36 71 0
-1 65 75 36 71 -57 32 51 15 0
-1 -65 -53 21 -7 56 9 19 43 39 69 0
1 -63 29 -20 -81 44 9 2 -59 0
1 -63 29 20 -14 -30 -57 77 78 0
-1 -65 53 -90 -81 -68 21 72 75 -18 54 0
1 -63 29 20 14 85 -82 72 27 67 -77 0
1 63 47 55 -17 26 -43 -89 -88 65 58 34 24 -90 0
-1 65 -75 90 -48 -37 -81 74 30 -40 15 17 -42 0
-1 65 -75 -90 62 -27 -56 -69 3 0
-1 65 -75 90 -48 37 20 81 30 0
-1 -65 53 -90 -81 -68 -21 -61 31 22 64 0
1 63 47 55 -17 26 -43 89 25 68 0
-1 -65 53 -90 -81 68 61 -55 -30 -69 0
-1 -65 53 -90 -81 68 61 55 -14 -17 0
1 63 47 -55 -8 -90 91 25 50 0
-1 65 -75 -90 -62 -78 -6 -41 37 -28 40 -14 0
1 63 47 55 -17 26 -43 -89 -88 65 -58 60 0
1 -63 -29 10 67 33 -71 -39 -65 0
1 -63 29 20 14 85 -82 72 -27 -3 0
-1 65 -75 -90 -62 -78 6 -3 -2 70 0
1 -63 29 20 14 -85 13 57 4 -78 0
1 63 -47 56 -36 49 84 -78 -14 81 45 0
1 63 -47 56 36 43 27 54 -31 0
-1 -65 -53 21 -7 56 9 19 43 39 -69 -31 0
-1 -65 -53 21 -7 -56 25 76 70 44 0
-1 -65 -53 21 -7 56 -9 -79 44 0
-1 65 -75 -90 -62 -78 6 -3 2 0
-1 -65 53 -90 -81 68 -61 -57 36 7 0
-1 65 -75 -90 -62 -78 -6 -41 37 28 -86 -26 0
1 -63 29 -20 81 22 -10 -85 4 0
1 63 47 -55 -8 -90 -91 -28 76 0
-1 -65 -53 21 7 -25 12 0
-1 65 75 36 -71 38 -3 4 19 50 0
1 63 47 55 -17 26 -43 -89 88 0
-1 -65 53 90 56 48 -85 0
-1 65 -75 -90 -62 -78 -6 -41 -37 -64 -80 0
1 -63 -29 10 67 33 71 57 62 74 -4 0
1 -63 29 20 14 85 -82 72 27 67 77 -42 0
-1 65 -75 90 -48 -37 -81 74 30 -40 -15 0
-1 65 75 -36 9 -19 81 -87 0
1 63 47 55 -17 26 43 38 -80 -77 -67 42 0
-1 -65 -53 21 -7 -56 -25 67 0
-1 65 75 36 71 57 -43 -22 -89 -58 -59 0
1 -63 29 -20 -81 44 9 -2 -61 -5 -60 45 0
1 -63 29 20 -14 -30 57 45 -83 0
1 63 47 55 17 13 -68 20 42 -43 0
-1 65 75 -36 -9 22 71 13 -15 -59 0
-1 -65 -53 21 -7 56 -9 -79 -44 -15 48 0
-1 -65 -53 21 -7 -56 25 -76 0
1 63 -47 -56 -4 -17 51 11 0
1 -63 29 -20 -81 44 9 2 59 68 0
1 -63 29 -20 -81 -44 75 -40 0
-1 65 -75 -90 -62 -78 -6 -41 37 -28 -40 -68 -22 0
1 63 -47 56 36 43 -27 -16 26 0
1 63 -47 56 -36 49 -84 -2 52 80 0
1 63 47 55 -17 26 43 38 80 0
-1 65 75 36 -71 -38 70 -15 43 -3 0
1 63 -47 56 -36 49 84 78 -35 -59 0
1 -63 29 -20 -81 44 9 -2 -61 -5 60 0
1 -63 29 20 14 -85 -13 87 -86 49 0
-1 65 75 36 -71 38 -3 -4 83 0
-1 65 75 -36 -9 22 71 -13 -52 45 -34 11 53 0
1 63 47 55 -17 26 43 38 -80 77 -6 -44 87 0
-1 65 -75 90 -48 -37 81 -68 0
1 -63 -29 10 67 33 71 -57 -44 0
-1 65 -75 -90 62 27 12 -37 -77 -83 -54 0
1 63 47 55 17 -13 58 16 31 0
-1 -65 53 -90 81 -51 86 6 -59 -74 -12 67 0
-1 65 -75 90 48 2 0
1 63 47 55 -17 26 -43 -89 -88 65 58 -34 -15 -20 0
1 63 -47 -56 -4 17 0
1 63 47 55 17 13 68 -43 -46 -56 0
-1 65 75 36 71 -57 -32 -55 12 8 -26 0
1 -63 29 20 14 -85 -13 87 -86 -49 41 3 0
-1 -65 -53 -21 -55 61 0
1 63 47 55 17 -13 58 -16 -4 34 0
-1 65 75 36 -71 -38 70 15 0
1 -63 29 20 14 85 82 -18 86 -31 47 0
1 -63 -29 10 67 -33 -56 73 14 0
-1 -65 53 -90 -81 68 -61 -57 36 -7 29 0
1 -63 29 20 14 -85 -13 -87 -2 -48 0
-1 -65 53 -90 -81 -68 -21 61 5 -85 -84 0
-1 65 -75 -90 62 27 12 -37 -77 83 0
1 -63 29 20 14 85 82 18 54 89 -55 24 0
1 -63 29 20 14 85 82 18 54 89 55 -6 0
1 63 47 55 17 13 68 -43 -46 56 0
-1 65 75 -36 -9 22 71 13 15 0
-1 65 75 36 -71 -38 -70 60 -64 -46 0
-1 65 75 -36 -9 22 71 -13 52 41 0
-1 65 75 36 -71 -38 70 -15 43 3 44 37 0
-1 65 -75 -90 62 27 -12 52 89 91 0
-1 65 75 -36 -9 -22 -61 15 2 0
-1 -65 53 -90 81 -51 -86 14 -23 0
-1 -65 53 -90 -81 68 -61 57 4 31 67 55 0
1 63 47 55 -17 26 43 38 -80 77 -6 -44 -87 -88 0
1 -63 -29 10 67 33 71 57 62 74 4 0
-1 -65 -53 21 -7 -56 25 76 -70 0
1 -63 29 20 -14 30 73 -60 57 0
-1 -65 -53 21 7 25 -5 -78 11 88 0
1 -63 29 20 -14 30 -73 -36 0
-1 65 75 -36 -9 22 71 -13 -52 45 34 61 0
1 63 47 -55 -8 -90 -91 28 88 0
-1 65 -75 -90 62 27 12 -37 -77 -83 54 -11 0
1 -63 -29 10 -67 82 33 -27 0
1 63 -47 56 36 43 27 54 31 -73 0
-1 -65 -53 21 -7 56 9 -19 -8 -6 -37 0
1 63 47 55 -17 26 43 38 -80 -77 -67 -42 62 0
-1 -65 53 -90 -81 -68 -21 61 -5 -6 49 -87 0
-1 65 75 36 -71 -38 -70 -60 40 0
-1 -65 -53 21 7 25 -5 78 -80 28 -56 4 0
-1 -65 53 -90 -81 -68 -21 -61 31 -22 72 0
1 -63 -29 10 67 -33 -56 -73 58 0
-1 -65 -53 21 7 -25 -12 0
1 -63 -29 -10 61 -44 4 46 27 0
-1 -65 53 -90 -81 -68 -21 61 -5 -6 -49 11 0
-1 65 75 36 71 -57 -32 55 17 -21 -14 0
-1 -65 53 -90 81 -51 86 6 59 12 -17 0
1 -63 29 -20 -81 44 -9 -61 7 -80 0
-1 -65 -53 -21 55 -74 -50 0
-1 -65 53 -90 -81 -68 -21 -61 31 -22 -72 0
1 -63 29 -20 81 -22 87 16 0
1 63 47 55 17 13 -68 -20 -33 0
1 63 -47 56 -36 49 -84 2 0
1 -63 29 20 14 85 82 18 -54 36 -50 0
-1 65 -75 -90 -62 -78 -6 -41 37 -28 -40 68 0
1 63 47 55 -17 26 43 -38 41 68 0
-1 -65 -53 -21 55 74 -5 82 0
1 -63 -29 -10 -61 -46 -42 0
1 -63 29 20 -14 30 73 60 -23 0
1 -63 -29 -10 61 -44 4 -46 0
-1 -65 -53 21 -7 -56 -25 -67 -14 0
-1 -65 -53 -21 55 -74 50 -57 -82 0
1 63 47 55 17 -13 -58 73 56 -38 61 -88 83 0
1 -63 -29 -10 61 44 0
1 63 47 -55 8 -51 34 0
1 63 47 55 -17 26 43 38 -80 -77 67 0
1 63 47 55 17 13 -68 20 -42 73 0
1 -63 29 -20 81 -22 -87 17 57 -14 7 0
-1 -65 53 -90 -81 -68 21 72 -75 78 -24 0
1 -63 29 -20 -81 -44 -75 33 -85 0
-1 65 75 -36 -9 22 71 -13 -52 45 34 -61 0
1 -63 29 -20 81 -22 87 -16 0
-1 -65 53 -90 -81 68 -61 57 -4 -20 0
-1 -65 -53 21 -7 -56 25 76 70 -44 0
-1 65 75 -36 9 -19 -81 11 48 0
1 63 47 55 17 -13 -58 73 56 -38 -61 0
-1 65 75 -36 9 19 -39 -90 -60 0
1 -63 -29 10 67 -33 56 84 0
-1 65 75 -36 -9 22 71 -13 -52 45 -34 11 -53 29 0
1 -63 29 -20 81 -22 -87 17 57 -14 -7 0
-1 -65 53 -90 -81 68 -61 57 4 31 67 -55 -84 0
1 63 47 55 -17 26 -43 -89 -88 65 58 34 -24 -38 -25 0
-1 -65 53 -90 -81 -68 -21 61 5 85 0
1 63 47 55 17 -13 58 16 -31 -46 -43 0
1 63 47 55 -17 26 43 38 -80 77 -6 44 0
-1 -65 53 -90 81 -51 86 -6 -78 0
1 63 47 -55 -8 90 0
-1 65 75 36 -71 38 3 39 34 0
1 -63 29 -20 -81 44 9 -2 -61 5 -27 0
-1 65 -75 -90 62 27 -12 -52 0
-1 65 75 36 71 -57 32 51 -15 -3 0
-1 65 75 -36 -9 -22 -61 15 -2 26 -62 56 0
1 -63 29 20 14 85 -82 72 27 -67 -30 64 0
1 63 -47 56 -36 49 84 78 -35 59 28 0
1 -63 29 20 14 85 82 -18 -86 0
-1 65 75 -36 -9 22 71 -13 -52 -45 0
1 -63 -29 -10 -61 -46 42 0
1 63 47 -55 8 51 7 13 0
1 -63 -29 10 67 33 71 -57 44 -66 0
1 -63 -29 10 67 -33 -56 73 -14 -21 55 6 0
1 63 47 55 -17 -26 -65 -36 -39 0
1 63 47 55 -17 26 -43 -89 -88 -65 -44 -38 0
-1 -65 -53 -21 55 74 5 -70 59 0
-1 65 -75 -90 62 27 -12 52 89 -91 0
-1 -65 53 -90 -81 68 61 -55 30 86 -29 45 -13 0
-1 65 75 36 -71 -38 -70 60 -64 46 0
1 -63 29 20 14 -85 -13 87 86 10 0
-1 65 75 -36 -9 22 -71 0
-1 65 75 36 71 57 43 -85 80 0
1 63 47 55 17 -13 -58 -73 4 0
1 63 47 55 17 -13 58 -16 4 0
1 -63 29 20 14 85 -82 -72 -73 76 0
-1 65 -75 -90 -62 -78 -6 41 28 0
1 63 47 55 -17 26 -43 -89 -88 65 58 34 24 90 0
1 63 47 55 -17 26 43 38 -80 77 6 -73 -88 0
-1 -65 -53 21 -7 56 9 -19 -8 -6 37 0
1 -63 29 -20 -81 44 -9 61 -23 26 47 68 0
1 -63 29 20 14 -85 -13 -87 -2 48 0
-1 65 75 36 71 -57 -32 -55 12 8 26 53 0
-1 -65 53 -90 -81 -68 21 72 75 -18 -54 0
1 -63 29 20 -14 30 73 -60 -57 19 -62 0
-1 65 -75 -90 62 -27 -56 -69 -3 -70 -67 0
-1 -65 53 -90 -81 -68 -21 61 -5 6 59 0
1 63 -47 56 36 43 27 -54 -41 0
-1 -65 -53 -21 55 74 -5 -82 0
1 -63 29 -20 81 -22 -87 17 57 14 0
1 63 -47 56 36 -43 45 90 -70 0
-1 65 75 36 71 -57 -32 -55 -12 41 25 -43 0
1 -63 29 -20 -81 44 -9 61 -23 -26 -55 0
-1 -65 -53 21 -7 56 9 19 43 -39 -85 0
-1 65 -75 -90 62 27 -12 52 -89 -13 0
1 63 -47 56 36 43 27 54 31 73 -16 -25 0
-1 -65 53 -90 -81 68 61 -55 30 86 29 -43 0
1 63 -47 56 36 -43 45 90 70 -66 0
-1 65 -75 -90 62 -27 56 -30 -53 64 -43 0
1 -63 -29 10 67 33 71 57 62 -74 0
-1 -65 -53 21 -7 56 9 -19 -8 6 -76 -5 0
1 63 -47 56 -36 49 84 -78 -14 81 -45 0
-1 65 -75 -90 62 -27 56 -30 53 0
-1 -65 53 -90 81 -51 -86 14 23 0
-1 -65 53 90 -56 -72 -23 0
-1 -65 53 -90 -81 68 61 -55 30 -86 66 0
1 63 47 55 17 13 -68 -20 33 31 6 0
1 -63 29 20 -14 -30 -57 -77 0
-1 65 -75 -90 62 -27 -56 -69 -3 70 0
-1 -65 -53 21 7 25 5 -27 -45 -55 0
-1 -65 53 90 -56 72 -28 0
1 -63 29 -20 -81 44 9 -2 -61 -5 -60 -45 0
1 -63 29 20 14 85 82 -18 86 -31 -47 0
-1 65 75 36 71 -57 -32 55 17 -21 14 0
1 -63 29 20 -14 -30 57 45 83 0
-1 -65 53 -90 -81 -68 21 72 -75 -78 -41 0
-1 65 -75 -90 62 -27 56 30 0
-1 65 75 36 71 -57 -32 -55 12 -8 48 0
-1 65 -75 -90 -62 -78 6 -3 -2 -70 66 0
-1 -65 53 -90 -81 68 -61 -57 36 -7 -29 0
-1 65 75 36 -71 -38 -70 -60 -40 0
1 63 -47 56 -36 49 84 78 -35 59 -28 0
1 63 -47 56 36 -43 45 -90 0
-1 65 75 36 71 -57 -32 55 17 21 -79 72 0
-1 -65 53 -90 -81 -68 21 72 75 18 0
1 -63 29 -20 81 22 -10 85 0
1 63 47 55 -17 26 -43 89 25 -68 0
1 -63 29 20 -14 30 73 60 23 0
1 -63 29 20 -14 -30 57 -45 36 -21 -75 0
-1 65 75 36 71 -57 -32 55 17 21 -79 -72 0
-1 -65 53 -90 -81 68 61 -55 -30 69 0
-1 65 75 36 71 -57 -32 55 -17 54 0
1 63 -47 -56 -4 -17 -51 0
-1 65 75 36 71 -57 -32 -55 12 -8 -48 -88 40 0
-1 -65 -53 21 -7 56 9 19 43 39 -69 31 12 0
1 -63 -29 -10 -61 46 35 -39 0
1 63 47 55 -17 26 43 38 -80 77 6 73 0
-1 65 75 -36 -9 -22 -61 15 -2 26 62 71 50 0
-1 -65 -53 -21 55 74 5 70 0
1 63 47 -55 8 51 -7 0
1 -63 29 20 14 -85 13 57 4 78 0
-1 -65 -53 21 -7 56 9 19 -43 0
1 63 47 55 -17 26 -43 -89 -88 65 58 -34 -15 20 0
-1 65 -75 -90 62 -27 -56 69 7 -10 31 61 0
1 -63 29 -20 81 22 10 -76 0
-1 65 75 36 -71 38 -3 4 19 -50 0
-1 -65 53 -90 -81 68 61 55 14 -78 0
-1 -65 -53 21 7 25 -5 78 -80 -28 0
1 63 47 55 -17 26 43 -38 -41 0
1 63 -47 56 -36 -49 -13 7 66 0
-1 -65 -53 -21 -55 -61 0
1 -63 -29 10 -67 82 33 27 0
-1 65 -75 -90 -62 -78 -6 -41 37 -28 -40 -68 22 0
-1 65 75 -36 9 -19 -81 -11 0
