c NeuroCodeBench 2.0 CNF formula with verdict Unsat
p cnf 81 424
1 -34 -66 -72 -42 18 36 -12 62 -32 -41 -26 -8 0
-1 59 11 -14 -23 -80 -44 -73 -54 60 49 68 0
1 -34 -66 72 62 -63 13 -43 -21 0
-1 59 11 14 -77 22 -25 -24 -56 -68 -54 66 0
1 -34 -66 72 -62 42 81 5 50 -74 -36 0
-1 -59 35 -31 -11 -26 0
1 -34 -66 72 -62 42 81 -5 -78 -65 39 0
-1 -59 -35 -65 20 -16 31 64 -57 10 -9 30 55 0
-1 -59 -35 65 -69 -40 -14 26 -50 32 -67 0
1 -34 -66 -72 42 25 13 29 58 75 78 -55 18 0
-1 -59 -35 -65 20 16 67 66 -14 -30 0
-1 59 -11 2 17 -69 53 -70 -29 0
1 34 -3 -54 35 -25 -56 -51 -38 0
1 -34 -66 -72 42 -25 81 -13 36 0
1 34 3 -50 57 -23 4 0
1 34 -3 54 -63 -12 -66 -79 0
1 -34 -66 -72 42 -25 -81 -55 19 -71 0
1 -34 -66 -72 42 25 -13 11 16 0
1 34 -3 -54 35 25 -36 13 0
1 34 3 50 27 -70 -11 -58 0
-1 59 11 14 -77 22 -25 -24 56 -39 0
-1 -59 -35 65 -69 -40 -14 26 50 -12 0
1 34 -3 -54 35 -25 56 0
1 -34 -66 -72 42 25 13 29 -58 77 0
-1 59 -11 2 17 69 -9 -62 24 -46 50 3 76 35 0
-1 59 11 -14 23 -7 -22 52 45 -77 -37 -44 -21 78 0
-1 59 -11 2 17 69 9 0
-1 59 11 14 77 21 -55 46 -50 0
1 -34 -66 -72 -42 18 36 -12 -62 7 0
1 -34 -66 -72 -42 18 -36 -41 -28 50 62 0
1 -34 -66 -72 42 25 -13 11 -16 0
-1 -59 35 31 36 42 -50 0
1 -34 -66 -72 42 25 13 -29 -47 -16 -60 -61 10 0
-1 -59 35 31 -36 -54 -28 69 -73 0
-1 -59 -35 65 -69 -40 -14 26 -50 32 67 0
-1 -59 -35 65 69 63 80 -43 -68 0
1 -34 -66 72 -62 42 81 -5 78 76 0
-1 59 -11 2 17 69 -9 -62 24 -46 -50 -47 41 0
-1 59 -11 2 17 69 -9 62 16 -39 0
-1 59 -11 -2 54 53 -76 0
-1 59 11 -14 -23 -80 -44 73 30 0
-1 59 11 -14 23 -7 22 58 -20 63 -25 0
1 -34 66 -38 -60 19 -67 -48 47 0
-1 59 -11 2 17 69 -9 -62 -24 14 56 -25 21 -44 0
1 -34 -66 -72 42 25 13 29 58 75 78 55 0
1 34 3 50 27 -70 -11 58 0
-1 59 -11 -2 -54 -10 -8 24 63 14 0
-1 59 11 -14 23 -7 22 -58 2 -3 0
1 -34 66 38 8 64 -73 -5 67 -40 0
-1 -59 -35 -65 20 16 67 66 14 -56 -22 0
1 34 3 50 -27 -28 39 0
1 -34 66 -38 60 35 -56 0
1 -34 66 -38 60 -35 54 -25 -15 47 -78 3 0
-1 59 -11 2 17 -69 53 70 80 0
-1 -59 -35 -65 20 -16 31 64 57 -41 0
-1 59 -11 -2 -54 10 22 66 -12 -60 -65 0
-1 59 11 -14 23 -7 22 58 20 -4 0
-1 59 -11 2 17 69 -9 -62 24 -46 -50 47 70 0
-1 59 11 14 -77 22 -25 -24 -56 68 19 -76 66 0
-1 59 11 14 -77 22 -25 -24 -56 -68 -54 -66 0
1 -34 66 38 -8 -23 -3 10 0
-1 -59 -35 65 -69 -40 14 47 4 -67 -16 -6 0
-1 59 -11 -2 -54 -10 8 24 68 -49 81 0
-1 59 11 14 -77 22 -25 -24 -56 68 -19 0
-1 59 -11 -2 -54 10 22 66 -12 -60 65 0
-1 59 11 -14 23 7 -66 0
-1 -59 -35 65 69 63 80 -43 68 16 0
-1 59 11 -14 23 -7 -22 52 45 77 -24 0
1 -34 66 -38 60 -35 54 -25 -15 -47 -39 0
-1 59 -11 2 17 69 -9 62 -16 -6 4 -50 0
1 -34 66 -38 60 35 56 10 0
-1 59 -11 2 17 69 -9 -62 -24 -14 -3 0
1 -34 66 -38 60 -35 -54 24 74 -64 0
-1 -59 -35 65 -69 -40 14 47 4 67 -49 0
-1 -59 -35 -65 -20 46 -8 0
-1 59 -11 -2 -54 10 22 -66 63 6 47 0
-1 59 -11 2 17 69 -9 62 -16 -6 -4 -49 0
-1 59 -11 -2 -54 -10 -8 24 63 -14 0
-1 59 -11 2 17 69 -9 -62 24 -46 -50 47 -70 0
-1 59 -11 -2 -54 -10 -8 -24 -81 26 -53 56 0
-1 59 -11 2 17 -69 -53 23 -66 0
-1 59 -11 -2 -54 10 22 -66 -63 -3 0
-1 59 -11 2 17 69 -9 -62 24 46 3 0
-1 59 11 -14 -23 80 38 57 -55 -46 45 0
-1 -59 35 31 -36 54 11 55 -61 0
1 34 -3 -54 35 -25 -56 51 72 50 0
-1 59 11 -14 23 -7 -22 52 45 -77 -37 -44 21 0
-1 59 11 -14 -23 -80 -44 73 -30 18 39 0
1 -34 -66 -72 42 -25 -81 -55 -19 0
-1 -59 -35 -65 20 -16 31 64 -57 10 -9 -30 -43 0
-1 -59 -35 65 -69 40 25 46 9 0
1 -34 -66 72 -62 42 -81 27 15 0
1 -34 -66 -72 42 25 13 -29 -47 16 50 -80 0
1 -34 66 -38 60 35 56 -10 43 73 -33 0
-1 59 11 14 77 21 55 33 0
1 -34 -66 -72 -42 18 36 -12 62 32 0
-1 -59 -35 -65 20 16 67 66 -14 30 0
-1 59 -11 -2 54 -53 3 0
-1 59 11 -14 -23 80 -38 13 0
1 -34 -66 -72 -42 18 -36 41 0
-1 59 -11 2 17 69 -9 -62 -24 14 56 -25 21 44 0
-1 59 -11 2 -17 29 -14 -47 0
-1 -59 -35 -65 20 16 67 -66 52 0
1 -34 -66 -72 42 25 13 -29 -47 16 -50 -46 0
-1 59 11 -14 -23 80 38 -57 40 5 21 0
-1 59 -11 2 17 69 -9 -62 24 -46 50 3 76 -35 0
1 -34 66 38 8 64 -73 5 72 0
-1 59 -11 2 -17 29 -14 47 0
-1 59 11 -14 23 -7 22 -58 -2 -68 -46 0
-1 59 -11 -2 -54 -10 8 24 68 49 0
1 -34 66 38 8 64 -73 5 -72 0
1 -34 -66 -72 -42 18 36 -12 -62 -7 -65 0
-1 59 -11 2 -17 -29 0
1 -34 66 38 8 -64 0
1 -34 66 -38 60 -35 54 25 -41 0
1 -34 -66 -72 -42 18 36 -12 -62 -7 65 0
-1 59 -11 2 17 69 -9 62 16 39 0
-1 -59 35 -31 11 77 38 71 -3 75 0
1 -34 66 38 -8 -23 -3 -10 0
-1 -59 -35 65 -69 40 -25 74 54 50 -10 0
-1 59 -11 -2 -54 -10 -8 24 -63 0
-1 59 -11 -2 54 -53 -3 17 0
1 -34 -66 72 62 63 -35 -65 0
-1 -59 -35 -65 20 16 67 -66 -52 -81 0
1 -34 -66 -72 42 25 13 29 58 -75 0
1 -34 -66 72 -62 -42 -4 0
1 -34 66 38 8 64 -73 -5 -67 -42 0
1 -34 -66 72 62 63 -35 65 0
1 -34 66 -38 -60 19 -67 48 76 -70 0
-1 59 -11 2 17 -69 53 70 -80 0
-1 -59 -35 65 -69 40 -25 74 -54 23 0
-1 -59 35 -31 -11 26 -4 0
1 -34 -66 72 -62 42 -81 -27 0
1 34 -3 54 -63 -12 66 0
-1 59 11 -14 -23 -80 -44 -73 -54 60 -49 71 0
-1 -59 -35 65 -69 40 -25 -74 -51 0
1 34 -3 -54 35 -25 -56 -51 38 12 0
-1 59 11 -14 -23 80 38 -57 40 5 -21 0
1 -34 66 38 -8 -23 3 0
-1 -59 -35 65 -69 -40 14 47 -4 -76 0
1 -34 -66 72 -62 42 -81 27 -15 -8 -24 0
1 -34 66 -38 -60 19 67 0
1 -34 66 -38 60 -35 54 -25 -15 47 78 31 0
-1 -59 -35 65 -69 -40 -14 26 50 12 -36 0
1 -34 -66 -72 42 -25 -81 55 80 0
-1 -59 35 31 36 -42 15 0
1 -34 66 -38 60 -35 54 -25 -15 -47 39 0
-1 59 11 14 -77 22 -25 -24 56 39 68 0
-1 -59 -35 65 -69 -40 14 47 4 -67 16 -22 0
1 -34 -66 -72 42 -25 81 13 0
-1 -59 -35 -65 20 -16 31 64 57 41 0
1 -34 -66 -72 42 25 13 29 -58 -77 12 0
1 -34 -66 72 -62 42 81 5 -50 0
-1 59 11 -14 -23 -80 -44 -73 -54 60 49 -68 71 0
-1 59 -11 2 -17 29 14 -23 0
-1 -59 -35 65 -69 40 25 -46 -9 0
1 34 -3 -54 -35 76 0
-1 -59 -35 65 -69 40 25 -46 9 0
-1 -59 -35 65 69 63 80 43 26 0
1 34 3 50 -27 28 0
-1 59 11 -14 23 7 66 75 64 0
1 -34 -66 -72 42 25 13 29 58 75 -78 0
-1 59 -11 -2 54 53 76 81 0
1 -34 66 -38 -60 -19 37 -57 -51 0
-1 -59 -35 -65 20 16 -67 31 0
-1 -59 35 -31 11 77 38 -71 56 0
-1 59 11 -14 23 -7 -22 52 -45 66 0
1 -34 66 -38 -60 19 -67 -48 -47 0
-1 59 -11 -2 54 53 76 -81 0
-1 59 -11 2 17 69 -9 -62 24 -46 -50 -47 -41 48 -30 0
1 -34 66 -38 60 -35 -54 24 -74 -29 0
1 -34 66 -38 60 -35 54 -25 15 8 78 0
-1 -59 -35 65 69 -63 -7 8 64 0
-1 -59 -35 65 -69 40 -25 74 -54 -23 0
1 -34 66 -38 -60 -19 -37 50 -39 64 36 42 0
-1 59 11 14 77 21 -55 46 50 73 0
1 -34 -66 -72 42 25 13 -29 -47 16 -50 46 0
-1 -59 -35 -65 20 16 67 66 14 56 -33 0
1 -34 -66 72 62 63 35 0
1 -34 66 38 8 64 -73 -5 -67 42 0
-1 -59 35 -31 -11 26 4 0
-1 59 11 -14 -23 -80 44 0
-1 59 11 14 -77 22 25 8 0
-1 59 -11 -2 -54 10 22 66 -12 60 0
-1 -59 35 -31 11 77 38 71 -3 -75 0
1 34 -3 -54 -35 -76 66 0
1 -34 -66 -72 -42 18 -36 -41 -28 -50 0
1 34 3 -50 -57 -76 0
-1 -59 -35 65 -69 -40 14 -47 -52 5 0
1 -34 -66 72 -62 42 81 5 50 74 -37 0
-1 59 11 -14 23 -7 22 -58 -2 -68 46 -18 0
-1 59 -11 2 17 69 -9 -62 24 -46 -50 -47 -41 -48 0
-1 59 11 14 77 21 55 -33 0
-1 59 -11 2 17 69 -9 -62 -24 14 56 25 -13 0
-1 -59 -35 65 69 63 -80 -79 0
1 -34 -66 -72 -42 18 -36 -41 28 0
1 34 -3 54 -63 12 -11 2 70 0
1 34 -3 -54 35 -25 -56 -51 38 -12 0
-1 59 -11 -2 -54 10 22 66 12 -6 0
1 -34 -66 -72 -42 18 36 -12 62 -32 -41 -26 8 0
-1 59 -11 -2 -54 10 22 -66 63 6 -47 0
-1 59 -11 -2 -54 -10 -8 -24 -81 26 -53 -56 0
-1 -59 -35 -65 20 16 -67 -31 -13 0
-1 59 11 14 77 -21 -47 16 0
-1 59 -11 2 17 69 -9 -62 24 -46 50 3 -76 0
1 -34 66 -38 -60 -19 37 -57 51 0
-1 59 11 14 77 -21 -47 -16 -36 0
1 -34 -66 -72 42 25 13 29 -58 -77 -12 0
-1 59 -11 -2 54 -53 -3 -17 0
-1 59 -11 -2 -54 10 -22 0
1 -34 -66 -72 42 -25 -81 -55 19 71 0
-1 59 -11 -2 -54 -10 -8 -24 81 -17 45 0
-1 -59 -35 -65 20 16 67 66 14 56 33 0
-1 -59 -35 -65 20 -16 31 64 -57 10 -9 -30 43 0
-1 59 11 -14 23 7 66 -75 -39 0
1 -34 66 -38 -60 -19 37 57 41 0
1 34 -3 54 -63 12 -11 2 -70 0
-1 59 11 14 -77 22 -25 24 0
-1 59 11 -14 23 -7 22 58 20 4 0
-1 59 11 -14 23 -7 -22 52 45 -77 -37 44 -34 -58 0
-1 59 11 -14 23 -7 -22 52 -45 -66 0
-1 -59 -35 -65 20 -16 31 64 -57 -10 0
-1 59 11 -14 -23 80 38 57 -55 -46 -45 0
1 34 3 -50 57 23 -36 0
1 34 3 50 27 70 -43 0
-1 -59 35 31 -36 -54 -28 -69 0
1 -34 -66 -72 42 25 13 -29 -47 -16 -60 -61 -10 0
1 34 -3 54 -63 12 11 59 0
1 34 3 50 27 70 43 -66 -23 0
-1 59 11 -14 -23 -80 -44 73 -30 -18 0
1 -34 -66 -72 -42 18 36 -12 62 -32 -41 26 0
1 -34 66 -38 60 -35 54 -25 -15 47 -78 -3 0
1 -34 -66 72 -62 42 81 -5 -78 65 -43 0
-1 59 -11 2 17 69 -9 62 -16 6 0
1 -34 66 -38 60 35 56 -10 43 -73 0
1 -34 -66 72 -62 42 -81 27 -15 -8 24 80 0
1 -34 66 -38 60 -35 -54 -24 -46 0
-1 -59 -35 65 69 63 80 43 -26 0
1 -34 -66 -72 -42 18 36 -12 62 -32 41 0
-1 -59 35 31 -36 54 -11 16 0
1 -34 66 -38 -60 -19 -37 50 -39 64 -36 0
-1 59 11 14 77 21 -55 -46 0
-1 -59 35 -31 11 -77 -81 -41 0
-1 -59 -35 65 -69 -40 14 47 4 -67 -16 6 0
-1 59 11 -14 23 -7 -22 52 45 -77 37 0
1 34 3 50 -27 -28 -39 0
-1 59 11 -14 23 -7 -22 52 45 -77 -37 44 -34 58 0
-1 59 -11 2 17 -69 -53 -23 0
-1 59 11 14 -77 22 -25 -24 -56 68 19 -76 -66 0
-1 59 11 -14 23 -7 22 58 -20 -63 -18 0
-1 59 -11 2 17 69 -9 -62 24 46 -3 -48 0
1 -34 66 38 8 64 73 -50 -2 0
1 -34 66 -38 60 35 56 -10 -43 0
1 -34 66 -38 -60 -19 -37 50 -39 -64 0
1 34 -3 54 63 19 0
-1 59 -11 2 17 69 -9 -62 24 -46 -50 -47 -41 48 30 0
-1 -59 35 31 -36 54 -11 -16 0
1 34 -3 54 -63 12 -11 -2 0
-1 59 11 -14 -23 80 38 57 -55 46 0
-1 -59 -35 -65 20 16 67 -66 -52 81 -43 0
-1 -59 35 -31 11 -77 81 -2 0
1 -34 66 -38 -60 -19 -37 50 39 40 0
1 34 3 -50 57 -23 -4 0
1 34 -3 -54 35 -25 -56 51 72 -50 0
1 34 -3 54 63 -19 49 0
-1 59 11 -14 23 -7 -22 52 45 -77 -37 -44 -21 -78 0
-1 59 -11 2 -17 29 14 23 0
1 -34 66 38 -8 23 0
-1 59 11 -14 23 -7 22 -58 -2 68 21 0
1 -34 -66 72 -62 42 81 5 50 74 37 -60 0
1 34 3 -50 57 23 36 -9 0
-1 -59 -35 65 69 -63 -7 -8 0
1 34 -3 -54 35 25 -36 -13 0
-1 59 11 14 -77 22 25 -8 0
1 -34 66 -38 -60 -19 -37 50 -39 64 36 -42 0
1 -34 66 -38 60 -35 54 -25 -15 47 78 -31 0
1 34 3 -50 57 23 36 9 0
-1 -59 -35 65 69 -63 7 -6 0
-1 -59 -35 65 -69 -40 14 -47 52 10 0
1 -34 66 38 8 64 73 -50 2 0
-1 -59 35 31 36 42 50 0
1 -34 -66 72 -62 42 81 5 50 -74 36 0
-1 -59 -35 -65 -20 46 8 0
-1 -59 -35 65 69 -63 7 6 17 0
-1 -59 35 -31 11 -77 81 2 0
1 -34 66 -38 60 -35 -54 24 74 64 0
-1 59 11 -14 23 -7 22 -58 2 3 0
1 -34 -66 72 62 -63 -13 0
-1 -59 -35 65 -69 -40 -14 -26 -42 0
-1 -59 -35 -65 20 -16 31 -64 -32 0
1 -34 -66 -72 42 25 13 29 58 75 78 -55 -18 0
1 -34 -66 -72 42 25 13 -29 -47 16 50 80 0
-1 -59 -35 65 69 63 -80 79 -60 0
1 -34 -66 -72 42 -25 81 -13 -36 0
-1 -59 35 -31 11 77 38 -71 -56 0
1 -34 -66 72 -62 42 81 -5 78 -76 0
-1 -59 -35 -65 20 -16 31 64 -57 10 9 0
-1 -59 -35 65 -69 -40 -14 26 50 12 36 0
-1 59 -11 2 17 -69 53 -70 29 0
-1 59 -11 2 17 69 -9 -62 -24 14 -56 0
-1 59 11 14 -77 22 -25 -24 -56 -68 54 0
1 -34 -66 -72 42 25 13 -29 -47 -16 -60 61 -23 0
-1 -59 -35 -65 20 -16 -31 0
-1 59 11 -14 -23 -80 -44 -73 54 -46 0
-1 59 -11 -2 -54 10 22 -66 63 -6 0
1 -34 -66 72 -62 -42 4 0
-1 59 11 -14 23 7 66 -75 39 0
-1 59 -11 2 17 -69 -53 23 66 0
-1 59 -11 2 17 69 -9 -62 -24 -14 3 0
1 34 3 50 27 -70 11 0
1 -34 -66 72 -62 42 81 5 50 74 37 60 0
-1 -59 -35 65 -69 40 -25 -74 51 33 0
-1 -59 -35 65 -69 -40 -14 26 -50 -32 0
-1 59 -11 -2 -54 -10 -8 -24 -81 -26 0
-1 59 -11 2 17 69 -9 62 -16 -6 4 50 0
-1 59 11 -14 23 -7 22 -58 -2 68 -21 0
-1 59 -11 -2 -54 10 22 -66 -63 3 0
-1 -59 -35 65 -69 -40 14 47 -4 76 0
-1 59 11 -14 23 -7 -22 -52 21 0
1 -34 66 -38 60 -35 -54 -24 46 0
-1 59 -11 2 17 69 -9 -62 24 -46 50 -3 0
1 34 -3 -54 35 -25 -56 51 -72 0
-1 -59 -35 65 -69 -40 14 -47 52 -10 19 0
-1 59 11 -14 23 -7 22 58 -20 63 25 -39 0
1 34 3 50 27 70 43 66 0
-1 -59 -35 65 -69 40 -25 74 54 -50 0
-1 -59 -35 65 -69 -40 -14 -26 42 0
-1 59 11 -14 23 -7 22 -58 -2 -68 46 18 0
-1 59 -11 -2 -54 -10 8 -24 0
1 -34 66 -38 60 -35 -54 24 -74 29 0
1 -34 -66 72 62 -63 13 43 0
1 -34 -66 -72 42 25 -13 -11 0
-1 -59 -35 65 -69 -40 14 47 4 -67 16 22 0
1 -34 -66 72 -62 42 -81 27 -15 -8 24 -80 0
-1 59 11 -14 -23 -80 -44 -73 -54 60 -49 -71 -2 0
1 -34 -66 -72 -42 -18 70 0
-1 -59 -35 65 69 63 -80 79 60 0
-1 59 11 14 -77 22 -25 -24 -56 68 19 76 0
-1 59 11 14 -77 22 -25 -24 56 39 -68 0
-1 59 11 -14 -23 80 38 -57 -40 0
1 -34 -66 72 -62 42 81 -5 -78 -65 -39 0
1 34 3 50 27 70 43 -66 23 0
-1 59 11 14 -77 -22 -67 0
-1 59 -11 -2 -54 -10 8 24 -68 0
1 -34 66 38 8 64 73 50 0
-1 59 -11 2 17 69 -9 -62 24 46 -3 48 0
-1 59 11 -14 -23 80 -38 -13 0
1 34 3 -50 -57 76 0
-1 -59 35 31 -36 54 11 55 61 0
-1 -59 -35 -65 20 -16 31 64 -57 10 -9 30 -55 0
-1 -59 35 -31 11 77 -38 0
-1 59 11 14 77 -21 47 -67 0
-1 -59 -35 65 -69 40 -25 74 54 50 10 0
-1 59 -11 -2 -54 -10 -8 -24 81 17 0
-1 59 11 14 77 -21 -47 -16 36 0
-1 59 11 -14 -23 -80 -44 -73 -54 60 -49 -71 2 0
-1 59 -11 -2 -54 -10 8 24 68 -49 -81 0
-1 -59 -35 65 -69 -40 14 -47 -52 -5 0
-1 -59 35 -31 11 -77 -81 41 0
-1 -59 -35 -65 20 16 67 66 14 -56 22 0
-1 -59 -35 -65 20 16 -67 -31 13 -60 0
-1 -59 35 31 -36 -54 28 7 0
1 -34 -66 -72 -42 -18 -70 0
1 -34 66 38 8 64 -73 -5 67 40 0
-1 59 -11 -2 -54 -10 -8 -24 81 -17 -45 0
1 -34 -66 -72 42 25 13 -29 -47 -16 60 0
1 -34 66 -38 60 -35 54 25 41 0
-1 59 -11 2 17 69 -9 -62 -24 14 56 25 13 0
-1 -59 -35 65 69 -63 7 6 -17 0
1 -34 -66 72 -62 42 81 -5 -78 65 43 0
-1 59 11 -14 23 -7 -22 -52 -21 0
-1 59 11 14 -77 -22 67 0
-1 -59 -35 65 69 63 80 -43 68 -16 0
-1 -59 35 31 -36 -54 28 -7 0
1 -34 66 -38 -60 -19 -37 -50 0
-1 -59 35 -31 11 77 38 71 3 0
1 -34 66 -38 -60 19 -67 48 -76 0
1 -34 66 -38 -60 -19 -37 50 39 -40 0
-1 59 11 -14 23 7 66 75 -64 0
-1 59 11 -14 23 -7 -22 52 45 -77 -37 44 34 0
1 34 -3 54 63 -19 -49 0
1 -34 -66 72 62 -63 13 -43 21 0
-1 59 11 14 77 -21 47 67 0
1 34 -3 -54 -35 -76 -66 0
-1 -59 -35 65 -69 40 25 46 -9 0
-1 59 11 -14 -23 -80 -44 -73 54 46 0
-1 -59 35 31 -36 -54 -28 69 73 0
-1 59 11 -14 -23 80 38 -57 40 -5 0
1 -34 -66 -72 42 -25 -81 55 -80 0
1 -34 -66 -72 -42 18 36 12 0
1 -34 -66 -72 42 25 13 -29 47 0
-1 -59 -35 65 69 -63 -7 8 -64 0
-1 59 11 14 77 21 -55 46 50 -73 0
1 -34 66 -38 60 -35 54 -25 15 -8 0
1 -34 -66 72 -62 42 -81 27 -15 8 0
1 34 -3 -54 35 25 36 0
-1 -59 -35 -65 20 16 67 -66 -52 81 43 0
-1 -59 -35 65 -69 -40 14 47 4 67 49 0
-1 59 11 -14 -23 -80 -44 -73 -54 60 49 -68 -71 0
-1 59 -11 2 17 69 -9 62 -16 -6 -4 49 0
-1 59 -11 -2 -54 10 22 66 12 6 0
-1 -59 -35 65 -69 -40 14 -47 52 -10 -19 0
-1 59 11 -14 23 -7 22 58 -20 -63 18 0
1 -34 -66 -72 -42 18 -36 -41 -28 50 -62 0
-1 -59 35 31 36 -42 -15 0
-1 59 11 -14 23 -7 -22 52 45 77 24 0
-1 -59 -35 -65 20 -16 31 -64 32 0
-1 -59 -35 -65 20 16 -67 -31 13 60 0
-1 59 11 -14 -23 -80 -44 -73 -54 -60 0
1 -34 66 -38 -60 -19 37 57 -41 0
-1 59 -11 -2 -54 -10 -8 -24 -81 26 53 0
-1 -59 -35 -65 -20 -46 0
1 -34 -66 -72 42 25 13 -29 -47 -16 -60 61 23 0
1 -34 66 -38 -60 19 -67 48 76 70 0
-1 -59 -35 65 -69 40 -25 -74 51 -33 0
1 34 -3 54 -63 12 11 -59 0
-1 -59 35 31 -36 54 11 -55 0
-1 59 -11 2 17 69 -9 -62 -24 14 56 -25 -21 0
-1 59 11 -14 -23 80 38 57 55 0
1 34 -3 54 -63 -12 -66 79 0
1 -34 66 -38 60 -35 54 -25 15 8 -78 0
-1 59 11 -14 23 -7 22 58 -20 63 25 39 0
1 -34 66 -38 60 35 56 -10 43 73 33 0
-1 59 11 -14 -23 -80 -44 73 -30 18 -39 0
